mpirun:
/temporario2/apps/gnu/mpich-4.2.0/bin/mpirun
HYDRA build details:
    Version:                                 4.2.0
    Release Date:                            Fri Feb  9 12:29:21 CST 2024
    CC:                              gcc      
    Configure options:                       '--disable-option-checking' '--prefix=/temporario2/apps/gnu/mpich-4.2.0' '--with-hwloc=embedded' '--cache-file=/dev/null' '--srcdir=.' 'CC=gcc' 'CFLAGS= -O2' 'LDFLAGS=' 'LIBS=' 'CPPFLAGS= -DNETMOD_INLINE=__netmod_inline_ofi__ -I/temporario2/apps/source/mpich-4.2.0/src/mpl/include -I/temporario2/apps/source/mpich-4.2.0/modules/json-c -I/temporario2/apps/source/mpich-4.2.0/modules/hwloc/include -D_REENTRANT -I/temporario2/apps/source/mpich-4.2.0/src/mpi/romio/include -I/temporario2/apps/source/mpich-4.2.0/src/pmi/include -I/temporario2/apps/source/mpich-4.2.0/modules/yaksa/src/frontend/include -I/temporario2/apps/source/mpich-4.2.0/modules/libfabric/include'
    Process Manager:                         pmi
    Launchers available:                     ssh rsh fork slurm ll lsf sge manual persist
    Topology libraries available:            hwloc
    Resource management kernels available:   user slurm ll lsf sge pbs cobalt
    Demux engines available:                 poll select
pw.x:
/temporario2/apps/gnu/qe-7.4.1/bin/pw.x

     Program PWSCF v.7.4.1 starts on  4Jun2026 at 10:15:16 

     This program is part of the open-source Quantum ESPRESSO suite
     for quantum simulation of materials; please cite
         "P. Giannozzi et al., J. Phys.:Condens. Matter 21 395502 (2009);
         "P. Giannozzi et al., J. Phys.:Condens. Matter 29 465901 (2017);
         "P. Giannozzi et al., J. Chem. Phys. 152 154105 (2020);
          URL http://www.quantum-espresso.org", 
     in publications or presentations arising from this work. More details at
     http://www.quantum-espresso.org/quote

     Parallel version (MPI), running on     1 processors

     MPI processes distributed on     1 nodes
     457250 MiB available memory on the printing compute node when the environment starts

     Waiting for input...
     Reading input from standard input

 %%%%%%%%%%%%%%%%%%%%%%%%%%%%%%%%%%%%%%%%%%%%%%%%%%%%%%%%%%%%%%%%%%%%%%%%%%%%%%
     Error in routine  read_namelists (2):
      could not find namelist &control
 %%%%%%%%%%%%%%%%%%%%%%%%%%%%%%%%%%%%%%%%%%%%%%%%%%%%%%%%%%%%%%%%%%%%%%%%%%%%%%

     stopping ...
Abort(1) on node 0 (rank 0 in comm 0): application called MPI_Abort(MPI_COMM_WORLD, 1) - process 0
from test_input_xml: input file not opened or empty
libs:
	libgfortran.so.5 => /opt/ohpc/pub/compiler/gcc/8.3.0/lib64/libgfortran.so.5 (0x000015423f328000)
	libmpifort.so.12 => /temporario2/apps/gnu/mpich-4.2.0/lib/libmpifort.so.12 (0x000015423c6dc000)
	libmpi.so.12 => /temporario2/apps/gnu/mpich-4.2.0/lib/libmpi.so.12 (0x0000154239a25000)
	libgcc_s.so.1 => /opt/ohpc/pub/compiler/gcc/8.3.0/lib64/libgcc_s.so.1 (0x000015423980d000)
	libquadmath.so.0 => /opt/ohpc/pub/compiler/gcc/8.3.0/lib64/libquadmath.so.0 (0x00001542395cd000)
	libatomic.so.1 => /opt/ohpc/pub/compiler/gcc/5.4.0/lib/../lib64/libatomic.so.1 (0x00001542388aa000)
Note: The following floating-point exceptions are signalling: IEEE_UNDERFLOW_FLAG IEEE_DENORMAL
Note: The following floating-point exceptions are signalling: IEEE_UNDERFLOW_FLAG IEEE_DENORMAL
Note: The following floating-point exceptions are signalling: IEEE_UNDERFLOW_FLAG
Note: The following floating-point exceptions are signalling: IEEE_UNDERFLOW_FLAG IEEE_DENORMAL
Note: The following floating-point exceptions are signalling: IEEE_UNDERFLOW_FLAG IEEE_DENORMAL
Note: The following floating-point exceptions are signalling: IEEE_UNDERFLOW_FLAG IEEE_DENORMAL
Note: The following floating-point exceptions are signalling: IEEE_UNDERFLOW_FLAG IEEE_DENORMAL
Note: The following floating-point exceptions are signalling: IEEE_UNDERFLOW_FLAG IEEE_DENORMAL
Note: The following floating-point exceptions are signalling: IEEE_UNDERFLOW_FLAG IEEE_DENORMAL
Note: The following floating-point exceptions are signalling: IEEE_UNDERFLOW_FLAG IEEE_DENORMAL
Note: The following floating-point exceptions are signalling: IEEE_UNDERFLOW_FLAG IEEE_DENORMAL
Note: The following floating-point exceptions are signalling: IEEE_UNDERFLOW_FLAG IEEE_DENORMAL
Note: The following floating-point exceptions are signalling:Note: The following floating-point exceptions are signalling: IEEE_UNDERFLOW_FLAG IEEE_DENORMAL
Note: The following floating-point exceptions are signalling: IEEE_UNDERFLOW_FLAG
Note: The following floating-point exceptions are signalling: IEEE_UNDERFLOW_FLAG IEEE_DENORMAL
 IEEE_UNDERFLOW_FLAGNote: The following floating-point exceptions are signalling: IEEE_UNDERFLOW_FLAG IEEE_DENORMAL
Note: The following floating-point exceptions are signalling: IEEE_UNDERFLOW_FLAG IEEE_DENORMAL
 IEEE_DENORMALNote: The following floating-point exceptions are signalling: IEEE_UNDERFLOW_FLAG IEEE_DENORMAL

Note: The following floating-point exceptions are signalling: IEEE_UNDERFLOW_FLAG IEEE_DENORMAL
