
     Program PWSCF v.7.4.1 starts on  3Jun2026 at 11:27:43 

     This program is part of the open-source Quantum ESPRESSO suite
     for quantum simulation of materials; please cite
         "P. Giannozzi et al., J. Phys.:Condens. Matter 21 395502 (2009);
         "P. Giannozzi et al., J. Phys.:Condens. Matter 29 465901 (2017);
         "P. Giannozzi et al., J. Chem. Phys. 152 154105 (2020);
          URL http://www.quantum-espresso.org", 
     in publications or presentations arising from this work. More details at
     http://www.quantum-espresso.org/quote

     Parallel version (MPI), running on    20 processors

     MPI processes distributed on     1 nodes
     423681 MiB available memory on the printing compute node when the environment starts

     Reading input from pt-ch3-3.2A.in

     Current dimensions of program PWSCF are:
     Max number of different atomic species (ntypx) = 10
     Max number of k-points (npk) =  40000
     Max angular momentum in pseudopotentials (lmaxx) =  4
     file Pt.pbe-spn-kjpaw_psl.1.0.0.UPF: wavefunction(s)  5P 5D renormalized
     file C.pbe-n-kjpaw_psl.1.0.0.UPF: wavefunction(s)  2S 2P renormalized
     file H.pbe-n-kjpaw_psl.1.0.0.UPF: wavefunction(s)  1S renormalized

     IMPORTANT: XC functional enforced from input :
     Exchange-correlation= RPBE
                           (   1   4  44   4   0   0   0)
     Any further DFT definition will be discarded
     Please, verify this is what you really want


     R & G space division:  proc/nbgrp/npool/nimage =      20
     Subspace diagonalization in iterative solution of the eigenvalue problem:
     one sub-group per band group will be used
     custom distributed-memory algorithm (size of sub-group:  4*  4 procs)


     Parallelization info
     --------------------
     sticks:   dense  smooth     PW     G-vecs:    dense   smooth      PW
     Min         937     374     99               247781    62692    8537
     Max         938     375    100               247788    62703    8541
     Sum       18745    7495   1981              4955677  1253981  170793

     Using Slab Decomposition



     bravais-lattice index     =            0
     lattice parameter (alat)  =      21.2985  a.u.
     unit-cell volume          =   19971.4862 (a.u.)^3
     number of atoms/cell      =           68
     number of atomic types    =            3
     number of electrons       =      1159.00
     number of Kohn-Sham states=          696
     kinetic-energy cutoff     =      60.0000  Ry
     charge density cutoff     =     600.0000  Ry
     scf convergence threshold =      1.0E-05
     mixing beta               =       0.2000
     number of iterations used =           12  local-TF  mixing
     Exchange-correlation= RPBE
                           (   1   4  44   4   0   0   0)

     celldm(1)=  21.298514  celldm(2)=   0.000000  celldm(3)=   0.000000
     celldm(4)=   0.000000  celldm(5)=   0.000000  celldm(6)=   0.000000

     crystal axes: (cart. coord. in units of alat)
               a(1) = (   1.000000   0.000000   0.000000 )  
               a(2) = (   0.500000   0.866025   0.000000 )  
               a(3) = (   0.000000   0.000000   2.386887 )  

     reciprocal axes: (cart. coord. in units 2 pi/alat)
               b(1) = (  1.000000 -0.577350  0.000000 )  
               b(2) = (  0.000000  1.154701  0.000000 )  
               b(3) = (  0.000000  0.000000  0.418956 )  


     PseudoPot. # 1 for Pt read from file:
     ./pseudo/Pt.pbe-spn-kjpaw_psl.1.0.0.UPF
     MD5 check sum: f62f2ab5688b80eb25add38ff45b0645
     Pseudo is Projector augmented-wave + core cor, Zval = 18.0
     Generated using &quot;atomic&quot; code by A. Dal Corso  v.6.3
     Shape of augmentation charge: PSQ
     Using radial grid of 1277 points,  6 beta functions with: 
                l(1) =   0
                l(2) =   0
                l(3) =   1
                l(4) =   1
                l(5) =   2
                l(6) =   2
     Q(r) pseudized with 0 coefficients 


     PseudoPot. # 2 for C  read from file:
     ./pseudo/C.pbe-n-kjpaw_psl.1.0.0.UPF
     MD5 check sum: 4a4ee036229462a71ca67bd2fbe14b70
     Pseudo is Projector augmented-wave + core cor, Zval =  4.0
     Generated using &quot;atomic&quot; code by A. Dal Corso  v.6.3
     Shape of augmentation charge: PSQ
     Using radial grid of 1073 points,  4 beta functions with: 
                l(1) =   0
                l(2) =   0
                l(3) =   1
                l(4) =   1
     Q(r) pseudized with 0 coefficients 


     PseudoPot. # 3 for H  read from file:
     ./pseudo/H.pbe-n-kjpaw_psl.1.0.0.UPF
     MD5 check sum: 9bec32682bb16d1c1d5c3eec51b3b3df
     Pseudo is Projector augmented-wave, Zval =  1.0
     Generated using &quot;atomic&quot; code by A. Dal Corso  v.6.3MaX
     Shape of augmentation charge: PSQ
     Using radial grid of  929 points,  2 beta functions with: 
                l(1) =   0
                l(2) =   0
     Q(r) pseudized with 0 coefficients 


     atomic species   valence    mass     pseudopotential
     Pt               18.00   195.08000     Pt( 1.00)
     C                 4.00    12.01100     C ( 1.00)
     H                 1.00     1.00800     H ( 1.00)

     Starting magnetic structure 
     atomic species   magnetization
     Pt              0.000
     C               0.500
     H               0.500

     No symmetry found


                                    s                        frac. trans.

      isym =  1     identity                                     

 cryst.   s( 1) = (     1          0          0      )
                  (     0          1          0      )
                  (     0          0          1      )

 cart.    s( 1) = (  1.0000000  0.0000000  0.0000000 )
                  (  0.0000000  1.0000000  0.0000000 )
                  (  0.0000000  0.0000000  1.0000000 )


   Cartesian axes

     site n.     atom                  positions (alat units)
         1        Pt     tau(   1) = (   0.0000000   0.0000000   0.1774515  )
         2        Pt     tau(   2) = (   0.2500000   0.0000000   0.1774515  )
         3        Pt     tau(   3) = (   0.5000000   0.0000000   0.1774515  )
         4        Pt     tau(   4) = (   0.7500000   0.0000000   0.1774515  )
         5        Pt     tau(   5) = (   0.1250000   0.2165064   0.1774515  )
         6        Pt     tau(   6) = (   0.3750000   0.2165064   0.1774515  )
         7        Pt     tau(   7) = (   0.6250000   0.2165064   0.1774515  )
         8        Pt     tau(   8) = (   0.8750000   0.2165064   0.1774515  )
         9        Pt     tau(   9) = (   0.2500000   0.4330127   0.1774515  )
        10        Pt     tau(  10) = (   0.5000000   0.4330127   0.1774515  )
        11        Pt     tau(  11) = (   0.7500000   0.4330127   0.1774515  )
        12        Pt     tau(  12) = (   1.0000000   0.4330127   0.1774515  )
        13        Pt     tau(  13) = (   0.3750000   0.6495191   0.1774515  )
        14        Pt     tau(  14) = (   0.6250000   0.6495191   0.1774515  )
        15        Pt     tau(  15) = (   0.8750000   0.6495191   0.1774515  )
        16        Pt     tau(  16) = (   1.1250000   0.6495191   0.1774515  )
        17        Pt     tau(  17) = (   0.1250000   0.0721688   0.3815756  )
        18        Pt     tau(  18) = (   0.3750000   0.0721688   0.3815756  )
        19        Pt     tau(  19) = (   0.6250000   0.0721688   0.3815756  )
        20        Pt     tau(  20) = (   0.8750000   0.0721688   0.3815756  )
        21        Pt     tau(  21) = (   0.2500000   0.2886751   0.3815756  )
        22        Pt     tau(  22) = (   0.5000000   0.2886751   0.3815756  )
        23        Pt     tau(  23) = (   0.7500000   0.2886751   0.3815756  )
        24        Pt     tau(  24) = (   1.0000000   0.2886751   0.3815756  )
        25        Pt     tau(  25) = (   0.3750000   0.5051815   0.3815756  )
        26        Pt     tau(  26) = (   0.6250000   0.5051815   0.3815756  )
        27        Pt     tau(  27) = (   0.8750000   0.5051815   0.3815756  )
        28        Pt     tau(  28) = (   1.1250000   0.5051815   0.3815756  )
        29        Pt     tau(  29) = (   0.5000000   0.7216878   0.3815756  )
        30        Pt     tau(  30) = (   0.7500000   0.7216878   0.3815756  )
        31        Pt     tau(  31) = (   1.0000000   0.7216878   0.3815756  )
        32        Pt     tau(  32) = (   1.2500000   0.7216878   0.3815756  )
        33        Pt     tau(  33) = (  -0.0004071   0.1444175   0.5837318  )
        34        Pt     tau(  34) = (   0.2508049   0.1444706   0.5838122  )
        35        Pt     tau(  35) = (   0.5021927   0.1456725   0.5878271  )
        36        Pt     tau(  36) = (   0.7481923   0.1456142   0.5876538  )
        37        Pt     tau(  37) = (   0.1251460   0.3607874   0.5840966  )
        38        Pt     tau(  38) = (   0.3752259   0.3609074   0.5840322  )
        39        Pt     tau(  39) = (   0.6251421   0.3587940   0.5875813  )
        40        Pt     tau(  40) = (   0.8750714   0.3609422   0.5839931  )
        41        Pt     tau(  41) = (   0.2502775   0.5775808   0.5841367  )
        42        Pt     tau(  42) = (   0.5004264   0.5770246   0.5837816  )
        43        Pt     tau(  43) = (   0.7498241   0.5770897   0.5837211  )
        44        Pt     tau(  44) = (   0.9999785   0.5776019   0.5841089  )
        45        Pt     tau(  45) = (   0.3748271   0.7945235   0.5838164  )
        46        Pt     tau(  46) = (   0.6251666   0.7940363   0.5838552  )
        47        Pt     tau(  47) = (   0.8754870   0.7945930   0.5838362  )
        48        Pt     tau(  48) = (   1.1251188   0.7941351   0.5840487  )
        49        Pt     tau(  49) = (   0.0005765   0.0001243   0.7899089  )
        50        Pt     tau(  50) = (   0.2501360   0.0002172   0.7899293  )
        51        Pt     tau(  51) = (   0.4997895  -0.0000465   0.7894717  )
        52        Pt     tau(  52) = (   0.7508495  -0.0001665   0.7893382  )
        53        Pt     tau(  53) = (   0.1253372   0.2167946   0.7900212  )
        54        Pt     tau(  54) = (   0.3746566   0.2165399   0.7894131  )
        55        Pt     tau(  55) = (   0.6257027   0.2172626   0.8132667  )
        56        Pt     tau(  56) = (   0.8762497   0.2164985   0.7891293  )
        57        Pt     tau(  57) = (   0.2502075   0.4333659   0.7898198  )
        58        Pt     tau(  58) = (   0.5000991   0.4341761   0.7892169  )
        59        Pt     tau(  59) = (   0.7505343   0.4343691   0.7890666  )
        60        Pt     tau(  60) = (   1.0005003   0.4334400   0.7897941  )
        61        Pt     tau(  61) = (   0.3752808   0.6498467   0.7900659  )
        62        Pt     tau(  62) = (   0.6252762   0.6502422   0.7898982  )
        63        Pt     tau(  63) = (   0.8753115   0.6498951   0.7900332  )
        64        Pt     tau(  64) = (   1.1252903   0.6497980   0.7898307  )
        65        C      tau(  65) = (   0.6284653   0.2202246   1.0971890  )
        66        H      tau(  66) = (   0.6289402   0.3131874   1.1258744  )
        67        H      tau(  67) = (   0.7090622   0.1744764   1.1267755  )
        68        H      tau(  68) = (   0.5487219   0.1744311   1.1289000  )

     Fixed atoms
     site n.  direction
         1    0   0   0
         2    0   0   0
         3    0   0   0
         4    0   0   0
         5    0   0   0
         6    0   0   0
         7    0   0   0
         8    0   0   0
         9    0   0   0
        10    0   0   0
        11    0   0   0
        12    0   0   0
        13    0   0   0
        14    0   0   0
        15    0   0   0
        16    0   0   0
        17    0   0   0
        18    0   0   0
        19    0   0   0
        20    0   0   0
        21    0   0   0
        22    0   0   0
        23    0   0   0
        24    0   0   0
        25    0   0   0
        26    0   0   0
        27    0   0   0
        28    0   0   0
        29    0   0   0
        30    0   0   0
        31    0   0   0
        32    0   0   0
        33    1   1   1
        34    1   1   1
        35    1   1   1
        36    1   1   1
        37    1   1   1
        38    1   1   1
        39    1   1   1
        40    1   1   1
        41    1   1   1
        42    1   1   1
        43    1   1   1
        44    1   1   1
        45    1   1   1
        46    1   1   1
        47    1   1   1
        48    1   1   1
        49    1   1   1
        50    1   1   1
        51    1   1   1
        52    1   1   1
        53    1   1   1
        54    1   1   1
        55    1   1   1
        56    1   1   1
        57    1   1   1
        58    1   1   1
        59    1   1   1
        60    1   1   1
        61    1   1   1
        62    1   1   1
        63    1   1   1
        64    1   1   1
        65    1   1   1
        66    1   1   1
        67    1   1   1
        68    1   1   1

   Crystallographic axes

     site n.     atom                  positions (cryst. coord.)
         1        Pt     tau(   1) = (  0.0000000  0.0000000  0.0743443  )
         2        Pt     tau(   2) = (  0.2500000  0.0000000  0.0743443  )
         3        Pt     tau(   3) = (  0.5000000  0.0000000  0.0743443  )
         4        Pt     tau(   4) = (  0.7500000  0.0000000  0.0743443  )
         5        Pt     tau(   5) = (  0.0000000  0.2500000  0.0743443  )
         6        Pt     tau(   6) = (  0.2500000  0.2500000  0.0743443  )
         7        Pt     tau(   7) = (  0.5000000  0.2500000  0.0743443  )
         8        Pt     tau(   8) = (  0.7500000  0.2500000  0.0743443  )
         9        Pt     tau(   9) = ( -0.0000000  0.5000000  0.0743443  )
        10        Pt     tau(  10) = (  0.2500000  0.5000000  0.0743443  )
        11        Pt     tau(  11) = (  0.5000000  0.5000000  0.0743443  )
        12        Pt     tau(  12) = (  0.7500000  0.5000000  0.0743443  )
        13        Pt     tau(  13) = (  0.0000000  0.7500000  0.0743443  )
        14        Pt     tau(  14) = (  0.2500000  0.7500000  0.0743443  )
        15        Pt     tau(  15) = (  0.5000000  0.7500000  0.0743443  )
        16        Pt     tau(  16) = (  0.7500000  0.7500000  0.0743443  )
        17        Pt     tau(  17) = (  0.0833333  0.0833333  0.1598633  )
        18        Pt     tau(  18) = (  0.3333333  0.0833333  0.1598633  )
        19        Pt     tau(  19) = (  0.5833333  0.0833333  0.1598633  )
        20        Pt     tau(  20) = (  0.8333333  0.0833333  0.1598633  )
        21        Pt     tau(  21) = (  0.0833333  0.3333333  0.1598633  )
        22        Pt     tau(  22) = (  0.3333333  0.3333333  0.1598633  )
        23        Pt     tau(  23) = (  0.5833333  0.3333333  0.1598633  )
        24        Pt     tau(  24) = (  0.8333333  0.3333333  0.1598633  )
        25        Pt     tau(  25) = (  0.0833333  0.5833333  0.1598633  )
        26        Pt     tau(  26) = (  0.3333333  0.5833333  0.1598633  )
        27        Pt     tau(  27) = (  0.5833333  0.5833333  0.1598633  )
        28        Pt     tau(  28) = (  0.8333333  0.5833333  0.1598633  )
        29        Pt     tau(  29) = (  0.0833333  0.8333333  0.1598633  )
        30        Pt     tau(  30) = (  0.3333333  0.8333333  0.1598633  )
        31        Pt     tau(  31) = (  0.5833333  0.8333333  0.1598633  )
        32        Pt     tau(  32) = (  0.8333333  0.8333333  0.1598633  )
        33        Pt     tau(  33) = ( -0.0837866  0.1667589  0.2445578  )
        34        Pt     tau(  34) = (  0.1673948  0.1668202  0.2445915  )
        35        Pt     tau(  35) = (  0.4180886  0.1682082  0.2462735  )
        36        Pt     tau(  36) = (  0.6641218  0.1681408  0.2462009  )
        37        Pt     tau(  37) = ( -0.0831546  0.4166014  0.2447106  )
        38        Pt     tau(  38) = (  0.1668559  0.4167400  0.2446836  )
        39        Pt     tau(  39) = (  0.4179923  0.4142996  0.2461706  )
        40        Pt     tau(  40) = (  0.6666813  0.4167802  0.2446673  )
        41        Pt     tau(  41) = ( -0.0831889  0.6669329  0.2447274  )
        42        Pt     tau(  42) = (  0.1672811  0.6662906  0.2445786  )
        43        Pt     tau(  43) = (  0.4166412  0.6663658  0.2445533  )
        44        Pt     tau(  44) = (  0.6664999  0.6669572  0.2447158  )
        45        Pt     tau(  45) = ( -0.0838913  0.9174367  0.2445932  )
        46        Pt     tau(  46) = (  0.1667296  0.9168741  0.2446095  )
        47        Pt     tau(  47) = (  0.4167285  0.9175170  0.2446015  )
        48        Pt     tau(  48) = (  0.6666247  0.9169882  0.2446905  )
        49        Pt     tau(  49) = (  0.0005047  0.0001435  0.3309369  )
        50        Pt     tau(  50) = (  0.2500106  0.0002509  0.3309454  )
        51        Pt     tau(  51) = (  0.4998164 -0.0000537  0.3307537  )
        52        Pt     tau(  52) = (  0.7509456 -0.0001922  0.3306978  )
        53        Pt     tau(  53) = (  0.0001708  0.2503329  0.3309839  )
        54        Pt     tau(  54) = (  0.2496372  0.2500388  0.3307292  )
        55        Pt     tau(  55) = (  0.5002660  0.2508732  0.3407227  )
        56        Pt     tau(  56) = (  0.7512542  0.2499909  0.3306102  )
        57        Pt     tau(  57) = (  0.0000036  0.5004079  0.3308996  )
        58        Pt     tau(  58) = (  0.2494274  0.5013434  0.3306469  )
        59        Pt     tau(  59) = (  0.4997512  0.5015662  0.3305840  )
        60        Pt     tau(  60) = (  0.7502536  0.5004934  0.3308888  )
        61        Pt     tau(  61) = (  0.0000916  0.7503784  0.3310026  )
        62        Pt     tau(  62) = (  0.2498587  0.7508350  0.3309324  )
        63        Pt     tau(  63) = (  0.5000944  0.7504343  0.3309889  )
        64        Pt     tau(  64) = (  0.7501292  0.7503221  0.3309041  )
        65        C      tau(  65) = (  0.5013186  0.2542935  0.4596736  )
        66        H      tau(  66) = (  0.4481214  0.3616376  0.4716915  )
        67        H      tau(  67) = (  0.6083282  0.2014680  0.4720691  )
        68        H      tau(  68) = (  0.4480140  0.2014157  0.4729591  )

     number of k points=    10  Fermi-Dirac smearing, width (Ry)=  0.0037
                       cart. coord. in units 2pi/alat
        k(    1) = (   0.0000000   0.0000000   0.0000000), wk =   0.0625000
        k(    2) = (   0.0000000   0.2886751   0.0000000), wk =   0.1250000
        k(    3) = (   0.0000000  -0.5773503   0.0000000), wk =   0.0625000
        k(    4) = (   0.2500000  -0.1443376   0.0000000), wk =   0.1250000
        k(    5) = (   0.2500000   0.1443376   0.0000000), wk =   0.1250000
        k(    6) = (   0.2500000  -0.7216878   0.0000000), wk =   0.1250000
        k(    7) = (   0.2500000  -0.4330127   0.0000000), wk =   0.1250000
        k(    8) = (  -0.5000000   0.2886751   0.0000000), wk =   0.0625000
        k(    9) = (  -0.5000000   0.5773503   0.0000000), wk =   0.1250000
        k(   10) = (  -0.5000000  -0.2886751   0.0000000), wk =   0.0625000

                       cryst. coord.
        k(    1) = (   0.0000000   0.0000000   0.0000000), wk =   0.0625000
        k(    2) = (   0.0000000   0.2500000   0.0000000), wk =   0.1250000
        k(    3) = (   0.0000000  -0.5000000   0.0000000), wk =   0.0625000
        k(    4) = (   0.2500000   0.0000000   0.0000000), wk =   0.1250000
        k(    5) = (   0.2500000   0.2500000   0.0000000), wk =   0.1250000
        k(    6) = (   0.2500000  -0.5000000   0.0000000), wk =   0.1250000
        k(    7) = (   0.2500000  -0.2500000   0.0000000), wk =   0.1250000
        k(    8) = (  -0.5000000   0.0000000   0.0000000), wk =   0.0625000
        k(    9) = (  -0.5000000   0.2500000   0.0000000), wk =   0.1250000
        k(   10) = (  -0.5000000  -0.5000000   0.0000000), wk =   0.0625000

     Dense  grid:  4955677 G-vectors     FFT dimensions: ( 180, 180, 400)

     Smooth grid:  1253981 G-vectors     FFT dimensions: ( 108, 108, 256)

     Dynamical RAM for                 wfc:      83.23 MB

     Dynamical RAM for     wfc (w. buffer):    1747.83 MB

     Dynamical RAM for           str. fact:      11.34 MB

     Dynamical RAM for           local pot:       0.00 MB

     Dynamical RAM for          nlocal pot:     139.43 MB

     Dynamical RAM for                qrad:       5.90 MB

     Dynamical RAM for          rho,v,vnew:      52.35 MB

     Dynamical RAM for               rhoin:      17.45 MB

     Dynamical RAM for            rho*nmix:     181.48 MB

     Dynamical RAM for           G-vectors:      14.66 MB

     Dynamical RAM for          h,s,v(r/c):       5.54 MB

     Dynamical RAM for          <psi|beta>:      12.38 MB

     Dynamical RAM for                 psi:     166.46 MB

     Dynamical RAM for                hpsi:     166.46 MB

     Dynamical RAM for                spsi:     166.46 MB

     Dynamical RAM for      wfcinit/wfcrot:     177.55 MB

     Dynamical RAM for           addusdens:     949.00 MB

     Dynamical RAM for          addusforce:    1425.89 MB

     Dynamical RAM for         addusstress:     765.63 MB

     Estimated static dynamical RAM per process >       1.99 GB

     Estimated max dynamical RAM per process >       3.56 GB

     Estimated total dynamical RAM >      71.12 GB
     Generating pointlists ...
     new r_m :   0.1015 (alat units)  2.1613 (a.u.) for type    1
     new r_m :   0.0401 (alat units)  0.8546 (a.u.) for type    2
     new r_m :   0.0401 (alat units)  0.8546 (a.u.) for type    3

     Initial potential from superposition of free atoms

     starting charge    1158.9913, renormalised to    1159.0000

     negative rho (up, down):  3.931E-04 4.103E-04
     Starting wfcs are  647 randomized atomic wfcs +   49 random wfcs
     Checking if some PAW data can be deallocated... 
       PAW data deallocated on    1 nodes for type:  1
       PAW data deallocated on   19 nodes for type:  2
       PAW data deallocated on   19 nodes for type:  3

     total cpu time spent up to now is      861.1 secs

     Self-consistent Calculation

     iteration #  1     ecut=    60.00 Ry     beta= 0.20
     Davidson diagonalization with overlap

---- Real-time Memory Report at c_bands before calling an iterative solver
          2202 MiB given to the printing process from OS
         -1982 MiB allocation reported by mallinfo(arena+hblkhd)
        382316 MiB available memory on the node where the printing process lives
------------------
     ethr =  1.00E-02,  avg # of iterations =  5.1

     Threshold (ethr) on eigenvalues was too large:
     Diagonalizing with lowered threshold

     Davidson diagonalization with overlap

---- Real-time Memory Report at c_bands before calling an iterative solver
          3064 MiB given to the printing process from OS
         -1967 MiB allocation reported by mallinfo(arena+hblkhd)
        381763 MiB available memory on the node where the printing process lives
------------------
     ethr =  1.46E-04,  avg # of iterations = 11.5

     negative rho (up, down):  2.928E-06 2.924E-06

     total cpu time spent up to now is     7759.7 secs

     total energy              =  -58760.56127100 Ry
     estimated scf accuracy    <       1.70401547 Ry

     total magnetization       =     0.56 Bohr mag/cell
     absolute magnetization    =     0.87 Bohr mag/cell

     iteration #  2     ecut=    60.00 Ry     beta= 0.20
     Davidson diagonalization with overlap

---- Real-time Memory Report at c_bands before calling an iterative solver
          3086 MiB given to the printing process from OS
         -1957 MiB allocation reported by mallinfo(arena+hblkhd)
        381404 MiB available memory on the node where the printing process lives
------------------
     ethr =  1.47E-04,  avg # of iterations =  2.0

     negative rho (up, down):  2.268E-07 2.279E-07

     total cpu time spent up to now is    10572.5 secs

     total energy              =  -58760.52143979 Ry
     estimated scf accuracy    <       0.98591997 Ry

     total magnetization       =     0.72 Bohr mag/cell
     absolute magnetization    =     1.03 Bohr mag/cell

     iteration #  3     ecut=    60.00 Ry     beta= 0.20
     Davidson diagonalization with overlap

---- Real-time Memory Report at c_bands before calling an iterative solver
          3091 MiB given to the printing process from OS
         -1952 MiB allocation reported by mallinfo(arena+hblkhd)
        381279 MiB available memory on the node where the printing process lives
------------------
     ethr =  8.51E-05,  avg # of iterations =  5.6

     negative rho (up, down):  1.603E-07 1.573E-07

     total cpu time spent up to now is    13499.3 secs

     total energy              =  -58760.40246629 Ry
     estimated scf accuracy    <       0.64575992 Ry

     total magnetization       =     0.74 Bohr mag/cell
     absolute magnetization    =     1.08 Bohr mag/cell

     iteration #  4     ecut=    60.00 Ry     beta= 0.20
     Davidson diagonalization with overlap

---- Real-time Memory Report at c_bands before calling an iterative solver
          3095 MiB given to the printing process from OS
         -1948 MiB allocation reported by mallinfo(arena+hblkhd)
        381121 MiB available memory on the node where the printing process lives
------------------
     ethr =  5.57E-05,  avg # of iterations = 11.7

     negative rho (up, down):  1.109E-07 1.092E-07

     total cpu time spent up to now is    16790.8 secs

     total energy              =  -58760.47806786 Ry
     estimated scf accuracy    <       0.19608561 Ry

     total magnetization       =     0.25 Bohr mag/cell
     absolute magnetization    =     0.89 Bohr mag/cell

     iteration #  5     ecut=    60.00 Ry     beta= 0.20
     Davidson diagonalization with overlap

---- Real-time Memory Report at c_bands before calling an iterative solver
          3099 MiB given to the printing process from OS
         -1944 MiB allocation reported by mallinfo(arena+hblkhd)
        380951 MiB available memory on the node where the printing process lives
------------------
     ethr =  1.69E-05,  avg # of iterations =  2.0

     negative rho (up, down):  1.701E-07 1.723E-07

     total cpu time spent up to now is    19501.9 secs

     total energy              =  -58760.45833001 Ry
     estimated scf accuracy    <       0.15819893 Ry

     total magnetization       =     0.27 Bohr mag/cell
     absolute magnetization    =     0.94 Bohr mag/cell

     iteration #  6     ecut=    60.00 Ry     beta= 0.20
     Davidson diagonalization with overlap

---- Real-time Memory Report at c_bands before calling an iterative solver
          3103 MiB given to the printing process from OS
         -1940 MiB allocation reported by mallinfo(arena+hblkhd)
        380897 MiB available memory on the node where the printing process lives
------------------
     ethr =  1.36E-05,  avg # of iterations =  6.3

     negative rho (up, down):  2.019E-07 2.012E-07

     total cpu time spent up to now is    22434.4 secs

     total energy              =  -58760.46136502 Ry
     estimated scf accuracy    <       0.04382474 Ry

     total magnetization       =     0.41 Bohr mag/cell
     absolute magnetization    =     1.18 Bohr mag/cell

     iteration #  7     ecut=    60.00 Ry     beta= 0.20
     Davidson diagonalization with overlap

---- Real-time Memory Report at c_bands before calling an iterative solver
          3107 MiB given to the printing process from OS
         -1936 MiB allocation reported by mallinfo(arena+hblkhd)
        380846 MiB available memory on the node where the printing process lives
------------------
     c_bands:  1 eigenvalues not converged
     c_bands:  1 eigenvalues not converged
     c_bands:  2 eigenvalues not converged
     c_bands:  1 eigenvalues not converged
     c_bands:  1 eigenvalues not converged
     c_bands:  1 eigenvalues not converged
     c_bands:  1 eigenvalues not converged
     ethr =  3.78E-06,  avg # of iterations = 14.9

     negative rho (up, down):  2.368E-07 2.372E-07

     total cpu time spent up to now is    25720.3 secs

     total energy              =  -58760.45821616 Ry
     estimated scf accuracy    <       0.03245252 Ry

     total magnetization       =     0.36 Bohr mag/cell
     absolute magnetization    =     1.22 Bohr mag/cell

     iteration #  8     ecut=    60.00 Ry     beta= 0.20
     Davidson diagonalization with overlap

---- Real-time Memory Report at c_bands before calling an iterative solver
          3112 MiB given to the printing process from OS
         -1931 MiB allocation reported by mallinfo(arena+hblkhd)
        380794 MiB available memory on the node where the printing process lives
------------------
     ethr =  2.80E-06,  avg # of iterations = 12.1

     negative rho (up, down):  1.988E-06 2.031E-06

     total cpu time spent up to now is    28834.1 secs

     total energy              =  -58760.45342382 Ry
     estimated scf accuracy    <       0.02512795 Ry

     total magnetization       =     0.29 Bohr mag/cell
     absolute magnetization    =     1.27 Bohr mag/cell

     iteration #  9     ecut=    60.00 Ry     beta= 0.20
     Davidson diagonalization with overlap

---- Real-time Memory Report at c_bands before calling an iterative solver
          3116 MiB given to the printing process from OS
         -1927 MiB allocation reported by mallinfo(arena+hblkhd)
        380698 MiB available memory on the node where the printing process lives
------------------
     c_bands:  1 eigenvalues not converged
     c_bands:  1 eigenvalues not converged
     ethr =  2.17E-06,  avg # of iterations = 16.4

     negative rho (up, down):  4.383E-06 7.935E-06

     total cpu time spent up to now is    32324.4 secs

     total energy              =  -58760.45289540 Ry
     estimated scf accuracy    <       0.01611325 Ry

     total magnetization       =     0.17 Bohr mag/cell
     absolute magnetization    =     1.39 Bohr mag/cell

     iteration # 10     ecut=    60.00 Ry     beta= 0.20
     Davidson diagonalization with overlap

---- Real-time Memory Report at c_bands before calling an iterative solver
          3120 MiB given to the printing process from OS
         -1923 MiB allocation reported by mallinfo(arena+hblkhd)
        380566 MiB available memory on the node where the printing process lives
------------------
     ethr =  1.39E-06,  avg # of iterations = 10.1

     negative rho (up, down):  1.618E-03 1.648E-03

     total cpu time spent up to now is    35458.8 secs

     total energy              =  -58760.45182824 Ry
     estimated scf accuracy    <       0.01357654 Ry

     total magnetization       =     0.10 Bohr mag/cell
     absolute magnetization    =     1.46 Bohr mag/cell

     iteration # 11     ecut=    60.00 Ry     beta= 0.20
     Davidson diagonalization with overlap

---- Real-time Memory Report at c_bands before calling an iterative solver
          3124 MiB given to the printing process from OS
         -1919 MiB allocation reported by mallinfo(arena+hblkhd)
        380480 MiB available memory on the node where the printing process lives
------------------
     c_bands:  1 eigenvalues not converged
     c_bands:  1 eigenvalues not converged
     c_bands:  1 eigenvalues not converged
     ethr =  1.17E-06,  avg # of iterations = 14.7

     negative rho (up, down):  1.469E-02 1.470E-02

     total cpu time spent up to now is    38893.6 secs

     total energy              =  -58760.45164027 Ry
     estimated scf accuracy    <       0.00742943 Ry

     total magnetization       =    -0.00 Bohr mag/cell
     absolute magnetization    =     1.58 Bohr mag/cell

     iteration # 12     ecut=    60.00 Ry     beta= 0.20
     Davidson diagonalization with overlap

---- Real-time Memory Report at c_bands before calling an iterative solver
          3128 MiB given to the printing process from OS
         -1915 MiB allocation reported by mallinfo(arena+hblkhd)
        380504 MiB available memory on the node where the printing process lives
------------------
     c_bands:  1 eigenvalues not converged
     c_bands:  1 eigenvalues not converged
     ethr =  6.41E-07,  avg # of iterations = 12.2

     negative rho (up, down):  1.790E-02 1.793E-02

     total cpu time spent up to now is    42135.9 secs

     total energy              =  -58760.45237306 Ry
     estimated scf accuracy    <       0.00274519 Ry

     total magnetization       =    -0.06 Bohr mag/cell
     absolute magnetization    =     1.67 Bohr mag/cell

     iteration # 13     ecut=    60.00 Ry     beta= 0.20
     Davidson diagonalization with overlap

---- Real-time Memory Report at c_bands before calling an iterative solver
          3132 MiB given to the printing process from OS
         -1911 MiB allocation reported by mallinfo(arena+hblkhd)
        380288 MiB available memory on the node where the printing process lives
------------------
     c_bands:  1 eigenvalues not converged
     c_bands:  1 eigenvalues not converged
     c_bands:  1 eigenvalues not converged
     c_bands:  1 eigenvalues not converged
     ethr =  2.37E-07,  avg # of iterations =  9.7

     negative rho (up, down):  2.175E-02 2.189E-02

     total cpu time spent up to now is    45211.0 secs

     total energy              =  -58760.45294524 Ry
     estimated scf accuracy    <       0.00157231 Ry

     total magnetization       =    -0.12 Bohr mag/cell
     absolute magnetization    =     1.71 Bohr mag/cell

     iteration # 14     ecut=    60.00 Ry     beta= 0.20
     Davidson diagonalization with overlap

---- Real-time Memory Report at c_bands before calling an iterative solver
          3137 MiB given to the printing process from OS
         -1906 MiB allocation reported by mallinfo(arena+hblkhd)
        380282 MiB available memory on the node where the printing process lives
------------------
     ethr =  1.36E-07,  avg # of iterations =  9.4

     negative rho (up, down):  1.429E-02 1.439E-02

     total cpu time spent up to now is    48364.6 secs

     total energy              =  -58760.45310907 Ry
     estimated scf accuracy    <       0.00079663 Ry

     total magnetization       =    -0.20 Bohr mag/cell
     absolute magnetization    =     1.79 Bohr mag/cell

     iteration # 15     ecut=    60.00 Ry     beta= 0.20
     Davidson diagonalization with overlap

---- Real-time Memory Report at c_bands before calling an iterative solver
          3137 MiB given to the printing process from OS
         -1906 MiB allocation reported by mallinfo(arena+hblkhd)
        380265 MiB available memory on the node where the printing process lives
------------------
     c_bands:  1 eigenvalues not converged
     c_bands:  2 eigenvalues not converged
     c_bands:  2 eigenvalues not converged
     ethr =  6.87E-08,  avg # of iterations = 11.2

     negative rho (up, down):  6.636E-03 6.708E-03

     total cpu time spent up to now is    51299.0 secs

     total energy              =  -58760.45313382 Ry
     estimated scf accuracy    <       0.00029399 Ry

     total magnetization       =    -0.20 Bohr mag/cell
     absolute magnetization    =     1.77 Bohr mag/cell

     iteration # 16     ecut=    60.00 Ry     beta= 0.20
     Davidson diagonalization with overlap

---- Real-time Memory Report at c_bands before calling an iterative solver
          3137 MiB given to the printing process from OS
         -1906 MiB allocation reported by mallinfo(arena+hblkhd)
        380236 MiB available memory on the node where the printing process lives
------------------
     c_bands:  1 eigenvalues not converged
     c_bands:  1 eigenvalues not converged
     c_bands:  1 eigenvalues not converged
     c_bands:  3 eigenvalues not converged
     c_bands:  3 eigenvalues not converged
     c_bands:  3 eigenvalues not converged
     c_bands:  3 eigenvalues not converged
     ethr =  2.54E-08,  avg # of iterations = 14.1

     negative rho (up, down):  1.964E-03 2.036E-03

     total cpu time spent up to now is    54402.1 secs

     total energy              =  -58760.45321558 Ry
     estimated scf accuracy    <       0.00009888 Ry

     total magnetization       =    -0.19 Bohr mag/cell
     absolute magnetization    =     1.76 Bohr mag/cell

     iteration # 17     ecut=    60.00 Ry     beta= 0.20
     Davidson diagonalization with overlap

---- Real-time Memory Report at c_bands before calling an iterative solver
          3137 MiB given to the printing process from OS
         -1906 MiB allocation reported by mallinfo(arena+hblkhd)
        380263 MiB available memory on the node where the printing process lives
------------------
     c_bands:  3 eigenvalues not converged
     c_bands:  2 eigenvalues not converged
     c_bands:  3 eigenvalues not converged
     c_bands:  3 eigenvalues not converged
     c_bands:  2 eigenvalues not converged
     ethr =  8.53E-09,  avg # of iterations = 14.5

     negative rho (up, down):  1.622E-03 1.672E-03

     total cpu time spent up to now is    57781.1 secs

     total energy              =  -58760.45324628 Ry
     estimated scf accuracy    <       0.00002679 Ry

     total magnetization       =    -0.19 Bohr mag/cell
     absolute magnetization    =     1.77 Bohr mag/cell

     iteration # 18     ecut=    60.00 Ry     beta= 0.20
     Davidson diagonalization with overlap

---- Real-time Memory Report at c_bands before calling an iterative solver
          3137 MiB given to the printing process from OS
         -1906 MiB allocation reported by mallinfo(arena+hblkhd)
        380240 MiB available memory on the node where the printing process lives
------------------
     ethr =  2.31E-09,  avg # of iterations =  5.5

     negative rho (up, down):  9.380E-04 9.942E-04

     total cpu time spent up to now is    60700.0 secs

     total energy              =  -58760.45325774 Ry
     estimated scf accuracy    <       0.00001976 Ry

     total magnetization       =    -0.18 Bohr mag/cell
     absolute magnetization    =     1.76 Bohr mag/cell

     iteration # 19     ecut=    60.00 Ry     beta= 0.20
     Davidson diagonalization with overlap

---- Real-time Memory Report at c_bands before calling an iterative solver
          3137 MiB given to the printing process from OS
         -1906 MiB allocation reported by mallinfo(arena+hblkhd)
        380287 MiB available memory on the node where the printing process lives
------------------
     ethr =  1.71E-09,  avg # of iterations =  4.9

     negative rho (up, down):  1.024E-03 1.056E-03

     Magnetic moment per site  (integrated on atomic sphere of radius R)
     atom   1 (R=0.101)  charge= 15.9340  magn= -0.0104
     atom   2 (R=0.101)  charge= 15.9340  magn= -0.0106
     atom   3 (R=0.101)  charge= 15.9340  magn= -0.0107
     atom   4 (R=0.101)  charge= 15.9340  magn= -0.0108
     atom   5 (R=0.101)  charge= 15.9339  magn= -0.0114
     atom   6 (R=0.101)  charge= 15.9341  magn= -0.0107
     atom   7 (R=0.101)  charge= 15.9338  magn= -0.0043
     atom   8 (R=0.101)  charge= 15.9341  magn= -0.0108
     atom   9 (R=0.101)  charge= 15.9338  magn= -0.0090
     atom  10 (R=0.101)  charge= 15.9341  magn= -0.0108
     atom  11 (R=0.101)  charge= 15.9341  magn= -0.0109
     atom  12 (R=0.101)  charge= 15.9339  magn= -0.0090
     atom  13 (R=0.101)  charge= 15.9338  magn= -0.0114
     atom  14 (R=0.101)  charge= 15.9340  magn= -0.0104
     atom  15 (R=0.101)  charge= 15.9339  magn= -0.0114
     atom  16 (R=0.101)  charge= 15.9338  magn= -0.0090
     atom  17 (R=0.101)  charge= 15.9920  magn= -0.0242
     atom  18 (R=0.101)  charge= 15.9912  magn= -0.0260
     atom  19 (R=0.101)  charge= 15.9871  magn= -0.0110
     atom  20 (R=0.101)  charge= 15.9913  magn= -0.0259
     atom  21 (R=0.101)  charge= 15.9929  magn= -0.0113
     atom  22 (R=0.101)  charge= 15.9872  magn= -0.0111
     atom  23 (R=0.101)  charge= 15.9873  magn= -0.0113
     atom  24 (R=0.101)  charge= 15.9930  magn= -0.0113
     atom  25 (R=0.101)  charge= 15.9929  magn= -0.0113
     atom  26 (R=0.101)  charge= 15.9914  magn= -0.0259
     atom  27 (R=0.101)  charge= 15.9930  magn= -0.0113
     atom  28 (R=0.101)  charge= 15.9919  magn= -0.0072
     atom  29 (R=0.101)  charge= 15.9919  magn= -0.0243
     atom  30 (R=0.101)  charge= 15.9920  magn= -0.0243
     atom  31 (R=0.101)  charge= 15.9928  magn= -0.0113
     atom  32 (R=0.101)  charge= 15.9928  magn= -0.0113
     atom  33 (R=0.101)  charge= 15.9873  magn= -0.0152
     atom  34 (R=0.101)  charge= 15.9870  magn= -0.0152
     atom  35 (R=0.101)  charge= 15.9780  magn= -0.0325
     atom  36 (R=0.101)  charge= 15.9782  magn= -0.0325
     atom  37 (R=0.101)  charge= 15.9873  magn= -0.0100
     atom  38 (R=0.101)  charge= 15.9888  magn= -0.0124
     atom  39 (R=0.101)  charge= 15.9783  magn= -0.0324
     atom  40 (R=0.101)  charge= 15.9889  magn= -0.0123
     atom  41 (R=0.101)  charge= 15.9872  magn= -0.0102
     atom  42 (R=0.101)  charge= 15.9872  magn= -0.0156
     atom  43 (R=0.101)  charge= 15.9874  magn= -0.0154
     atom  44 (R=0.101)  charge= 15.9873  magn= -0.0101
     atom  45 (R=0.101)  charge= 15.9870  magn= -0.0155
     atom  46 (R=0.101)  charge= 15.9869  magn= -0.0100
     atom  47 (R=0.101)  charge= 15.9869  magn= -0.0153
     atom  48 (R=0.101)  charge= 15.9887  magn= -0.0124
     atom  49 (R=0.101)  charge= 15.9307  magn= -0.0045
     atom  50 (R=0.101)  charge= 15.9307  magn= -0.0045
     atom  51 (R=0.101)  charge= 15.9284  magn=  0.0006
     atom  52 (R=0.101)  charge= 15.9287  magn=  0.0005
     atom  53 (R=0.101)  charge= 15.9289  magn= -0.0051
     atom  54 (R=0.101)  charge= 15.9285  magn=  0.0007
     atom  55 (R=0.101)  charge= 15.8670  magn= -0.1231
     atom  56 (R=0.101)  charge= 15.9291  magn=  0.0007
     atom  57 (R=0.101)  charge= 15.9300  magn= -0.0057
     atom  58 (R=0.101)  charge= 15.9289  magn=  0.0005
     atom  59 (R=0.101)  charge= 15.9293  magn=  0.0006
     atom  60 (R=0.101)  charge= 15.9300  magn= -0.0056
     atom  61 (R=0.101)  charge= 15.9289  magn= -0.0055
     atom  62 (R=0.101)  charge= 15.9308  magn= -0.0045
     atom  63 (R=0.101)  charge= 15.9289  magn= -0.0052
     atom  64 (R=0.101)  charge= 15.9299  magn= -0.0057
     atom  65 (R=0.040)  charge=  0.8246  magn=  0.1302
     atom  66 (R=0.040)  charge=  0.4963  magn= -0.0007
     atom  67 (R=0.040)  charge=  0.4960  magn= -0.0007
     atom  68 (R=0.040)  charge=  0.4963  magn= -0.0007

     total cpu time spent up to now is    63607.7 secs

     End of self-consistent calculation

 ------ SPIN UP ------------


          k = 0.0000 0.0000 0.0000 (156935 PWs)   bands (ev):

   -94.3693 -94.3633 -94.3612 -94.3609 -94.3564 -94.3563 -94.3555 -94.3525
   -94.3521 -94.3509 -94.3481 -94.3448 -94.3446 -94.3442 -94.3419 -94.3391
   -94.3383 -94.3375 -94.3368 -94.3365 -94.3343 -94.3337 -94.3336 -94.3317
   -94.3315 -94.3311 -94.3125 -94.3120 -94.3113 -94.3016 -94.2941 -94.2939
   -93.9171 -93.9154 -93.9135 -93.9126 -93.9096 -93.9090 -93.9088 -93.9077
   -93.9077 -93.9052 -93.9049 -93.9048 -93.9041 -93.8998 -93.8997 -93.8990
   -93.8976 -93.8971 -93.8970 -93.8963 -93.8949 -93.8948 -93.8921 -93.8918
   -93.8901 -93.8901 -93.8877 -93.8876 -93.8865 -93.8863 -93.8861 -93.7115
   -48.6777 -48.6744 -48.6735 -48.6528 -48.6526 -48.6493 -48.6249 -48.6218
   -48.6212 -48.6209 -48.6156 -48.6147 -48.6142 -48.6064 -48.6020 -48.6009
   -48.6000 -48.5994 -48.5994 -48.5967 -48.5941 -48.5939 -48.5740 -48.5737
   -48.5687 -48.5341 -48.5337 -48.5328 -48.5306 -48.5262 -48.5259 -48.5252
   -48.5246 -48.5235 -48.5131 -48.5124 -48.5050 -48.4945 -48.4944 -48.4904
   -48.4773 -48.4773 -48.4752 -48.4749 -48.4743 -48.4734 -48.4695 -48.4693
   -48.4667 -48.4666 -48.4657 -48.4625 -48.4595 -48.4592 -48.4562 -48.4518
   -48.4517 -48.4505 -48.4448 -48.4416 -48.4413 -48.4366 -48.4364 -48.4342
   -48.4249 -48.4219 -48.4205 -48.4204 -48.4194 -48.4165 -48.4163 -48.4112
   -48.4110 -48.4106 -48.4060 -48.4054 -48.4051 -48.3972 -48.3969 -48.3967
   -48.3916 -48.3913 -48.3904 -48.3746 -48.3743 -48.3665 -48.3638 -48.3630
   -48.3623 -48.3538 -48.3528 -48.3515 -48.3450 -48.3441 -48.3162 -48.3153
   -48.2822 -48.2822 -48.2821 -48.2777 -48.2700 -48.2698 -48.2329 -48.2328
   -48.2327 -48.2324 -48.2323 -48.2320 -48.2299 -48.2297 -48.2292 -48.2285
   -48.2105 -48.2104 -48.1458 -48.1457 -48.1456 -48.1453 -48.1437 -48.1435
   -48.1418 -48.1417 -48.1415 -48.1397 -48.1386 -48.1382 -48.1278 -48.1277
   -48.1266 -48.1266 -48.1252 -48.1251 -48.1241 -48.1241 -48.1222 -48.1208
   -48.0934 -48.0933 -48.0721 -48.0720 -48.0714 -48.0694 -48.0555 -48.0551
   -48.0379 -48.0365 -48.0363 -48.0362 -48.0343 -48.0335 -48.0333 -48.0325
   -48.0319 -48.0309 -48.0011 -48.0006 -47.9981 -47.9978 -47.9053 -47.9048
   -47.8523 -47.8486 -47.8438 -47.8434 -47.8401 -47.8390 -47.8379 -47.8375
   -47.8375 -47.8339 -47.8338 -47.8327 -47.8321 -47.8254 -47.8253 -47.8250
   -47.8223 -47.8221 -47.8219 -47.8211 -47.8189 -47.8179 -47.8118 -47.8116
   -47.8110 -47.8110 -47.8072 -47.8071 -47.8021 -47.8019 -47.8009 -47.6290
    -7.8952  -5.0355  -3.7365  -3.2757  -3.2754  -3.2752  -3.2558  -3.2553
    -3.2290  -2.6314  -2.5382  -2.2996  -2.2985  -2.2940  -2.2264  -2.2264
    -2.2252  -2.2232  -2.2230  -2.1750  -2.1389  -2.1289  -2.1288  -1.6994
    -1.6992  -1.6849  -1.4512  -1.4503  -1.4501  -1.4498  -1.4466  -1.4459
    -1.4445  -1.4424  -1.4423  -1.4418  -1.4312  -1.4308  -1.4180  -1.4175
    -1.4098  -1.3603  -1.3465  -1.3464  -1.3153  -1.2916  -1.2908  -1.2744
    -1.2711  -1.2688  -1.1185  -1.1174  -1.1146  -1.1140  -1.1063  -1.0813
    -0.9825  -0.9817  -0.9795  -0.9760  -0.9752  -0.9643  -0.7964  -0.7863
    -0.6499  -0.6398  -0.6366  -0.6354  -0.6283  -0.6271  -0.5853  -0.5696
    -0.5695  -0.5158  -0.5155  -0.5131  -0.5105  -0.5100  -0.4735  -0.4710
    -0.4605  -0.4605  -0.4575  -0.4345  -0.4343  -0.1080  -0.1017  -0.1010
    -0.0848  -0.0844  -0.0837  -0.0433  -0.0391  -0.0385  -0.0238  -0.0231
    -0.0229  -0.0199  -0.0104  -0.0050  -0.0044   0.0147   0.0154   0.1024
     0.1034   0.1181   0.1245   0.1257   0.1401   0.3644   0.3656   0.3677
     0.3776   0.3827   0.3828   0.3859   0.4069   0.4080   0.5029   0.5044
     0.5096   0.5225   0.5321   0.5322   0.5479   0.5487   0.5501   0.5589
     0.6629   0.6952   0.6979   0.6984   0.7016   0.7023   0.7025   0.7132
     0.7136   0.8038   0.8042   0.8830   0.8838   0.8864   0.8994   0.9012
     0.9120   0.9470   0.9559   0.9575   1.1043   1.1089   1.1102   1.1168
     1.1199   1.1211   1.1622   1.1623   1.1811   1.1880   1.1882   1.1961
     1.2046   1.2051   1.2488   1.2511   1.2687   1.2730   1.2790   1.2806
     1.2813   1.2850   1.2853   1.2911   1.2914   1.2945   1.2979   1.3096
     1.3103   1.3145   1.3159   1.3171   1.3591   1.3595   1.4185   1.4277
     1.4289   1.4344   1.4521   1.4528   1.4551   1.4843   1.4849   1.4851
     1.5056   1.5381   1.5391   1.5667   1.5726   1.5726   1.5904   1.5918
     1.5971   1.6134   1.7082   1.7092   1.9379   1.9512   1.9523   1.9605
     1.9606   1.9697   2.0100   2.0266   2.0316   2.0319   2.0404   2.0498
     2.0505   2.0696   2.0702   2.1324   2.1338   2.1422   2.1951   2.1959
     2.2039   2.2202   2.2444   2.2451   2.3003   2.3064   2.3068   2.3211
     2.3273   2.3279   2.5501   2.5503   2.5511   2.5693   2.5720   2.5721
     2.6239   2.6309   2.6467   2.6618   2.6623   2.6625   2.6698   2.6704
     2.6779   2.6980   2.6990   2.7080   2.7086   2.7179   2.7187   2.8316
     2.8393   2.8509   2.8512   2.8557   2.8562   2.9207   2.9217   2.9284
     2.9416   2.9427   2.9583   2.9647   2.9656   2.9790   2.9802   2.9848
     2.9858   2.9905   3.0905   3.0909   3.1010   3.1162   3.1231   3.1241
     3.1994   3.1997   3.2005   3.2628   3.3979   3.3999   3.4263   3.5629
     3.5640   3.5802   3.5889   3.5922   3.5930   3.6184   3.6190   3.7434
     3.7895   3.7899   3.7930   3.7974   3.7976   3.8834   3.9080   3.9091
     3.9630   3.9637   3.9764   3.9938   4.0647   4.0690   4.1163   4.1181
     4.1425   4.1441   4.1444   4.1477   4.1484   4.1490   4.1518   4.1528
     4.1555   4.1584   4.1852   4.1859   4.1871   4.3501   4.3501   4.3529
     4.3827   4.3843   4.3891   4.3898   4.3911   4.3919   4.3943   4.3981
     4.3983   4.4022   4.4024   4.4880   4.5999   4.6001   4.6001   4.6306
     4.6307   4.6323   4.9286   5.0945   5.0966   5.1030   6.0317   6.0317
     6.0329   6.0352   6.0353   6.0380   6.3993   6.4005   6.4426   6.4442
     6.4471   6.4807   6.4945   6.4959   6.5263   6.5467   6.5481   6.5481
     6.5550   6.5589   6.5590   6.7749   6.7786   6.7922   7.0817   7.0826
     7.0890   7.6663   7.6666   7.6783   7.6854   7.6902   7.6909   8.6879
     8.7235   8.7265   8.7366   8.7415   8.7433   8.8399   9.0890   9.4916
     9.4925   9.5135   9.5174   9.5313   9.5316   9.6273   9.8031   9.8069
     9.8092   9.9364   9.9506   9.9515  10.1246  10.1314  10.1328  10.3091
    10.3118  10.3128  10.4286  10.4707  10.4846  10.4884  10.5869  10.5876
    10.5965  10.6283  10.6283  10.6458  11.2085  11.2089  11.2314  11.2378
    11.2385  11.2413  11.2424  11.2526  11.2526  11.2714  11.2718  11.3317
    11.3848  11.4275  11.4327  11.4390  11.4441  11.4784  11.4813  11.5405

     occupation numbers 
     1.0000   1.0000   1.0000   1.0000   1.0000   1.0000   1.0000   1.0000
     1.0000   1.0000   1.0000   1.0000   1.0000   1.0000   1.0000   1.0000
     1.0000   1.0000   1.0000   1.0000   1.0000   1.0000   1.0000   1.0000
     1.0000   1.0000   1.0000   1.0000   1.0000   1.0000   1.0000   1.0000
     1.0000   1.0000   1.0000   1.0000   1.0000   1.0000   1.0000   1.0000
     1.0000   1.0000   1.0000   1.0000   1.0000   1.0000   1.0000   1.0000
     1.0000   1.0000   1.0000   1.0000   1.0000   1.0000   1.0000   1.0000
     1.0000   1.0000   1.0000   1.0000   1.0000   1.0000   1.0000   1.0000
     1.0000   1.0000   1.0000   1.0000   1.0000   1.0000   1.0000   1.0000
     1.0000   1.0000   1.0000   1.0000   1.0000   1.0000   1.0000   1.0000
     1.0000   1.0000   1.0000   1.0000   1.0000   1.0000   1.0000   1.0000
     1.0000   1.0000   1.0000   1.0000   1.0000   1.0000   1.0000   1.0000
     1.0000   1.0000   1.0000   1.0000   1.0000   1.0000   1.0000   1.0000
     1.0000   1.0000   1.0000   1.0000   1.0000   1.0000   1.0000   1.0000
     1.0000   1.0000   1.0000   1.0000   1.0000   1.0000   1.0000   1.0000
     1.0000   1.0000   1.0000   1.0000   1.0000   1.0000   1.0000   1.0000
     1.0000   1.0000   1.0000   1.0000   1.0000   1.0000   1.0000   1.0000
     1.0000   1.0000   1.0000   1.0000   1.0000   1.0000   1.0000   1.0000
     1.0000   1.0000   1.0000   1.0000   1.0000   1.0000   1.0000   1.0000
     1.0000   1.0000   1.0000   1.0000   1.0000   1.0000   1.0000   1.0000
     1.0000   1.0000   1.0000   1.0000   1.0000   1.0000   1.0000   1.0000
     1.0000   1.0000   1.0000   1.0000   1.0000   1.0000   1.0000   1.0000
     1.0000   1.0000   1.0000   1.0000   1.0000   1.0000   1.0000   1.0000
     1.0000   1.0000   1.0000   1.0000   1.0000   1.0000   1.0000   1.0000
     1.0000   1.0000   1.0000   1.0000   1.0000   1.0000   1.0000   1.0000
     1.0000   1.0000   1.0000   1.0000   1.0000   1.0000   1.0000   1.0000
     1.0000   1.0000   1.0000   1.0000   1.0000   1.0000   1.0000   1.0000
     1.0000   1.0000   1.0000   1.0000   1.0000   1.0000   1.0000   1.0000
     1.0000   1.0000   1.0000   1.0000   1.0000   1.0000   1.0000   1.0000
     1.0000   1.0000   1.0000   1.0000   1.0000   1.0000   1.0000   1.0000
     1.0000   1.0000   1.0000   1.0000   1.0000   1.0000   1.0000   1.0000
     1.0000   1.0000   1.0000   1.0000   1.0000   1.0000   1.0000   1.0000
     1.0000   1.0000   1.0000   1.0000   1.0000   1.0000   1.0000   1.0000
     1.0000   1.0000   1.0000   1.0000   1.0000   1.0000   1.0000   1.0000
     1.0000   1.0000   1.0000   1.0000   1.0000   1.0000   1.0000   1.0000
     1.0000   1.0000   1.0000   1.0000   1.0000   1.0000   1.0000   1.0000
     1.0000   1.0000   1.0000   1.0000   1.0000   1.0000   1.0000   1.0000
     1.0000   1.0000   1.0000   1.0000   1.0000   1.0000   1.0000   1.0000
     1.0000   1.0000   1.0000   1.0000   1.0000   1.0000   1.0000   1.0000
     1.0000   1.0000   1.0000   1.0000   1.0000   1.0000   1.0000   1.0000
     1.0000   1.0000   1.0000   1.0000   1.0000   1.0000   1.0000   1.0000
     1.0000   1.0000   1.0000   1.0000   1.0000   1.0000   1.0000   1.0000
     1.0000   1.0000   1.0000   1.0000   1.0000   1.0000   1.0000   1.0000
     1.0000   1.0000   1.0000   1.0000   1.0000   1.0000   1.0000   1.0000
     1.0000   1.0000   1.0000   1.0000   1.0000   1.0000   1.0000   1.0000
     1.0000   1.0000   1.0000   1.0000   1.0000   1.0000   1.0000   1.0000
     1.0000   1.0000   1.0000   1.0000   1.0000   1.0000   1.0000   1.0000
     1.0000   1.0000   1.0000   1.0000   1.0000   1.0000   1.0000   1.0000
     1.0000   1.0000   1.0000   1.0000   1.0000   1.0000   1.0000   1.0000
     1.0000   1.0000   1.0000   1.0000   1.0000   1.0000   1.0000   1.0000
     1.0000   1.0000   1.0000   1.0000   1.0000   1.0000   1.0000   1.0000
     1.0000   1.0000   1.0000   1.0000   1.0000   1.0000   1.0000   1.0000
     1.0000   1.0000   1.0000   1.0000   1.0000   1.0000   1.0000   1.0000
     1.0000   1.0000   1.0000   1.0000   1.0000   1.0000   1.0000   1.0000
     1.0000   1.0000   1.0000   1.0000   1.0000   1.0000   1.0000   1.0000
     1.0000   1.0000   1.0000   1.0000   1.0000   1.0000   1.0000   1.0000
     1.0000   1.0000   1.0000   1.0000   1.0000   1.0000   1.0000   1.0000
     1.0000   1.0000   1.0000   1.0000   1.0000   1.0000   1.0000   1.0000
     1.0000   1.0000   1.0000   1.0000   1.0000   1.0000   1.0000   1.0000
     1.0000   1.0000   1.0000   1.0000   1.0000   1.0000   1.0000   1.0000
     1.0000   1.0000   1.0000   1.0000   1.0000   1.0000   1.0000   1.0000
     1.0000   1.0000   1.0000   1.0000   1.0000   1.0000   1.0000   1.0000
     1.0000   1.0000   1.0000   1.0000   1.0000   1.0000   1.0000   1.0000
     1.0000   1.0000   1.0000   1.0000   1.0000   1.0000   1.0000   1.0000
     1.0000   1.0000   1.0000   1.0000   1.0000   1.0000   1.0000   1.0000
     1.0000   1.0000   1.0000   1.0000   1.0000   1.0000   1.0000   1.0000
     1.0000   1.0000   1.0000   1.0000   1.0000   1.0000   1.0000   1.0000
     1.0000   1.0000   1.0000   1.0000   1.0000   1.0000   1.0000   1.0000
     1.0000   1.0000   1.0000   0.9999   0.9999   0.9999   0.9999   0.9990
     0.9974   0.9974   0.9972   0.9969   0.9969   0.9832   0.9728   0.9722
     0.9225   0.9216   0.9012   0.8655   0.6090   0.5883   0.3570   0.3489
     0.2475   0.2415   0.2403   0.2286   0.2262   0.2240   0.2144   0.2111
     0.2021   0.1931   0.1227   0.1212   0.1187   0.0051   0.0051   0.0049
     0.0027   0.0026   0.0024   0.0023   0.0023   0.0022   0.0021   0.0020
     0.0020   0.0018   0.0018   0.0003   0.0000   0.0000   0.0000   0.0000
     0.0000   0.0000   0.0000   0.0000   0.0000   0.0000   0.0000   0.0000
     0.0000   0.0000   0.0000   0.0000   0.0000   0.0000   0.0000   0.0000
     0.0000   0.0000   0.0000   0.0000   0.0000   0.0000   0.0000   0.0000
     0.0000   0.0000   0.0000   0.0000   0.0000   0.0000   0.0000   0.0000
     0.0000   0.0000   0.0000   0.0000   0.0000   0.0000   0.0000   0.0000
     0.0000   0.0000   0.0000   0.0000   0.0000   0.0000   0.0000   0.0000
     0.0000   0.0000   0.0000   0.0000   0.0000   0.0000   0.0000   0.0000
     0.0000   0.0000   0.0000   0.0000   0.0000   0.0000   0.0000   0.0000
     0.0000   0.0000   0.0000   0.0000   0.0000   0.0000   0.0000   0.0000
     0.0000   0.0000   0.0000   0.0000   0.0000   0.0000   0.0000   0.0000
     0.0000   0.0000   0.0000   0.0000   0.0000   0.0000   0.0000   0.0000
     0.0000   0.0000   0.0000   0.0000   0.0000   0.0000   0.0000   0.0000

          k = 0.0000 0.2887 0.0000 (156705 PWs)   bands (ev):

   -94.3688 -94.3646 -94.3610 -94.3600 -94.3571 -94.3561 -94.3547 -94.3528
   -94.3522 -94.3510 -94.3478 -94.3453 -94.3448 -94.3438 -94.3422 -94.3386
   -94.3381 -94.3375 -94.3367 -94.3362 -94.3349 -94.3342 -94.3331 -94.3318
   -94.3316 -94.3308 -94.3124 -94.3120 -94.3113 -94.3016 -94.2941 -94.2939
   -93.9169 -93.9149 -93.9137 -93.9127 -93.9105 -93.9096 -93.9086 -93.9081
   -93.9077 -93.9053 -93.9045 -93.9040 -93.9028 -93.9003 -93.9001 -93.8991
   -93.8975 -93.8973 -93.8972 -93.8957 -93.8954 -93.8948 -93.8918 -93.8914
   -93.8901 -93.8901 -93.8883 -93.8878 -93.8864 -93.8861 -93.8859 -93.7115
   -48.6706 -48.6676 -48.6646 -48.6473 -48.6457 -48.6417 -48.6315 -48.6269
   -48.6234 -48.6220 -48.6212 -48.6137 -48.6105 -48.6098 -48.6082 -48.6039
   -48.6015 -48.5998 -48.5979 -48.5966 -48.5948 -48.5914 -48.5819 -48.5767
   -48.5729 -48.5696 -48.5552 -48.5517 -48.5357 -48.5338 -48.5160 -48.5156
   -48.5140 -48.5105 -48.5063 -48.5022 -48.5008 -48.4990 -48.4961 -48.4940
   -48.4932 -48.4902 -48.4893 -48.4845 -48.4768 -48.4756 -48.4681 -48.4611
   -48.4591 -48.4573 -48.4548 -48.4540 -48.4512 -48.4511 -48.4470 -48.4424
   -48.4423 -48.4398 -48.4368 -48.4349 -48.4348 -48.4322 -48.4296 -48.4286
   -48.4253 -48.4237 -48.4217 -48.4216 -48.4188 -48.4158 -48.4152 -48.4136
   -48.4108 -48.4103 -48.4088 -48.4082 -48.4051 -48.4010 -48.4000 -48.3936
   -48.3921 -48.3901 -48.3839 -48.3785 -48.3778 -48.3723 -48.3715 -48.3657
   -48.3638 -48.3573 -48.3550 -48.3515 -48.3497 -48.3420 -48.3236 -48.3168
   -48.2766 -48.2761 -48.2741 -48.2704 -48.2648 -48.2623 -48.2427 -48.2410
   -48.2394 -48.2373 -48.2349 -48.2346 -48.2296 -48.2262 -48.2199 -48.2194
   -48.2117 -48.2097 -48.1981 -48.1856 -48.1734 -48.1729 -48.1659 -48.1653
   -48.1508 -48.1505 -48.1468 -48.1401 -48.1201 -48.1199 -48.1179 -48.1161
   -48.1153 -48.1133 -48.1063 -48.1054 -48.0970 -48.0968 -48.0895 -48.0887
   -48.0848 -48.0836 -48.0783 -48.0778 -48.0731 -48.0689 -48.0588 -48.0582
   -48.0492 -48.0472 -48.0470 -48.0442 -48.0371 -48.0352 -48.0320 -48.0316
   -48.0254 -48.0208 -48.0095 -48.0093 -48.0019 -48.0006 -47.9066 -47.9052
   -47.8514 -47.8481 -47.8445 -47.8437 -47.8422 -47.8389 -47.8383 -47.8377
   -47.8374 -47.8331 -47.8330 -47.8322 -47.8300 -47.8263 -47.8262 -47.8249
   -47.8229 -47.8223 -47.8220 -47.8201 -47.8190 -47.8181 -47.8115 -47.8113
   -47.8110 -47.8110 -47.8077 -47.8074 -47.8020 -47.8017 -47.8010 -47.6290
    -7.8952  -4.9036  -3.9395  -3.6069  -3.5197  -3.5097  -2.8571  -2.8510
    -2.7143  -2.6764  -2.4985  -2.4159  -2.3708  -2.3521  -2.3015  -2.2092
    -2.2033  -2.0925  -2.0405  -2.0340  -1.9824  -1.9763  -1.9585  -1.7953
    -1.7923  -1.6792  -1.6409  -1.6381  -1.6228  -1.6109  -1.6082  -1.5527
    -1.4800  -1.4788  -1.4559  -1.4464  -1.4375  -1.4267  -1.4222  -1.4092
    -1.3511  -1.3489  -1.3380  -1.3317  -1.3123  -1.3085  -1.2857  -1.2427
    -1.2417  -1.2231  -1.2218  -1.2177  -1.1984  -1.1448  -1.0692  -1.0684
    -1.0349  -1.0318  -0.9890  -0.9783  -0.9365  -0.8553  -0.8464  -0.8433
    -0.8393  -0.8154  -0.8003  -0.7955  -0.7852  -0.7430  -0.7420  -0.5575
    -0.5570  -0.5390  -0.5334  -0.5263  -0.4800  -0.4690  -0.4122  -0.4071
    -0.3863  -0.3802  -0.3529  -0.3349  -0.2563  -0.2457  -0.2238  -0.2132
    -0.1930  -0.1829  -0.1510  -0.1377  -0.1263  -0.1243  -0.0788  -0.0597
    -0.0357  -0.0327   0.0097   0.0279   0.0518   0.0576   0.0729   0.0783
     0.1188   0.1464   0.1577   0.2026   0.3158   0.3220   0.3368   0.3409
     0.3855   0.4470   0.4540   0.4562   0.4638   0.4849   0.5061   0.5204
     0.5319   0.5396   0.5420   0.5460   0.5542   0.5624   0.5726   0.5913
     0.6280   0.6449   0.6561   0.6856   0.7009   0.7134   0.7288   0.7323
     0.7584   0.7836   0.7950   0.8708   0.8751   0.8824   0.8941   0.9246
     0.9531   0.9568   0.9665   0.9700   0.9791   0.9874   0.9957   1.0306
     1.0410   1.1003   1.1083   1.1105   1.1213   1.1265   1.1271   1.1415
     1.1674   1.1836   1.2017   1.2051   1.2102   1.2200   1.2434   1.2545
     1.2700   1.2829   1.2841   1.3028   1.3332   1.3352   1.3559   1.3602
     1.3746   1.3855   1.3891   1.4045   1.4310   1.4473   1.4487   1.4535
     1.4630   1.4661   1.4843   1.4964   1.5016   1.5188   1.5424   1.5554
     1.5995   1.6310   1.6518   1.6520   1.6706   1.6923   1.7455   1.7582
     1.7739   1.7768   1.8262   1.8454   1.8489   1.8604   1.8780   1.8955
     1.9332   1.9889   2.0297   2.0408   2.0476   2.0493   2.0649   2.0898
     2.0945   2.1052   2.1093   2.1107   2.1262   2.1467   2.1670   2.1735
     2.1795   2.1982   2.2580   2.2632   2.2949   2.3391   2.3463   2.4470
     2.4476   2.4786   2.5324   2.5553   2.5589   2.5763   2.5802   2.5815
     2.6078   2.6305   2.6364   2.6521   2.7027   2.7114   2.7508   2.7607
     2.7695   2.7746   2.7928   2.7996   2.8115   2.8688   2.9347   2.9349
     2.9422   2.9554   2.9709   2.9739   2.9817   2.9961   2.9994   3.0251
     3.0448   3.0632   3.0853   3.0871   3.0922   3.1037   3.1092   3.1179
     3.1393   3.1397   3.1817   3.1872   3.2168   3.2384   3.2439   3.2550
     3.2588   3.2972   3.3076   3.3848   3.4053   3.4276   3.4343   3.4511
     3.5181   3.5205   3.5398   3.5502   3.5919   3.5941   3.5993   3.6191
     3.6343   3.6493   3.7159   3.7312   3.7553   3.8036   3.8042   3.8096
     3.8475   3.8658   3.8683   3.9145   3.9661   3.9759   3.9847   3.9940
     4.0024   4.0121   4.0333   4.0381   4.0495   4.0620   4.0658   4.0784
     4.0806   4.1152   4.1260   4.1271   4.1527   4.1647   4.1728   4.2445
     4.2597   4.2634   4.2703   4.2758   4.2969   4.2982   4.3481   4.3487
     4.3646   4.3855   4.3959   4.4385   4.4389   4.4534   4.4920   4.4992
     4.7325   4.7500   4.8446   5.0404   5.0417   5.2669   5.2808   5.2863
     5.4946   5.5073   5.5505   5.8124   5.9953   5.9977   6.1442   6.1878
     6.2440   6.3300   6.3362   6.3449   6.3528   6.4912   6.4979   6.8318
     6.8510   6.8642   6.8742   7.0807   7.0830   7.0865   7.5971   7.6146
     7.6681   7.8901   7.8979   7.9198   7.9333   8.2499   8.3308   8.3312
     8.3522   8.3692   8.8064   9.1218   9.1253   9.1844   9.3741   9.4082
     9.4782   9.5043   9.6035   9.6475   9.6516   9.7259   9.7400   9.7597
     9.7864   9.8016   9.9358   9.9692  10.0239  10.0365  10.0485  10.2849
    10.3138  10.3260  10.3279  10.3340  10.3436  10.3468  10.3762  10.5550
    10.6177  10.6719  10.6975  10.7332  10.8811  10.9076  10.9325  10.9520
    10.9594  11.0245  11.0774  11.1260  11.1404  11.1847  11.1897  11.2654
    11.2685  11.2805  11.2934  11.3330  11.3367  11.4542  11.5484  11.6942

     occupation numbers 
     1.0000   1.0000   1.0000   1.0000   1.0000   1.0000   1.0000   1.0000
     1.0000   1.0000   1.0000   1.0000   1.0000   1.0000   1.0000   1.0000
     1.0000   1.0000   1.0000   1.0000   1.0000   1.0000   1.0000   1.0000
     1.0000   1.0000   1.0000   1.0000   1.0000   1.0000   1.0000   1.0000
     1.0000   1.0000   1.0000   1.0000   1.0000   1.0000   1.0000   1.0000
     1.0000   1.0000   1.0000   1.0000   1.0000   1.0000   1.0000   1.0000
     1.0000   1.0000   1.0000   1.0000   1.0000   1.0000   1.0000   1.0000
     1.0000   1.0000   1.0000   1.0000   1.0000   1.0000   1.0000   1.0000
     1.0000   1.0000   1.0000   1.0000   1.0000   1.0000   1.0000   1.0000
     1.0000   1.0000   1.0000   1.0000   1.0000   1.0000   1.0000   1.0000
     1.0000   1.0000   1.0000   1.0000   1.0000   1.0000   1.0000   1.0000
     1.0000   1.0000   1.0000   1.0000   1.0000   1.0000   1.0000   1.0000
     1.0000   1.0000   1.0000   1.0000   1.0000   1.0000   1.0000   1.0000
     1.0000   1.0000   1.0000   1.0000   1.0000   1.0000   1.0000   1.0000
     1.0000   1.0000   1.0000   1.0000   1.0000   1.0000   1.0000   1.0000
     1.0000   1.0000   1.0000   1.0000   1.0000   1.0000   1.0000   1.0000
     1.0000   1.0000   1.0000   1.0000   1.0000   1.0000   1.0000   1.0000
     1.0000   1.0000   1.0000   1.0000   1.0000   1.0000   1.0000   1.0000
     1.0000   1.0000   1.0000   1.0000   1.0000   1.0000   1.0000   1.0000
     1.0000   1.0000   1.0000   1.0000   1.0000   1.0000   1.0000   1.0000
     1.0000   1.0000   1.0000   1.0000   1.0000   1.0000   1.0000   1.0000
     1.0000   1.0000   1.0000   1.0000   1.0000   1.0000   1.0000   1.0000
     1.0000   1.0000   1.0000   1.0000   1.0000   1.0000   1.0000   1.0000
     1.0000   1.0000   1.0000   1.0000   1.0000   1.0000   1.0000   1.0000
     1.0000   1.0000   1.0000   1.0000   1.0000   1.0000   1.0000   1.0000
     1.0000   1.0000   1.0000   1.0000   1.0000   1.0000   1.0000   1.0000
     1.0000   1.0000   1.0000   1.0000   1.0000   1.0000   1.0000   1.0000
     1.0000   1.0000   1.0000   1.0000   1.0000   1.0000   1.0000   1.0000
     1.0000   1.0000   1.0000   1.0000   1.0000   1.0000   1.0000   1.0000
     1.0000   1.0000   1.0000   1.0000   1.0000   1.0000   1.0000   1.0000
     1.0000   1.0000   1.0000   1.0000   1.0000   1.0000   1.0000   1.0000
     1.0000   1.0000   1.0000   1.0000   1.0000   1.0000   1.0000   1.0000
     1.0000   1.0000   1.0000   1.0000   1.0000   1.0000   1.0000   1.0000
     1.0000   1.0000   1.0000   1.0000   1.0000   1.0000   1.0000   1.0000
     1.0000   1.0000   1.0000   1.0000   1.0000   1.0000   1.0000   1.0000
     1.0000   1.0000   1.0000   1.0000   1.0000   1.0000   1.0000   1.0000
     1.0000   1.0000   1.0000   1.0000   1.0000   1.0000   1.0000   1.0000
     1.0000   1.0000   1.0000   1.0000   1.0000   1.0000   1.0000   1.0000
     1.0000   1.0000   1.0000   1.0000   1.0000   1.0000   1.0000   1.0000
     1.0000   1.0000   1.0000   1.0000   1.0000   1.0000   1.0000   1.0000
     1.0000   1.0000   1.0000   1.0000   1.0000   1.0000   1.0000   1.0000
     1.0000   1.0000   1.0000   1.0000   1.0000   1.0000   1.0000   1.0000
     1.0000   1.0000   1.0000   1.0000   1.0000   1.0000   1.0000   1.0000
     1.0000   1.0000   1.0000   1.0000   1.0000   1.0000   1.0000   1.0000
     1.0000   1.0000   1.0000   1.0000   1.0000   1.0000   1.0000   1.0000
     1.0000   1.0000   1.0000   1.0000   1.0000   1.0000   1.0000   1.0000
     1.0000   1.0000   1.0000   1.0000   1.0000   1.0000   1.0000   1.0000
     1.0000   1.0000   1.0000   1.0000   1.0000   1.0000   1.0000   1.0000
     1.0000   1.0000   1.0000   1.0000   1.0000   1.0000   1.0000   1.0000
     1.0000   1.0000   1.0000   1.0000   1.0000   1.0000   1.0000   1.0000
     1.0000   1.0000   1.0000   1.0000   1.0000   1.0000   1.0000   1.0000
     1.0000   1.0000   1.0000   1.0000   1.0000   1.0000   1.0000   1.0000
     1.0000   1.0000   1.0000   1.0000   1.0000   1.0000   1.0000   1.0000
     1.0000   1.0000   1.0000   1.0000   1.0000   1.0000   1.0000   1.0000
     1.0000   1.0000   1.0000   1.0000   1.0000   1.0000   1.0000   1.0000
     1.0000   1.0000   1.0000   1.0000   1.0000   1.0000   1.0000   1.0000
     1.0000   1.0000   1.0000   1.0000   1.0000   1.0000   1.0000   1.0000
     1.0000   1.0000   1.0000   1.0000   1.0000   1.0000   1.0000   1.0000
     1.0000   1.0000   1.0000   1.0000   1.0000   1.0000   1.0000   1.0000
     1.0000   1.0000   1.0000   1.0000   1.0000   1.0000   1.0000   1.0000
     1.0000   1.0000   1.0000   1.0000   1.0000   1.0000   1.0000   1.0000
     1.0000   1.0000   1.0000   1.0000   1.0000   1.0000   1.0000   1.0000
     1.0000   1.0000   1.0000   1.0000   1.0000   1.0000   1.0000   1.0000
     1.0000   1.0000   1.0000   1.0000   1.0000   1.0000   1.0000   1.0000
     1.0000   1.0000   1.0000   1.0000   1.0000   1.0000   1.0000   1.0000
     1.0000   1.0000   1.0000   1.0000   1.0000   1.0000   1.0000   1.0000
     1.0000   1.0000   1.0000   1.0000   1.0000   1.0000   1.0000   1.0000
     1.0000   1.0000   1.0000   1.0000   1.0000   1.0000   1.0000   1.0000
     1.0000   1.0000   1.0000   1.0000   0.9999   0.9999   0.9999   0.9999
     0.9999   0.9998   0.9994   0.9992   0.9987   0.9965   0.9965   0.9961
     0.9917   0.9881   0.9875   0.9691   0.9179   0.9019   0.8853   0.8649
     0.8440   0.8167   0.7447   0.7262   0.6787   0.6221   0.6040   0.5424
     0.5314   0.3620   0.3139   0.3090   0.2112   0.1741   0.1520   0.0410
     0.0305   0.0285   0.0249   0.0224   0.0148   0.0144   0.0054   0.0053
     0.0039   0.0025   0.0021   0.0009   0.0009   0.0007   0.0003   0.0003
     0.0000   0.0000   0.0000   0.0000   0.0000   0.0000   0.0000   0.0000
     0.0000   0.0000   0.0000   0.0000   0.0000   0.0000   0.0000   0.0000
     0.0000   0.0000   0.0000   0.0000   0.0000   0.0000   0.0000   0.0000
     0.0000   0.0000   0.0000   0.0000   0.0000   0.0000   0.0000   0.0000
     0.0000   0.0000   0.0000   0.0000   0.0000   0.0000   0.0000   0.0000
     0.0000   0.0000   0.0000   0.0000   0.0000   0.0000   0.0000   0.0000
     0.0000   0.0000   0.0000   0.0000   0.0000   0.0000   0.0000   0.0000
     0.0000   0.0000   0.0000   0.0000   0.0000   0.0000   0.0000   0.0000
     0.0000   0.0000   0.0000   0.0000   0.0000   0.0000   0.0000   0.0000
     0.0000   0.0000   0.0000   0.0000   0.0000   0.0000   0.0000   0.0000
     0.0000   0.0000   0.0000   0.0000   0.0000   0.0000   0.0000   0.0000
     0.0000   0.0000   0.0000   0.0000   0.0000   0.0000   0.0000   0.0000

          k = 0.0000-0.5774 0.0000 (156724 PWs)   bands (ev):

   -94.3681 -94.3659 -94.3611 -94.3592 -94.3575 -94.3559 -94.3540 -94.3533
   -94.3522 -94.3511 -94.3472 -94.3461 -94.3449 -94.3437 -94.3424 -94.3387
   -94.3379 -94.3367 -94.3365 -94.3359 -94.3358 -94.3347 -94.3327 -94.3321
   -94.3317 -94.3306 -94.3124 -94.3121 -94.3113 -94.3016 -94.2941 -94.2939
   -93.9167 -93.9141 -93.9139 -93.9127 -93.9121 -93.9095 -93.9084 -93.9084
   -93.9079 -93.9054 -93.9034 -93.9027 -93.9024 -93.9013 -93.9002 -93.8993
   -93.8978 -93.8973 -93.8968 -93.8961 -93.8955 -93.8949 -93.8918 -93.8904
   -93.8901 -93.8900 -93.8892 -93.8879 -93.8863 -93.8860 -93.8858 -93.7115
   -48.6563 -48.6546 -48.6505 -48.6463 -48.6385 -48.6345 -48.6332 -48.6319
   -48.6285 -48.6251 -48.6210 -48.6194 -48.6189 -48.6183 -48.6146 -48.6074
   -48.6045 -48.6032 -48.5992 -48.5972 -48.5960 -48.5861 -48.5819 -48.5800
   -48.5774 -48.5760 -48.5696 -48.5617 -48.5448 -48.5410 -48.5134 -48.5125
   -48.5115 -48.5106 -48.5088 -48.5058 -48.5017 -48.5002 -48.4997 -48.4962
   -48.4926 -48.4890 -48.4882 -48.4829 -48.4741 -48.4735 -48.4687 -48.4645
   -48.4555 -48.4548 -48.4482 -48.4471 -48.4419 -48.4417 -48.4386 -48.4369
   -48.4351 -48.4346 -48.4326 -48.4315 -48.4308 -48.4294 -48.4284 -48.4260
   -48.4259 -48.4227 -48.4207 -48.4198 -48.4189 -48.4161 -48.4158 -48.4145
   -48.4141 -48.4105 -48.4097 -48.4022 -48.3992 -48.3957 -48.3939 -48.3914
   -48.3906 -48.3868 -48.3865 -48.3844 -48.3819 -48.3773 -48.3748 -48.3715
   -48.3678 -48.3659 -48.3580 -48.3571 -48.3530 -48.3388 -48.3319 -48.3185
   -48.2621 -48.2619 -48.2614 -48.2607 -48.2583 -48.2564 -48.2551 -48.2449
   -48.2446 -48.2420 -48.2401 -48.2353 -48.2338 -48.2336 -48.2333 -48.2182
   -48.2024 -48.2006 -48.2001 -48.1989 -48.1987 -48.1968 -48.1851 -48.1758
   -48.1606 -48.1605 -48.1584 -48.1454 -48.1099 -48.1097 -48.1083 -48.1001
   -48.0961 -48.0958 -48.0948 -48.0932 -48.0913 -48.0901 -48.0840 -48.0820
   -48.0715 -48.0694 -48.0690 -48.0686 -48.0680 -48.0671 -48.0621 -48.0620
   -48.0596 -48.0569 -48.0558 -48.0426 -48.0410 -48.0363 -48.0325 -48.0314
   -48.0311 -48.0285 -48.0257 -48.0102 -48.0073 -48.0030 -47.9080 -47.9056
   -47.8499 -47.8474 -47.8458 -47.8444 -47.8435 -47.8389 -47.8387 -47.8382
   -47.8371 -47.8333 -47.8313 -47.8298 -47.8294 -47.8283 -47.8265 -47.8253
   -47.8233 -47.8225 -47.8216 -47.8197 -47.8192 -47.8183 -47.8113 -47.8109
   -47.8109 -47.8107 -47.8083 -47.8078 -47.8018 -47.8016 -47.8011 -47.6290
    -7.8952  -4.5324  -4.5116  -3.6054  -3.5957  -3.2463  -3.2302  -2.4179
    -2.4047  -2.3890  -2.3710  -2.3422  -2.3284  -2.3269  -2.3207  -2.1362
    -2.1220  -2.0763  -2.0554  -2.0041  -1.9902  -1.9685  -1.9593  -1.9434
    -1.9422  -1.7928  -1.7830  -1.7701  -1.7685  -1.6836  -1.6769  -1.6634
    -1.6518  -1.5090  -1.4982  -1.4356  -1.4278  -1.4166  -1.4137  -1.4012
    -1.3772  -1.3281  -1.3267  -1.3165  -1.2988  -1.2892  -1.2811  -1.2086
    -1.2045  -1.1700  -1.1694  -1.1557  -1.1519  -1.1443  -1.1201  -1.1049
    -1.1023  -1.0783  -1.0734  -0.9713  -0.9649  -0.9631  -0.9477  -0.9244
    -0.9209  -0.8965  -0.8759  -0.7958  -0.7861  -0.7845  -0.7709  -0.5570
    -0.5550  -0.5400  -0.5392  -0.5251  -0.5167  -0.4848  -0.4758  -0.4510
    -0.4403  -0.4272  -0.4185  -0.4169  -0.3944  -0.2335  -0.2308  -0.2222
    -0.2180  -0.1928  -0.1827  -0.1567  -0.1558  -0.1208  -0.0923  -0.0799
    -0.0575  -0.0187   0.0103   0.0967   0.1005   0.1097   0.1243   0.1420
     0.1527   0.1544   0.1702   0.1757   0.1878   0.3283   0.3432   0.3497
     0.3528   0.3550   0.3689   0.4180   0.4186   0.4393   0.4491   0.5044
     0.5125   0.5368   0.5632   0.6338   0.6395   0.6510   0.6666   0.7085
     0.7127   0.7241   0.7492   0.7553   0.7627   0.8011   0.8062   0.8313
     0.8329   0.8422   0.8518   0.9250   0.9322   0.9496   0.9516   0.9538
     0.9565   0.9616   0.9761   0.9841   0.9919   0.9956   1.0157   1.0496
     1.0540   1.0619   1.0654   1.0749   1.0787   1.0833   1.0993   1.1022
     1.1277   1.1381   1.1451   1.1455   1.1479   1.1522   1.1599   1.1738
     1.1894   1.1918   1.2045   1.2094   1.2284   1.2658   1.2895   1.2976
     1.3042   1.3086   1.3201   1.3305   1.3613   1.3834   1.4021   1.4082
     1.4242   1.4265   1.4699   1.5167   1.5375   1.5925   1.6051   1.6134
     1.6335   1.6577   1.6909   1.7157   1.7225   1.7334   1.7409   1.7440
     1.7622   1.8082   1.8371   1.9895   1.9917   2.0295   2.0320   2.0664
     2.0710   2.0755   2.0868   2.1241   2.1284   2.1362   2.1394   2.1464
     2.1664   2.1741   2.1836   2.1987   2.2259   2.3180   2.3398   2.3807
     2.3988   2.4057   2.4091   2.4283   2.4332   2.4472   2.4510   2.4927
     2.5126   2.5140   2.5366   2.5413   2.5650   2.5967   2.5977   2.6420
     2.6469   2.6589   2.6748   2.7070   2.7383   2.7451   2.7506   2.7805
     2.8244   2.8271   2.8360   2.8451   2.8715   2.8781   2.8819   2.9304
     2.9627   2.9705   2.9894   2.9932   3.0022   3.0025   3.0082   3.0089
     3.0300   3.0673   3.0796   3.0936   3.1000   3.1104   3.1116   3.1845
     3.2593   3.2728   3.3323   3.3400   3.4596   3.4654   3.4696   3.4716
     3.4768   3.4822   3.5087   3.5130   3.5147   3.5245   3.5248   3.5347
     3.6095   3.6147   3.6268   3.6317   3.6334   3.6369   3.6441   3.6486
     3.6611   3.6770   3.6772   3.6839   3.6891   3.6954   3.7074   3.7498
     3.7880   3.7983   3.8491   3.8515   3.8576   3.8577   3.8706   3.8763
     3.8887   3.9038   3.9054   3.9620   3.9687   3.9770   3.9892   4.0053
     4.0067   4.0160   4.0180   4.0356   4.0629   4.0892   4.0938   4.1030
     4.1142   4.1172   4.1212   4.1218   4.1336   4.1405   4.1453   4.1504
     4.1971   4.2015   4.2091   4.2179   4.2483   4.2558   4.3606   4.3643
     4.3901   4.3941   4.3952   4.4038   5.0903   5.1613   5.3076   5.3128
     5.3289   5.3340   5.3926   5.4094   5.8527   5.8571   5.8608   5.8638
     6.1125   6.1656   6.3413   6.3532   6.3536   6.3643   6.5493   6.6066
     7.3267   7.3335   7.3439   7.3507   7.4295   7.4439   7.4631   7.4789
     7.7949   7.8126   8.1770   8.1946   8.2102   8.2411   8.3006   8.3176
     8.9633   8.9734   8.9889   8.9909   9.0038   9.2071   9.2190   9.2773
     9.2818   9.2876   9.4651   9.4723   9.7670   9.7866   9.7919   9.7947
     9.8940   9.9224  10.0173  10.0469  10.0567  10.0804  10.1658  10.2094
    10.2191  10.2349  10.2385  10.2684  10.3851  10.4107  10.4167  10.4181
    10.4301  10.4374  10.5558  10.5731  10.7824  10.7899  10.8561  10.8703
    11.0741  11.1565  11.1697  11.2467  11.3765  11.3805  11.4070  11.4277
    11.4334  11.4427  11.4456  11.4641  11.5333  11.5977  11.6643  11.7318

     occupation numbers 
     1.0000   1.0000   1.0000   1.0000   1.0000   1.0000   1.0000   1.0000
     1.0000   1.0000   1.0000   1.0000   1.0000   1.0000   1.0000   1.0000
     1.0000   1.0000   1.0000   1.0000   1.0000   1.0000   1.0000   1.0000
     1.0000   1.0000   1.0000   1.0000   1.0000   1.0000   1.0000   1.0000
     1.0000   1.0000   1.0000   1.0000   1.0000   1.0000   1.0000   1.0000
     1.0000   1.0000   1.0000   1.0000   1.0000   1.0000   1.0000   1.0000
     1.0000   1.0000   1.0000   1.0000   1.0000   1.0000   1.0000   1.0000
     1.0000   1.0000   1.0000   1.0000   1.0000   1.0000   1.0000   1.0000
     1.0000   1.0000   1.0000   1.0000   1.0000   1.0000   1.0000   1.0000
     1.0000   1.0000   1.0000   1.0000   1.0000   1.0000   1.0000   1.0000
     1.0000   1.0000   1.0000   1.0000   1.0000   1.0000   1.0000   1.0000
     1.0000   1.0000   1.0000   1.0000   1.0000   1.0000   1.0000   1.0000
     1.0000   1.0000   1.0000   1.0000   1.0000   1.0000   1.0000   1.0000
     1.0000   1.0000   1.0000   1.0000   1.0000   1.0000   1.0000   1.0000
     1.0000   1.0000   1.0000   1.0000   1.0000   1.0000   1.0000   1.0000
     1.0000   1.0000   1.0000   1.0000   1.0000   1.0000   1.0000   1.0000
     1.0000   1.0000   1.0000   1.0000   1.0000   1.0000   1.0000   1.0000
     1.0000   1.0000   1.0000   1.0000   1.0000   1.0000   1.0000   1.0000
     1.0000   1.0000   1.0000   1.0000   1.0000   1.0000   1.0000   1.0000
     1.0000   1.0000   1.0000   1.0000   1.0000   1.0000   1.0000   1.0000
     1.0000   1.0000   1.0000   1.0000   1.0000   1.0000   1.0000   1.0000
     1.0000   1.0000   1.0000   1.0000   1.0000   1.0000   1.0000   1.0000
     1.0000   1.0000   1.0000   1.0000   1.0000   1.0000   1.0000   1.0000
     1.0000   1.0000   1.0000   1.0000   1.0000   1.0000   1.0000   1.0000
     1.0000   1.0000   1.0000   1.0000   1.0000   1.0000   1.0000   1.0000
     1.0000   1.0000   1.0000   1.0000   1.0000   1.0000   1.0000   1.0000
     1.0000   1.0000   1.0000   1.0000   1.0000   1.0000   1.0000   1.0000
     1.0000   1.0000   1.0000   1.0000   1.0000   1.0000   1.0000   1.0000
     1.0000   1.0000   1.0000   1.0000   1.0000   1.0000   1.0000   1.0000
     1.0000   1.0000   1.0000   1.0000   1.0000   1.0000   1.0000   1.0000
     1.0000   1.0000   1.0000   1.0000   1.0000   1.0000   1.0000   1.0000
     1.0000   1.0000   1.0000   1.0000   1.0000   1.0000   1.0000   1.0000
     1.0000   1.0000   1.0000   1.0000   1.0000   1.0000   1.0000   1.0000
     1.0000   1.0000   1.0000   1.0000   1.0000   1.0000   1.0000   1.0000
     1.0000   1.0000   1.0000   1.0000   1.0000   1.0000   1.0000   1.0000
     1.0000   1.0000   1.0000   1.0000   1.0000   1.0000   1.0000   1.0000
     1.0000   1.0000   1.0000   1.0000   1.0000   1.0000   1.0000   1.0000
     1.0000   1.0000   1.0000   1.0000   1.0000   1.0000   1.0000   1.0000
     1.0000   1.0000   1.0000   1.0000   1.0000   1.0000   1.0000   1.0000
     1.0000   1.0000   1.0000   1.0000   1.0000   1.0000   1.0000   1.0000
     1.0000   1.0000   1.0000   1.0000   1.0000   1.0000   1.0000   1.0000
     1.0000   1.0000   1.0000   1.0000   1.0000   1.0000   1.0000   1.0000
     1.0000   1.0000   1.0000   1.0000   1.0000   1.0000   1.0000   1.0000
     1.0000   1.0000   1.0000   1.0000   1.0000   1.0000   1.0000   1.0000
     1.0000   1.0000   1.0000   1.0000   1.0000   1.0000   1.0000   1.0000
     1.0000   1.0000   1.0000   1.0000   1.0000   1.0000   1.0000   1.0000
     1.0000   1.0000   1.0000   1.0000   1.0000   1.0000   1.0000   1.0000
     1.0000   1.0000   1.0000   1.0000   1.0000   1.0000   1.0000   1.0000
     1.0000   1.0000   1.0000   1.0000   1.0000   1.0000   1.0000   1.0000
     1.0000   1.0000   1.0000   1.0000   1.0000   1.0000   1.0000   1.0000
     1.0000   1.0000   1.0000   1.0000   1.0000   1.0000   1.0000   1.0000
     1.0000   1.0000   1.0000   1.0000   1.0000   1.0000   1.0000   1.0000
     1.0000   1.0000   1.0000   1.0000   1.0000   1.0000   1.0000   1.0000
     1.0000   1.0000   1.0000   1.0000   1.0000   1.0000   1.0000   1.0000
     1.0000   1.0000   1.0000   1.0000   1.0000   1.0000   1.0000   1.0000
     1.0000   1.0000   1.0000   1.0000   1.0000   1.0000   1.0000   1.0000
     1.0000   1.0000   1.0000   1.0000   1.0000   1.0000   1.0000   1.0000
     1.0000   1.0000   1.0000   1.0000   1.0000   1.0000   1.0000   1.0000
     1.0000   1.0000   1.0000   1.0000   1.0000   1.0000   1.0000   1.0000
     1.0000   1.0000   1.0000   1.0000   1.0000   1.0000   1.0000   1.0000
     1.0000   1.0000   1.0000   1.0000   1.0000   1.0000   1.0000   1.0000
     1.0000   1.0000   1.0000   1.0000   1.0000   1.0000   1.0000   1.0000
     1.0000   1.0000   1.0000   1.0000   1.0000   1.0000   1.0000   1.0000
     1.0000   1.0000   1.0000   1.0000   1.0000   1.0000   1.0000   1.0000
     1.0000   1.0000   1.0000   1.0000   1.0000   1.0000   1.0000   1.0000
     1.0000   1.0000   1.0000   1.0000   1.0000   1.0000   1.0000   1.0000
     1.0000   1.0000   1.0000   1.0000   1.0000   1.0000   1.0000   1.0000
     1.0000   1.0000   1.0000   1.0000   1.0000   1.0000   1.0000   1.0000
     0.9999   0.9999   0.9999   0.9999   0.9999   0.9999   0.9999   0.9998
     0.9998   0.9997   0.9997   0.9997   0.9996   0.9996   0.9995   0.9988
     0.9975   0.9969   0.9915   0.9910   0.9899   0.9899   0.9869   0.9854
     0.9813   0.9749   0.9741   0.9239   0.9139   0.9000   0.8759   0.8364
     0.8326   0.8050   0.7987   0.7359   0.6174   0.4882   0.4656   0.4198
     0.3664   0.3530   0.3346   0.3322   0.2820   0.2550   0.2369   0.2193
     0.0994   0.0918   0.0798   0.0678   0.0381   0.0329   0.0042   0.0039
     0.0023   0.0021   0.0021   0.0018   0.0000   0.0000   0.0000   0.0000
     0.0000   0.0000   0.0000   0.0000   0.0000   0.0000   0.0000   0.0000
     0.0000   0.0000   0.0000   0.0000   0.0000   0.0000   0.0000   0.0000
     0.0000   0.0000   0.0000   0.0000   0.0000   0.0000   0.0000   0.0000
     0.0000   0.0000   0.0000   0.0000   0.0000   0.0000   0.0000   0.0000
     0.0000   0.0000   0.0000   0.0000   0.0000   0.0000   0.0000   0.0000
     0.0000   0.0000   0.0000   0.0000   0.0000   0.0000   0.0000   0.0000
     0.0000   0.0000   0.0000   0.0000   0.0000   0.0000   0.0000   0.0000
     0.0000   0.0000   0.0000   0.0000   0.0000   0.0000   0.0000   0.0000
     0.0000   0.0000   0.0000   0.0000   0.0000   0.0000   0.0000   0.0000
     0.0000   0.0000   0.0000   0.0000   0.0000   0.0000   0.0000   0.0000
     0.0000   0.0000   0.0000   0.0000   0.0000   0.0000   0.0000   0.0000

          k = 0.2500-0.1443 0.0000 (156705 PWs)   bands (ev):

   -94.3688 -94.3646 -94.3611 -94.3599 -94.3571 -94.3561 -94.3547 -94.3527
   -94.3522 -94.3510 -94.3478 -94.3454 -94.3447 -94.3438 -94.3422 -94.3386
   -94.3382 -94.3374 -94.3367 -94.3362 -94.3348 -94.3341 -94.3332 -94.3319
   -94.3315 -94.3308 -94.3124 -94.3120 -94.3113 -94.3016 -94.2941 -94.2939
   -93.9169 -93.9149 -93.9139 -93.9125 -93.9105 -93.9098 -93.9085 -93.9081
   -93.9077 -93.9053 -93.9045 -93.9039 -93.9028 -93.9003 -93.9001 -93.8991
   -93.8976 -93.8973 -93.8972 -93.8958 -93.8954 -93.8948 -93.8919 -93.8913
   -93.8901 -93.8901 -93.8883 -93.8878 -93.8864 -93.8861 -93.8859 -93.7115
   -48.6708 -48.6677 -48.6643 -48.6473 -48.6457 -48.6416 -48.6317 -48.6271
   -48.6232 -48.6218 -48.6211 -48.6137 -48.6105 -48.6099 -48.6083 -48.6038
   -48.6016 -48.5996 -48.5978 -48.5967 -48.5947 -48.5912 -48.5817 -48.5766
   -48.5729 -48.5695 -48.5553 -48.5518 -48.5360 -48.5340 -48.5161 -48.5154
   -48.5139 -48.5102 -48.5062 -48.5023 -48.5006 -48.4990 -48.4960 -48.4941
   -48.4933 -48.4902 -48.4894 -48.4845 -48.4768 -48.4756 -48.4680 -48.4611
   -48.4591 -48.4573 -48.4547 -48.4540 -48.4513 -48.4512 -48.4471 -48.4425
   -48.4422 -48.4400 -48.4366 -48.4349 -48.4348 -48.4320 -48.4296 -48.4285
   -48.4252 -48.4235 -48.4217 -48.4216 -48.4187 -48.4158 -48.4152 -48.4136
   -48.4109 -48.4105 -48.4088 -48.4081 -48.4050 -48.4009 -48.3998 -48.3936
   -48.3918 -48.3902 -48.3841 -48.3785 -48.3778 -48.3722 -48.3715 -48.3657
   -48.3638 -48.3571 -48.3550 -48.3518 -48.3495 -48.3423 -48.3233 -48.3170
   -48.2767 -48.2761 -48.2741 -48.2704 -48.2649 -48.2622 -48.2427 -48.2411
   -48.2395 -48.2373 -48.2348 -48.2345 -48.2296 -48.2261 -48.2199 -48.2194
   -48.2117 -48.2096 -48.1980 -48.1856 -48.1734 -48.1729 -48.1659 -48.1652
   -48.1508 -48.1505 -48.1469 -48.1402 -48.1202 -48.1200 -48.1180 -48.1161
   -48.1153 -48.1133 -48.1063 -48.1052 -48.0970 -48.0967 -48.0895 -48.0886
   -48.0848 -48.0835 -48.0783 -48.0778 -48.0730 -48.0690 -48.0587 -48.0583
   -48.0493 -48.0472 -48.0470 -48.0443 -48.0370 -48.0352 -48.0319 -48.0315
   -48.0254 -48.0209 -48.0093 -48.0092 -48.0020 -48.0007 -47.9065 -47.9053
   -47.8513 -47.8481 -47.8447 -47.8434 -47.8422 -47.8391 -47.8382 -47.8377
   -47.8374 -47.8332 -47.8330 -47.8322 -47.8300 -47.8263 -47.8262 -47.8249
   -47.8230 -47.8222 -47.8220 -47.8201 -47.8190 -47.8181 -47.8116 -47.8113
   -47.8110 -47.8110 -47.8077 -47.8075 -47.8020 -47.8017 -47.8010 -47.6290
    -7.8952  -4.9036  -3.9396  -3.6069  -3.5197  -3.5095  -2.8571  -2.8507
    -2.7143  -2.6768  -2.4985  -2.4160  -2.3708  -2.3521  -2.3020  -2.2090
    -2.2031  -2.0925  -2.0405  -2.0341  -1.9822  -1.9764  -1.9586  -1.7952
    -1.7919  -1.6794  -1.6411  -1.6381  -1.6228  -1.6111  -1.6080  -1.5531
    -1.4805  -1.4788  -1.4561  -1.4465  -1.4376  -1.4266  -1.4221  -1.4089
    -1.3510  -1.3489  -1.3379  -1.3315  -1.3121  -1.3080  -1.2858  -1.2427
    -1.2416  -1.2231  -1.2214  -1.2175  -1.1979  -1.1450  -1.0693  -1.0683
    -1.0350  -1.0318  -0.9889  -0.9780  -0.9366  -0.8555  -0.8466  -0.8433
    -0.8395  -0.8152  -0.8004  -0.7948  -0.7854  -0.7430  -0.7421  -0.5577
    -0.5571  -0.5390  -0.5333  -0.5264  -0.4799  -0.4690  -0.4127  -0.4074
    -0.3863  -0.3804  -0.3530  -0.3351  -0.2560  -0.2455  -0.2235  -0.2126
    -0.1932  -0.1830  -0.1507  -0.1376  -0.1262  -0.1244  -0.0790  -0.0598
    -0.0359  -0.0330   0.0095   0.0278   0.0518   0.0577   0.0730   0.0784
     0.1190   0.1461   0.1576   0.2025   0.3153   0.3217   0.3371   0.3413
     0.3859   0.4470   0.4540   0.4570   0.4646   0.4858   0.5060   0.5198
     0.5324   0.5397   0.5424   0.5458   0.5541   0.5623   0.5728   0.5917
     0.6280   0.6442   0.6556   0.6854   0.7008   0.7135   0.7283   0.7324
     0.7579   0.7842   0.7950   0.8710   0.8752   0.8823   0.8942   0.9245
     0.9525   0.9567   0.9665   0.9703   0.9792   0.9867   0.9958   1.0304
     1.0411   1.0994   1.1079   1.1099   1.1208   1.1259   1.1266   1.1413
     1.1670   1.1833   1.2010   1.2049   1.2100   1.2198   1.2432   1.2544
     1.2697   1.2832   1.2841   1.3028   1.3335   1.3359   1.3558   1.3608
     1.3750   1.3858   1.3903   1.4048   1.4311   1.4474   1.4487   1.4536
     1.4630   1.4664   1.4850   1.4964   1.5018   1.5188   1.5421   1.5556
     1.5996   1.6308   1.6518   1.6521   1.6707   1.6921   1.7452   1.7577
     1.7736   1.7768   1.8264   1.8454   1.8489   1.8603   1.8780   1.8954
     1.9338   1.9891   2.0305   2.0406   2.0474   2.0494   2.0648   2.0894
     2.0945   2.1053   2.1092   2.1108   2.1264   2.1466   2.1670   2.1737
     2.1799   2.1983   2.2576   2.2630   2.2951   2.3392   2.3467   2.4469
     2.4477   2.4783   2.5333   2.5557   2.5583   2.5766   2.5803   2.5817
     2.6079   2.6307   2.6365   2.6519   2.7026   2.7114   2.7508   2.7606
     2.7690   2.7741   2.7926   2.7997   2.8118   2.8686   2.9345   2.9347
     2.9422   2.9554   2.9702   2.9741   2.9814   2.9961   2.9995   3.0250
     3.0448   3.0633   3.0852   3.0871   3.0923   3.1038   3.1093   3.1178
     3.1395   3.1399   3.1819   3.1871   3.2169   3.2386   3.2442   3.2545
     3.2592   3.2972   3.3077   3.3847   3.4052   3.4276   3.4341   3.4511
     3.5181   3.5206   3.5397   3.5500   3.5921   3.5944   3.5991   3.6191
     3.6341   3.6490   3.7158   3.7311   3.7552   3.8037   3.8042   3.8095
     3.8474   3.8656   3.8682   3.9145   3.9658   3.9761   3.9845   3.9935
     4.0021   4.0119   4.0333   4.0385   4.0497   4.0620   4.0659   4.0790
     4.0805   4.1158   4.1265   4.1274   4.1529   4.1648   4.1732   4.2446
     4.2598   4.2640   4.2707   4.2767   4.2969   4.2983   4.3485   4.3492
     4.3643   4.3848   4.3950   4.4381   4.4388   4.4529   4.4919   4.4991
     4.7322   4.7498   4.8440   5.0404   5.0416   5.2677   5.2808   5.2863
     5.4948   5.5076   5.5501   5.8119   5.9953   5.9977   6.1445   6.1883
     6.2445   6.3298   6.3359   6.3444   6.3524   6.4910   6.4977   6.8317
     6.8509   6.8640   6.8739   7.0805   7.0831   7.0860   7.5972   7.6147
     7.6671   7.8901   7.8980   7.9194   7.9330   8.2505   8.3308   8.3315
     8.3523   8.3698   8.8065   9.1219   9.1251   9.1844   9.3745   9.4087
     9.4784   9.5045   9.6033   9.6477   9.6520   9.7253   9.7392   9.7586
     9.7870   9.8024   9.9358   9.9696  10.0239  10.0365  10.0484  10.2849
    10.3138  10.3259  10.3276  10.3337  10.3436  10.3475  10.3757  10.5550
    10.6176  10.6728  10.6983  10.7330  10.8817  10.9082  10.9325  10.9521
    10.9596  11.0245  11.0775  11.1261  11.1404  11.1845  11.1886  11.2648
    11.2682  11.2806  11.2931  11.3323  11.3363  11.4540  11.5484  11.6938

     occupation numbers 
     1.0000   1.0000   1.0000   1.0000   1.0000   1.0000   1.0000   1.0000
     1.0000   1.0000   1.0000   1.0000   1.0000   1.0000   1.0000   1.0000
     1.0000   1.0000   1.0000   1.0000   1.0000   1.0000   1.0000   1.0000
     1.0000   1.0000   1.0000   1.0000   1.0000   1.0000   1.0000   1.0000
     1.0000   1.0000   1.0000   1.0000   1.0000   1.0000   1.0000   1.0000
     1.0000   1.0000   1.0000   1.0000   1.0000   1.0000   1.0000   1.0000
     1.0000   1.0000   1.0000   1.0000   1.0000   1.0000   1.0000   1.0000
     1.0000   1.0000   1.0000   1.0000   1.0000   1.0000   1.0000   1.0000
     1.0000   1.0000   1.0000   1.0000   1.0000   1.0000   1.0000   1.0000
     1.0000   1.0000   1.0000   1.0000   1.0000   1.0000   1.0000   1.0000
     1.0000   1.0000   1.0000   1.0000   1.0000   1.0000   1.0000   1.0000
     1.0000   1.0000   1.0000   1.0000   1.0000   1.0000   1.0000   1.0000
     1.0000   1.0000   1.0000   1.0000   1.0000   1.0000   1.0000   1.0000
     1.0000   1.0000   1.0000   1.0000   1.0000   1.0000   1.0000   1.0000
     1.0000   1.0000   1.0000   1.0000   1.0000   1.0000   1.0000   1.0000
     1.0000   1.0000   1.0000   1.0000   1.0000   1.0000   1.0000   1.0000
     1.0000   1.0000   1.0000   1.0000   1.0000   1.0000   1.0000   1.0000
     1.0000   1.0000   1.0000   1.0000   1.0000   1.0000   1.0000   1.0000
     1.0000   1.0000   1.0000   1.0000   1.0000   1.0000   1.0000   1.0000
     1.0000   1.0000   1.0000   1.0000   1.0000   1.0000   1.0000   1.0000
     1.0000   1.0000   1.0000   1.0000   1.0000   1.0000   1.0000   1.0000
     1.0000   1.0000   1.0000   1.0000   1.0000   1.0000   1.0000   1.0000
     1.0000   1.0000   1.0000   1.0000   1.0000   1.0000   1.0000   1.0000
     1.0000   1.0000   1.0000   1.0000   1.0000   1.0000   1.0000   1.0000
     1.0000   1.0000   1.0000   1.0000   1.0000   1.0000   1.0000   1.0000
     1.0000   1.0000   1.0000   1.0000   1.0000   1.0000   1.0000   1.0000
     1.0000   1.0000   1.0000   1.0000   1.0000   1.0000   1.0000   1.0000
     1.0000   1.0000   1.0000   1.0000   1.0000   1.0000   1.0000   1.0000
     1.0000   1.0000   1.0000   1.0000   1.0000   1.0000   1.0000   1.0000
     1.0000   1.0000   1.0000   1.0000   1.0000   1.0000   1.0000   1.0000
     1.0000   1.0000   1.0000   1.0000   1.0000   1.0000   1.0000   1.0000
     1.0000   1.0000   1.0000   1.0000   1.0000   1.0000   1.0000   1.0000
     1.0000   1.0000   1.0000   1.0000   1.0000   1.0000   1.0000   1.0000
     1.0000   1.0000   1.0000   1.0000   1.0000   1.0000   1.0000   1.0000
     1.0000   1.0000   1.0000   1.0000   1.0000   1.0000   1.0000   1.0000
     1.0000   1.0000   1.0000   1.0000   1.0000   1.0000   1.0000   1.0000
     1.0000   1.0000   1.0000   1.0000   1.0000   1.0000   1.0000   1.0000
     1.0000   1.0000   1.0000   1.0000   1.0000   1.0000   1.0000   1.0000
     1.0000   1.0000   1.0000   1.0000   1.0000   1.0000   1.0000   1.0000
     1.0000   1.0000   1.0000   1.0000   1.0000   1.0000   1.0000   1.0000
     1.0000   1.0000   1.0000   1.0000   1.0000   1.0000   1.0000   1.0000
     1.0000   1.0000   1.0000   1.0000   1.0000   1.0000   1.0000   1.0000
     1.0000   1.0000   1.0000   1.0000   1.0000   1.0000   1.0000   1.0000
     1.0000   1.0000   1.0000   1.0000   1.0000   1.0000   1.0000   1.0000
     1.0000   1.0000   1.0000   1.0000   1.0000   1.0000   1.0000   1.0000
     1.0000   1.0000   1.0000   1.0000   1.0000   1.0000   1.0000   1.0000
     1.0000   1.0000   1.0000   1.0000   1.0000   1.0000   1.0000   1.0000
     1.0000   1.0000   1.0000   1.0000   1.0000   1.0000   1.0000   1.0000
     1.0000   1.0000   1.0000   1.0000   1.0000   1.0000   1.0000   1.0000
     1.0000   1.0000   1.0000   1.0000   1.0000   1.0000   1.0000   1.0000
     1.0000   1.0000   1.0000   1.0000   1.0000   1.0000   1.0000   1.0000
     1.0000   1.0000   1.0000   1.0000   1.0000   1.0000   1.0000   1.0000
     1.0000   1.0000   1.0000   1.0000   1.0000   1.0000   1.0000   1.0000
     1.0000   1.0000   1.0000   1.0000   1.0000   1.0000   1.0000   1.0000
     1.0000   1.0000   1.0000   1.0000   1.0000   1.0000   1.0000   1.0000
     1.0000   1.0000   1.0000   1.0000   1.0000   1.0000   1.0000   1.0000
     1.0000   1.0000   1.0000   1.0000   1.0000   1.0000   1.0000   1.0000
     1.0000   1.0000   1.0000   1.0000   1.0000   1.0000   1.0000   1.0000
     1.0000   1.0000   1.0000   1.0000   1.0000   1.0000   1.0000   1.0000
     1.0000   1.0000   1.0000   1.0000   1.0000   1.0000   1.0000   1.0000
     1.0000   1.0000   1.0000   1.0000   1.0000   1.0000   1.0000   1.0000
     1.0000   1.0000   1.0000   1.0000   1.0000   1.0000   1.0000   1.0000
     1.0000   1.0000   1.0000   1.0000   1.0000   1.0000   1.0000   1.0000
     1.0000   1.0000   1.0000   1.0000   1.0000   1.0000   1.0000   1.0000
     1.0000   1.0000   1.0000   1.0000   1.0000   1.0000   1.0000   1.0000
     1.0000   1.0000   1.0000   1.0000   1.0000   1.0000   1.0000   1.0000
     1.0000   1.0000   1.0000   1.0000   1.0000   1.0000   1.0000   1.0000
     1.0000   1.0000   1.0000   1.0000   1.0000   1.0000   1.0000   1.0000
     1.0000   1.0000   1.0000   1.0000   0.9999   0.9999   0.9999   0.9999
     0.9999   0.9998   0.9994   0.9992   0.9987   0.9965   0.9965   0.9961
     0.9918   0.9882   0.9875   0.9691   0.9185   0.9016   0.8857   0.8661
     0.8449   0.8174   0.7450   0.7244   0.6775   0.6218   0.6032   0.5393
     0.5320   0.3591   0.3117   0.3079   0.2107   0.1737   0.1509   0.0409
     0.0305   0.0281   0.0247   0.0220   0.0148   0.0144   0.0053   0.0052
     0.0039   0.0026   0.0021   0.0009   0.0009   0.0007   0.0003   0.0003
     0.0000   0.0000   0.0000   0.0000   0.0000   0.0000   0.0000   0.0000
     0.0000   0.0000   0.0000   0.0000   0.0000   0.0000   0.0000   0.0000
     0.0000   0.0000   0.0000   0.0000   0.0000   0.0000   0.0000   0.0000
     0.0000   0.0000   0.0000   0.0000   0.0000   0.0000   0.0000   0.0000
     0.0000   0.0000   0.0000   0.0000   0.0000   0.0000   0.0000   0.0000
     0.0000   0.0000   0.0000   0.0000   0.0000   0.0000   0.0000   0.0000
     0.0000   0.0000   0.0000   0.0000   0.0000   0.0000   0.0000   0.0000
     0.0000   0.0000   0.0000   0.0000   0.0000   0.0000   0.0000   0.0000
     0.0000   0.0000   0.0000   0.0000   0.0000   0.0000   0.0000   0.0000
     0.0000   0.0000   0.0000   0.0000   0.0000   0.0000   0.0000   0.0000
     0.0000   0.0000   0.0000   0.0000   0.0000   0.0000   0.0000   0.0000
     0.0000   0.0000   0.0000   0.0000   0.0000   0.0000   0.0000   0.0000

          k = 0.2500 0.1443 0.0000 (156705 PWs)   bands (ev):

   -94.3688 -94.3645 -94.3613 -94.3599 -94.3571 -94.3561 -94.3547 -94.3525
   -94.3524 -94.3510 -94.3478 -94.3454 -94.3446 -94.3438 -94.3422 -94.3388
   -94.3384 -94.3371 -94.3366 -94.3363 -94.3346 -94.3340 -94.3335 -94.3318
   -94.3315 -94.3308 -94.3125 -94.3120 -94.3113 -94.3016 -94.2941 -94.2939
   -93.9169 -93.9149 -93.9136 -93.9129 -93.9105 -93.9095 -93.9087 -93.9081
   -93.9077 -93.9053 -93.9046 -93.9039 -93.9028 -93.9002 -93.9002 -93.8991
   -93.8976 -93.8973 -93.8971 -93.8958 -93.8954 -93.8948 -93.8921 -93.8911
   -93.8901 -93.8901 -93.8882 -93.8879 -93.8864 -93.8861 -93.8859 -93.7115
   -48.6712 -48.6683 -48.6634 -48.6475 -48.6458 -48.6415 -48.6322 -48.6276
   -48.6228 -48.6211 -48.6208 -48.6138 -48.6105 -48.6101 -48.6086 -48.6037
   -48.6019 -48.5993 -48.5976 -48.5968 -48.5944 -48.5909 -48.5811 -48.5766
   -48.5730 -48.5694 -48.5556 -48.5520 -48.5363 -48.5349 -48.5161 -48.5156
   -48.5134 -48.5096 -48.5060 -48.5027 -48.5003 -48.4991 -48.4961 -48.4943
   -48.4935 -48.4904 -48.4896 -48.4845 -48.4769 -48.4757 -48.4679 -48.4611
   -48.4590 -48.4572 -48.4546 -48.4542 -48.4516 -48.4515 -48.4473 -48.4425
   -48.4421 -48.4406 -48.4363 -48.4349 -48.4347 -48.4317 -48.4295 -48.4283
   -48.4252 -48.4233 -48.4216 -48.4215 -48.4184 -48.4160 -48.4152 -48.4136
   -48.4113 -48.4108 -48.4089 -48.4079 -48.4048 -48.4006 -48.3996 -48.3938
   -48.3911 -48.3903 -48.3847 -48.3783 -48.3782 -48.3718 -48.3717 -48.3654
   -48.3641 -48.3565 -48.3552 -48.3524 -48.3489 -48.3429 -48.3227 -48.3176
   -48.2767 -48.2762 -48.2741 -48.2703 -48.2650 -48.2620 -48.2429 -48.2413
   -48.2397 -48.2373 -48.2347 -48.2344 -48.2295 -48.2258 -48.2199 -48.2194
   -48.2117 -48.2098 -48.1978 -48.1853 -48.1734 -48.1730 -48.1659 -48.1653
   -48.1510 -48.1507 -48.1470 -48.1406 -48.1203 -48.1202 -48.1181 -48.1159
   -48.1152 -48.1133 -48.1059 -48.1053 -48.0970 -48.0968 -48.0896 -48.0884
   -48.0847 -48.0834 -48.0781 -48.0777 -48.0731 -48.0692 -48.0587 -48.0583
   -48.0495 -48.0471 -48.0470 -48.0444 -48.0366 -48.0352 -48.0317 -48.0314
   -48.0256 -48.0211 -48.0091 -48.0090 -48.0024 -48.0009 -47.9062 -47.9056
   -47.8513 -47.8482 -47.8443 -47.8438 -47.8422 -47.8386 -47.8383 -47.8380
   -47.8375 -47.8332 -47.8330 -47.8321 -47.8300 -47.8263 -47.8262 -47.8249
   -47.8231 -47.8221 -47.8220 -47.8201 -47.8190 -47.8181 -47.8116 -47.8112
   -47.8110 -47.8110 -47.8076 -47.8075 -47.8020 -47.8017 -47.8010 -47.6290
    -7.8952  -4.9037  -3.9398  -3.6069  -3.5198  -3.5090  -2.8570  -2.8501
    -2.7144  -2.6779  -2.4986  -2.4161  -2.3708  -2.3522  -2.3032  -2.2084
    -2.2027  -2.0923  -2.0405  -2.0342  -1.9819  -1.9766  -1.9586  -1.7950
    -1.7912  -1.6799  -1.6415  -1.6381  -1.6228  -1.6113  -1.6077  -1.5540
    -1.4806  -1.4799  -1.4566  -1.4466  -1.4379  -1.4265  -1.4219  -1.4085
    -1.3509  -1.3488  -1.3376  -1.3311  -1.3116  -1.3070  -1.2858  -1.2425
    -1.2415  -1.2230  -1.2207  -1.2172  -1.1968  -1.1454  -1.0691  -1.0683
    -1.0348  -1.0322  -0.9885  -0.9773  -0.9367  -0.8561  -0.8470  -0.8434
    -0.8400  -0.8146  -0.8005  -0.7935  -0.7858  -0.7430  -0.7423  -0.5579
    -0.5577  -0.5391  -0.5331  -0.5268  -0.4799  -0.4690  -0.4135  -0.4082
    -0.3865  -0.3808  -0.3532  -0.3358  -0.2555  -0.2450  -0.2231  -0.2110
    -0.1937  -0.1831  -0.1500  -0.1375  -0.1259  -0.1247  -0.0795  -0.0601
    -0.0364  -0.0338   0.0089   0.0276   0.0520   0.0577   0.0732   0.0787
     0.1195   0.1456   0.1574   0.2024   0.3141   0.3210   0.3379   0.3422
     0.3869   0.4470   0.4540   0.4588   0.4666   0.4876   0.5060   0.5186
     0.5334   0.5395   0.5438   0.5455   0.5539   0.5620   0.5728   0.5929
     0.6280   0.6425   0.6544   0.6852   0.7004   0.7137   0.7271   0.7326
     0.7569   0.7856   0.7949   0.8715   0.8754   0.8821   0.8942   0.9241
     0.9516   0.9561   0.9670   0.9706   0.9795   0.9849   0.9963   1.0299
     1.0411   1.0974   1.1069   1.1089   1.1197   1.1237   1.1259   1.1409
     1.1660   1.1822   1.1991   1.2044   1.2094   1.2192   1.2426   1.2540
     1.2691   1.2836   1.2844   1.3027   1.3352   1.3371   1.3555   1.3618
     1.3760   1.3866   1.3933   1.4056   1.4314   1.4479   1.4484   1.4540
     1.4630   1.4671   1.4866   1.4964   1.5021   1.5188   1.5412   1.5561
     1.5998   1.6305   1.6520   1.6521   1.6709   1.6916   1.7446   1.7566
     1.7728   1.7767   1.8267   1.8454   1.8487   1.8601   1.8781   1.8953
     1.9350   1.9898   2.0323   2.0402   2.0471   2.0495   2.0645   2.0884
     2.0947   2.1057   2.1090   2.1112   2.1270   2.1463   2.1669   2.1741
     2.1809   2.1984   2.2569   2.2623   2.2955   2.3395   2.3474   2.4469
     2.4477   2.4778   2.5360   2.5547   2.5583   2.5774   2.5809   2.5816
     2.6083   2.6312   2.6369   2.6514   2.7025   2.7113   2.7509   2.7602
     2.7679   2.7729   2.7923   2.7999   2.8125   2.8682   2.9342   2.9344
     2.9419   2.9557   2.9685   2.9745   2.9804   2.9963   2.9997   3.0247
     3.0446   3.0635   3.0850   3.0870   3.0926   3.1042   3.1094   3.1175
     3.1400   3.1405   3.1825   3.1870   3.2173   3.2392   3.2447   3.2535
     3.2599   3.2972   3.3081   3.3843   3.4050   3.4275   3.4337   3.4511
     3.5182   3.5208   3.5396   3.5498   3.5924   3.5950   3.5987   3.6194
     3.6334   3.6482   3.7157   3.7308   3.7551   3.8040   3.8042   3.8094
     3.8471   3.8653   3.8680   3.9145   3.9649   3.9764   3.9840   3.9923
     4.0015   4.0114   4.0331   4.0396   4.0505   4.0620   4.0663   4.0800
     4.0806   4.1173   4.1278   4.1279   4.1533   4.1652   4.1743   4.2447
     4.2607   4.2646   4.2723   4.2778   4.2971   4.2983   4.3494   4.3501
     4.3636   4.3831   4.3929   4.4373   4.4385   4.4519   4.4919   4.4990
     4.7317   4.7493   4.8425   5.0405   5.0415   5.2694   5.2809   5.2864
     5.4955   5.5083   5.5493   5.8106   5.9952   5.9977   6.1453   6.1896
     6.2459   6.3295   6.3351   6.3434   6.3514   6.4906   6.4973   6.8317
     6.8511   6.8633   6.8730   7.0797   7.0834   7.0849   7.5977   7.6149
     7.6649   7.8898   7.8984   7.9189   7.9317   8.2519   8.3307   8.3324
     8.3526   8.3712   8.8065   9.1225   9.1245   9.1845   9.3758   9.4097
     9.4791   9.5052   9.6030   9.6488   9.6523   9.7237   9.7373   9.7559
     9.7894   9.8033   9.9358   9.9705  10.0238  10.0366  10.0484  10.2849
    10.3140  10.3257  10.3268  10.3332  10.3443  10.3480  10.3746  10.5548
    10.6171  10.6753  10.6996  10.7326  10.8834  10.9097  10.9326  10.9523
    10.9597  11.0246  11.0779  11.1264  11.1404  11.1825  11.1874  11.2636
    11.2672  11.2808  11.2924  11.3318  11.3345  11.4534  11.5482  11.6927

     occupation numbers 
     1.0000   1.0000   1.0000   1.0000   1.0000   1.0000   1.0000   1.0000
     1.0000   1.0000   1.0000   1.0000   1.0000   1.0000   1.0000   1.0000
     1.0000   1.0000   1.0000   1.0000   1.0000   1.0000   1.0000   1.0000
     1.0000   1.0000   1.0000   1.0000   1.0000   1.0000   1.0000   1.0000
     1.0000   1.0000   1.0000   1.0000   1.0000   1.0000   1.0000   1.0000
     1.0000   1.0000   1.0000   1.0000   1.0000   1.0000   1.0000   1.0000
     1.0000   1.0000   1.0000   1.0000   1.0000   1.0000   1.0000   1.0000
     1.0000   1.0000   1.0000   1.0000   1.0000   1.0000   1.0000   1.0000
     1.0000   1.0000   1.0000   1.0000   1.0000   1.0000   1.0000   1.0000
     1.0000   1.0000   1.0000   1.0000   1.0000   1.0000   1.0000   1.0000
     1.0000   1.0000   1.0000   1.0000   1.0000   1.0000   1.0000   1.0000
     1.0000   1.0000   1.0000   1.0000   1.0000   1.0000   1.0000   1.0000
     1.0000   1.0000   1.0000   1.0000   1.0000   1.0000   1.0000   1.0000
     1.0000   1.0000   1.0000   1.0000   1.0000   1.0000   1.0000   1.0000
     1.0000   1.0000   1.0000   1.0000   1.0000   1.0000   1.0000   1.0000
     1.0000   1.0000   1.0000   1.0000   1.0000   1.0000   1.0000   1.0000
     1.0000   1.0000   1.0000   1.0000   1.0000   1.0000   1.0000   1.0000
     1.0000   1.0000   1.0000   1.0000   1.0000   1.0000   1.0000   1.0000
     1.0000   1.0000   1.0000   1.0000   1.0000   1.0000   1.0000   1.0000
     1.0000   1.0000   1.0000   1.0000   1.0000   1.0000   1.0000   1.0000
     1.0000   1.0000   1.0000   1.0000   1.0000   1.0000   1.0000   1.0000
     1.0000   1.0000   1.0000   1.0000   1.0000   1.0000   1.0000   1.0000
     1.0000   1.0000   1.0000   1.0000   1.0000   1.0000   1.0000   1.0000
     1.0000   1.0000   1.0000   1.0000   1.0000   1.0000   1.0000   1.0000
     1.0000   1.0000   1.0000   1.0000   1.0000   1.0000   1.0000   1.0000
     1.0000   1.0000   1.0000   1.0000   1.0000   1.0000   1.0000   1.0000
     1.0000   1.0000   1.0000   1.0000   1.0000   1.0000   1.0000   1.0000
     1.0000   1.0000   1.0000   1.0000   1.0000   1.0000   1.0000   1.0000
     1.0000   1.0000   1.0000   1.0000   1.0000   1.0000   1.0000   1.0000
     1.0000   1.0000   1.0000   1.0000   1.0000   1.0000   1.0000   1.0000
     1.0000   1.0000   1.0000   1.0000   1.0000   1.0000   1.0000   1.0000
     1.0000   1.0000   1.0000   1.0000   1.0000   1.0000   1.0000   1.0000
     1.0000   1.0000   1.0000   1.0000   1.0000   1.0000   1.0000   1.0000
     1.0000   1.0000   1.0000   1.0000   1.0000   1.0000   1.0000   1.0000
     1.0000   1.0000   1.0000   1.0000   1.0000   1.0000   1.0000   1.0000
     1.0000   1.0000   1.0000   1.0000   1.0000   1.0000   1.0000   1.0000
     1.0000   1.0000   1.0000   1.0000   1.0000   1.0000   1.0000   1.0000
     1.0000   1.0000   1.0000   1.0000   1.0000   1.0000   1.0000   1.0000
     1.0000   1.0000   1.0000   1.0000   1.0000   1.0000   1.0000   1.0000
     1.0000   1.0000   1.0000   1.0000   1.0000   1.0000   1.0000   1.0000
     1.0000   1.0000   1.0000   1.0000   1.0000   1.0000   1.0000   1.0000
     1.0000   1.0000   1.0000   1.0000   1.0000   1.0000   1.0000   1.0000
     1.0000   1.0000   1.0000   1.0000   1.0000   1.0000   1.0000   1.0000
     1.0000   1.0000   1.0000   1.0000   1.0000   1.0000   1.0000   1.0000
     1.0000   1.0000   1.0000   1.0000   1.0000   1.0000   1.0000   1.0000
     1.0000   1.0000   1.0000   1.0000   1.0000   1.0000   1.0000   1.0000
     1.0000   1.0000   1.0000   1.0000   1.0000   1.0000   1.0000   1.0000
     1.0000   1.0000   1.0000   1.0000   1.0000   1.0000   1.0000   1.0000
     1.0000   1.0000   1.0000   1.0000   1.0000   1.0000   1.0000   1.0000
     1.0000   1.0000   1.0000   1.0000   1.0000   1.0000   1.0000   1.0000
     1.0000   1.0000   1.0000   1.0000   1.0000   1.0000   1.0000   1.0000
     1.0000   1.0000   1.0000   1.0000   1.0000   1.0000   1.0000   1.0000
     1.0000   1.0000   1.0000   1.0000   1.0000   1.0000   1.0000   1.0000
     1.0000   1.0000   1.0000   1.0000   1.0000   1.0000   1.0000   1.0000
     1.0000   1.0000   1.0000   1.0000   1.0000   1.0000   1.0000   1.0000
     1.0000   1.0000   1.0000   1.0000   1.0000   1.0000   1.0000   1.0000
     1.0000   1.0000   1.0000   1.0000   1.0000   1.0000   1.0000   1.0000
     1.0000   1.0000   1.0000   1.0000   1.0000   1.0000   1.0000   1.0000
     1.0000   1.0000   1.0000   1.0000   1.0000   1.0000   1.0000   1.0000
     1.0000   1.0000   1.0000   1.0000   1.0000   1.0000   1.0000   1.0000
     1.0000   1.0000   1.0000   1.0000   1.0000   1.0000   1.0000   1.0000
     1.0000   1.0000   1.0000   1.0000   1.0000   1.0000   1.0000   1.0000
     1.0000   1.0000   1.0000   1.0000   1.0000   1.0000   1.0000   1.0000
     1.0000   1.0000   1.0000   1.0000   1.0000   1.0000   1.0000   1.0000
     1.0000   1.0000   1.0000   1.0000   1.0000   1.0000   1.0000   1.0000
     1.0000   1.0000   1.0000   1.0000   1.0000   1.0000   1.0000   1.0000
     1.0000   1.0000   1.0000   1.0000   1.0000   1.0000   1.0000   1.0000
     1.0000   1.0000   1.0000   1.0000   1.0000   1.0000   1.0000   1.0000
     1.0000   1.0000   1.0000   1.0000   0.9999   0.9999   0.9999   0.9999
     0.9999   0.9998   0.9994   0.9992   0.9987   0.9965   0.9965   0.9961
     0.9918   0.9882   0.9876   0.9691   0.9198   0.9011   0.8868   0.8688
     0.8466   0.8190   0.7455   0.7201   0.6744   0.6217   0.6014   0.5341
     0.5311   0.3525   0.3062   0.3057   0.2093   0.1728   0.1483   0.0408
     0.0300   0.0278   0.0239   0.0215   0.0147   0.0144   0.0052   0.0051
     0.0039   0.0027   0.0022   0.0009   0.0009   0.0007   0.0003   0.0003
     0.0000   0.0000   0.0000   0.0000   0.0000   0.0000   0.0000   0.0000
     0.0000   0.0000   0.0000   0.0000   0.0000   0.0000   0.0000   0.0000
     0.0000   0.0000   0.0000   0.0000   0.0000   0.0000   0.0000   0.0000
     0.0000   0.0000   0.0000   0.0000   0.0000   0.0000   0.0000   0.0000
     0.0000   0.0000   0.0000   0.0000   0.0000   0.0000   0.0000   0.0000
     0.0000   0.0000   0.0000   0.0000   0.0000   0.0000   0.0000   0.0000
     0.0000   0.0000   0.0000   0.0000   0.0000   0.0000   0.0000   0.0000
     0.0000   0.0000   0.0000   0.0000   0.0000   0.0000   0.0000   0.0000
     0.0000   0.0000   0.0000   0.0000   0.0000   0.0000   0.0000   0.0000
     0.0000   0.0000   0.0000   0.0000   0.0000   0.0000   0.0000   0.0000
     0.0000   0.0000   0.0000   0.0000   0.0000   0.0000   0.0000   0.0000
     0.0000   0.0000   0.0000   0.0000   0.0000   0.0000   0.0000   0.0000

          k = 0.2500-0.7217 0.0000 (156796 PWs)   bands (ev):

   -94.3682 -94.3657 -94.3615 -94.3588 -94.3576 -94.3561 -94.3539 -94.3531
   -94.3523 -94.3511 -94.3472 -94.3458 -94.3453 -94.3433 -94.3426 -94.3389
   -94.3379 -94.3369 -94.3364 -94.3360 -94.3353 -94.3346 -94.3330 -94.3321
   -94.3315 -94.3307 -94.3124 -94.3120 -94.3113 -94.3016 -94.2941 -94.2939
   -93.9167 -93.9140 -93.9139 -93.9130 -93.9117 -93.9096 -93.9094 -93.9086
   -93.9066 -93.9054 -93.9041 -93.9027 -93.9025 -93.9010 -93.9002 -93.8993
   -93.8980 -93.8972 -93.8969 -93.8960 -93.8955 -93.8949 -93.8920 -93.8903
   -93.8901 -93.8900 -93.8891 -93.8881 -93.8863 -93.8860 -93.8858 -93.7115
   -48.6621 -48.6511 -48.6497 -48.6440 -48.6409 -48.6354 -48.6316 -48.6300
   -48.6275 -48.6239 -48.6200 -48.6184 -48.6168 -48.6125 -48.6111 -48.6097
   -48.6095 -48.6054 -48.6034 -48.6001 -48.5965 -48.5947 -48.5901 -48.5811
   -48.5737 -48.5704 -48.5640 -48.5600 -48.5353 -48.5313 -48.5221 -48.5137
   -48.5128 -48.5108 -48.5098 -48.5087 -48.5074 -48.5047 -48.5007 -48.4922
   -48.4900 -48.4883 -48.4859 -48.4840 -48.4804 -48.4756 -48.4614 -48.4588
   -48.4576 -48.4542 -48.4507 -48.4482 -48.4474 -48.4433 -48.4420 -48.4379
   -48.4362 -48.4343 -48.4325 -48.4303 -48.4297 -48.4281 -48.4270 -48.4252
   -48.4244 -48.4230 -48.4190 -48.4176 -48.4165 -48.4159 -48.4138 -48.4106
   -48.4079 -48.4076 -48.4060 -48.4043 -48.4024 -48.4002 -48.3960 -48.3954
   -48.3947 -48.3876 -48.3856 -48.3845 -48.3801 -48.3781 -48.3773 -48.3734
   -48.3689 -48.3636 -48.3572 -48.3552 -48.3496 -48.3433 -48.3285 -48.3201
   -48.2690 -48.2651 -48.2581 -48.2569 -48.2535 -48.2523 -48.2517 -48.2510
   -48.2491 -48.2432 -48.2378 -48.2355 -48.2343 -48.2254 -48.2221 -48.2205
   -48.2171 -48.2167 -48.2110 -48.2041 -48.1899 -48.1832 -48.1770 -48.1749
   -48.1557 -48.1551 -48.1514 -48.1441 -48.1264 -48.1259 -48.1203 -48.1113
   -48.0986 -48.0921 -48.0856 -48.0833 -48.0820 -48.0778 -48.0745 -48.0728
   -48.0725 -48.0718 -48.0709 -48.0698 -48.0689 -48.0686 -48.0629 -48.0617
   -48.0607 -48.0594 -48.0528 -48.0513 -48.0492 -48.0482 -48.0332 -48.0306
   -48.0265 -48.0179 -48.0179 -48.0171 -48.0064 -48.0055 -47.9073 -47.9063
   -47.8499 -47.8476 -47.8450 -47.8445 -47.8437 -47.8407 -47.8383 -47.8375
   -47.8359 -47.8332 -47.8325 -47.8301 -47.8295 -47.8274 -47.8265 -47.8251
   -47.8238 -47.8223 -47.8216 -47.8197 -47.8191 -47.8183 -47.8114 -47.8109
   -47.8109 -47.8107 -47.8081 -47.8079 -47.8018 -47.8016 -47.8011 -47.6290
    -7.8952  -4.6467  -4.1705  -4.1494  -3.3567  -2.9386  -2.9267  -2.9083
    -2.8906  -2.4033  -2.3895  -2.2899  -2.2443  -2.2299  -2.2274  -2.1792
    -2.0335  -2.0118  -1.9637  -1.9567  -1.9478  -1.9320  -1.9161  -1.8805
    -1.8677  -1.8222  -1.8057  -1.7957  -1.7571  -1.7332  -1.6859  -1.6681
    -1.5921  -1.5858  -1.5711  -1.5488  -1.5405  -1.5104  -1.5074  -1.4722
    -1.4075  -1.3987  -1.3499  -1.3431  -1.2914  -1.2759  -1.2293  -1.2180
    -1.1472  -1.1451  -1.1247  -1.1196  -1.1130  -1.1113  -1.0876  -1.0856
    -1.0731  -1.0537  -1.0208  -0.9727  -0.9555  -0.9368  -0.9285  -0.8506
    -0.8490  -0.8189  -0.7960  -0.7861  -0.7590  -0.7496  -0.7433  -0.7254
    -0.6402  -0.5835  -0.5825  -0.5670  -0.4764  -0.4716  -0.4649  -0.4585
    -0.4508  -0.4173  -0.3559  -0.3470  -0.3315  -0.3207  -0.3143  -0.2914
    -0.2838  -0.2558  -0.2548  -0.1787  -0.1441  -0.0900  -0.0856  -0.0672
    -0.0504  -0.0330  -0.0182  -0.0054   0.0379   0.1277   0.1387   0.1520
     0.2083   0.2299   0.2304   0.2453   0.2843   0.2920   0.3353   0.3427
     0.3896   0.4019   0.4088   0.4338   0.4462   0.4865   0.5731   0.5759
     0.5866   0.5998   0.6086   0.6165   0.6288   0.6307   0.6368   0.6468
     0.6751   0.6770   0.6838   0.6897   0.6971   0.7210   0.7402   0.7617
     0.7888   0.7910   0.8094   0.8195   0.8675   0.8781   0.8825   0.8894
     0.9061   0.9116   0.9543   0.9777   0.9816   0.9848   0.9966   1.0018
     1.0035   1.0175   1.0186   1.0277   1.0320   1.0583   1.0697   1.0936
     1.0996   1.1166   1.1274   1.1387   1.1685   1.1776   1.2258   1.2349
     1.2414   1.2691   1.2757   1.2913   1.2978   1.3164   1.3296   1.3403
     1.3578   1.3684   1.3847   1.4012   1.4140   1.4229   1.4381   1.4529
     1.4624   1.4694   1.4809   1.4996   1.5079   1.5247   1.5772   1.6679
     1.6776   1.6827   1.7177   1.7883   1.7941   1.8372   1.8503   1.9084
     1.9209   1.9610   1.9636   2.0020   2.0055   2.0194   2.0298   2.0388
     2.0520   2.0592   2.0648   2.0864   2.1327   2.1408   2.1468   2.1516
     2.1594   2.1663   2.1759   2.1965   2.2025   2.2415   2.2555   2.2604
     2.2657   2.2863   2.3120   2.3183   2.3344   2.3521   2.3635   2.3761
     2.3952   2.4244   2.4817   2.4921   2.4979   2.5699   2.5913   2.6098
     2.7077   2.7356   2.7638   2.7790   2.7851   2.8053   2.8224   2.8274
     2.8504   2.8615   2.8639   2.8796   2.9160   2.9278   2.9550   2.9588
     2.9731   2.9943   3.0038   3.0147   3.0245   3.0407   3.0458   3.0608
     3.1042   3.1136   3.1244   3.1352   3.1427   3.1558   3.1648   3.1903
     3.2118   3.2217   3.2410   3.2469   3.2591   3.2773   3.2850   3.2987
     3.3476   3.4175   3.4237   3.4494   3.4632   3.4712   3.4890   3.4979
     3.5116   3.5344   3.5607   3.5704   3.6246   3.6278   3.6298   3.6452
     3.6800   3.6840   3.7045   3.7100   3.7167   3.7821   3.7836   3.7933
     3.8053   3.8254   3.8375   3.8467   3.8582   3.8703   3.8866   3.8959
     3.9108   3.9272   3.9506   3.9668   3.9792   3.9816   3.9928   3.9946
     4.0028   4.0121   4.0259   4.0277   4.0358   4.0443   4.0519   4.0692
     4.0845   4.0871   4.0924   4.1311   4.1631   4.1639   4.2004   4.2273
     4.2682   4.2760   4.2871   4.2900   4.3175   4.3260   4.3316   4.6868
     4.6896   4.7384   4.7596   4.9220   4.9256   4.9590   5.0362   5.0440
     5.1836   5.1852   5.2707   5.2745   5.3491   5.5569   5.6126   6.0765
     6.0872   6.2249   6.2363   6.2963   6.6548   6.7358   6.7701   7.0854
     7.0916   7.2672   7.3013   7.3567   7.4269   7.5482   7.5510   7.7578
     7.7606   7.7648   7.9622   8.1481   8.3243   8.3396   8.3461   8.3516
     8.5296   8.5321   8.9416   8.9486   8.9569   9.1115   9.2139   9.2209
     9.2478   9.3328   9.3712   9.4077   9.5455   9.7473   9.7540   9.8218
     9.8909   9.9010   9.9445  10.0222  10.1682  10.1832  10.2037  10.2779
    10.2983  10.3402  10.3738  10.4213  10.4726  10.4883  10.5112  10.5143
    10.5999  10.7127  10.7563  10.8092  10.8117  10.8252  10.8275  10.8923
    10.9056  10.9799  10.9853  11.0982  11.1085  11.2031  11.3446  11.4678
    11.5667  11.5764  11.6016  11.6057  11.6624  11.6696  11.7210  11.7578

     occupation numbers 
     1.0000   1.0000   1.0000   1.0000   1.0000   1.0000   1.0000   1.0000
     1.0000   1.0000   1.0000   1.0000   1.0000   1.0000   1.0000   1.0000
     1.0000   1.0000   1.0000   1.0000   1.0000   1.0000   1.0000   1.0000
     1.0000   1.0000   1.0000   1.0000   1.0000   1.0000   1.0000   1.0000
     1.0000   1.0000   1.0000   1.0000   1.0000   1.0000   1.0000   1.0000
     1.0000   1.0000   1.0000   1.0000   1.0000   1.0000   1.0000   1.0000
     1.0000   1.0000   1.0000   1.0000   1.0000   1.0000   1.0000   1.0000
     1.0000   1.0000   1.0000   1.0000   1.0000   1.0000   1.0000   1.0000
     1.0000   1.0000   1.0000   1.0000   1.0000   1.0000   1.0000   1.0000
     1.0000   1.0000   1.0000   1.0000   1.0000   1.0000   1.0000   1.0000
     1.0000   1.0000   1.0000   1.0000   1.0000   1.0000   1.0000   1.0000
     1.0000   1.0000   1.0000   1.0000   1.0000   1.0000   1.0000   1.0000
     1.0000   1.0000   1.0000   1.0000   1.0000   1.0000   1.0000   1.0000
     1.0000   1.0000   1.0000   1.0000   1.0000   1.0000   1.0000   1.0000
     1.0000   1.0000   1.0000   1.0000   1.0000   1.0000   1.0000   1.0000
     1.0000   1.0000   1.0000   1.0000   1.0000   1.0000   1.0000   1.0000
     1.0000   1.0000   1.0000   1.0000   1.0000   1.0000   1.0000   1.0000
     1.0000   1.0000   1.0000   1.0000   1.0000   1.0000   1.0000   1.0000
     1.0000   1.0000   1.0000   1.0000   1.0000   1.0000   1.0000   1.0000
     1.0000   1.0000   1.0000   1.0000   1.0000   1.0000   1.0000   1.0000
     1.0000   1.0000   1.0000   1.0000   1.0000   1.0000   1.0000   1.0000
     1.0000   1.0000   1.0000   1.0000   1.0000   1.0000   1.0000   1.0000
     1.0000   1.0000   1.0000   1.0000   1.0000   1.0000   1.0000   1.0000
     1.0000   1.0000   1.0000   1.0000   1.0000   1.0000   1.0000   1.0000
     1.0000   1.0000   1.0000   1.0000   1.0000   1.0000   1.0000   1.0000
     1.0000   1.0000   1.0000   1.0000   1.0000   1.0000   1.0000   1.0000
     1.0000   1.0000   1.0000   1.0000   1.0000   1.0000   1.0000   1.0000
     1.0000   1.0000   1.0000   1.0000   1.0000   1.0000   1.0000   1.0000
     1.0000   1.0000   1.0000   1.0000   1.0000   1.0000   1.0000   1.0000
     1.0000   1.0000   1.0000   1.0000   1.0000   1.0000   1.0000   1.0000
     1.0000   1.0000   1.0000   1.0000   1.0000   1.0000   1.0000   1.0000
     1.0000   1.0000   1.0000   1.0000   1.0000   1.0000   1.0000   1.0000
     1.0000   1.0000   1.0000   1.0000   1.0000   1.0000   1.0000   1.0000
     1.0000   1.0000   1.0000   1.0000   1.0000   1.0000   1.0000   1.0000
     1.0000   1.0000   1.0000   1.0000   1.0000   1.0000   1.0000   1.0000
     1.0000   1.0000   1.0000   1.0000   1.0000   1.0000   1.0000   1.0000
     1.0000   1.0000   1.0000   1.0000   1.0000   1.0000   1.0000   1.0000
     1.0000   1.0000   1.0000   1.0000   1.0000   1.0000   1.0000   1.0000
     1.0000   1.0000   1.0000   1.0000   1.0000   1.0000   1.0000   1.0000
     1.0000   1.0000   1.0000   1.0000   1.0000   1.0000   1.0000   1.0000
     1.0000   1.0000   1.0000   1.0000   1.0000   1.0000   1.0000   1.0000
     1.0000   1.0000   1.0000   1.0000   1.0000   1.0000   1.0000   1.0000
     1.0000   1.0000   1.0000   1.0000   1.0000   1.0000   1.0000   1.0000
     1.0000   1.0000   1.0000   1.0000   1.0000   1.0000   1.0000   1.0000
     1.0000   1.0000   1.0000   1.0000   1.0000   1.0000   1.0000   1.0000
     1.0000   1.0000   1.0000   1.0000   1.0000   1.0000   1.0000   1.0000
     1.0000   1.0000   1.0000   1.0000   1.0000   1.0000   1.0000   1.0000
     1.0000   1.0000   1.0000   1.0000   1.0000   1.0000   1.0000   1.0000
     1.0000   1.0000   1.0000   1.0000   1.0000   1.0000   1.0000   1.0000
     1.0000   1.0000   1.0000   1.0000   1.0000   1.0000   1.0000   1.0000
     1.0000   1.0000   1.0000   1.0000   1.0000   1.0000   1.0000   1.0000
     1.0000   1.0000   1.0000   1.0000   1.0000   1.0000   1.0000   1.0000
     1.0000   1.0000   1.0000   1.0000   1.0000   1.0000   1.0000   1.0000
     1.0000   1.0000   1.0000   1.0000   1.0000   1.0000   1.0000   1.0000
     1.0000   1.0000   1.0000   1.0000   1.0000   1.0000   1.0000   1.0000
     1.0000   1.0000   1.0000   1.0000   1.0000   1.0000   1.0000   1.0000
     1.0000   1.0000   1.0000   1.0000   1.0000   1.0000   1.0000   1.0000
     1.0000   1.0000   1.0000   1.0000   1.0000   1.0000   1.0000   1.0000
     1.0000   1.0000   1.0000   1.0000   1.0000   1.0000   1.0000   1.0000
     1.0000   1.0000   1.0000   1.0000   1.0000   1.0000   1.0000   1.0000
     1.0000   1.0000   1.0000   1.0000   1.0000   1.0000   1.0000   1.0000
     1.0000   1.0000   1.0000   1.0000   1.0000   1.0000   1.0000   1.0000
     1.0000   1.0000   1.0000   1.0000   1.0000   1.0000   1.0000   1.0000
     1.0000   1.0000   1.0000   1.0000   1.0000   1.0000   1.0000   1.0000
     1.0000   1.0000   1.0000   1.0000   1.0000   1.0000   1.0000   1.0000
     1.0000   1.0000   1.0000   1.0000   1.0000   1.0000   1.0000   1.0000
     1.0000   1.0000   1.0000   1.0000   1.0000   1.0000   1.0000   1.0000
     1.0000   1.0000   1.0000   1.0000   1.0000   1.0000   1.0000   1.0000
     1.0000   1.0000   1.0000   1.0000   0.9999   0.9999   0.9999   0.9999
     0.9997   0.9997   0.9995   0.9995   0.9994   0.9978   0.9977   0.9972
     0.9964   0.9947   0.9932   0.9919   0.9898   0.9870   0.9821   0.9785
     0.9713   0.9605   0.9385   0.9169   0.8960   0.8914   0.8677   0.8635
     0.8430   0.8168   0.7718   0.7655   0.7351   0.7008   0.6682   0.5876
     0.5116   0.4991   0.4726   0.2924   0.1788   0.1765   0.0936   0.0569
     0.0259   0.0222   0.0179   0.0169   0.0098   0.0083   0.0074   0.0000
     0.0000   0.0000   0.0000   0.0000   0.0000   0.0000   0.0000   0.0000
     0.0000   0.0000   0.0000   0.0000   0.0000   0.0000   0.0000   0.0000
     0.0000   0.0000   0.0000   0.0000   0.0000   0.0000   0.0000   0.0000
     0.0000   0.0000   0.0000   0.0000   0.0000   0.0000   0.0000   0.0000
     0.0000   0.0000   0.0000   0.0000   0.0000   0.0000   0.0000   0.0000
     0.0000   0.0000   0.0000   0.0000   0.0000   0.0000   0.0000   0.0000
     0.0000   0.0000   0.0000   0.0000   0.0000   0.0000   0.0000   0.0000
     0.0000   0.0000   0.0000   0.0000   0.0000   0.0000   0.0000   0.0000
     0.0000   0.0000   0.0000   0.0000   0.0000   0.0000   0.0000   0.0000
     0.0000   0.0000   0.0000   0.0000   0.0000   0.0000   0.0000   0.0000
     0.0000   0.0000   0.0000   0.0000   0.0000   0.0000   0.0000   0.0000
     0.0000   0.0000   0.0000   0.0000   0.0000   0.0000   0.0000   0.0000

          k = 0.2500-0.4330 0.0000 (156796 PWs)   bands (ev):

   -94.3681 -94.3658 -94.3614 -94.3588 -94.3576 -94.3561 -94.3539 -94.3532
   -94.3522 -94.3511 -94.3472 -94.3457 -94.3454 -94.3433 -94.3426 -94.3388
   -94.3376 -94.3370 -94.3367 -94.3359 -94.3356 -94.3345 -94.3327 -94.3324
   -94.3315 -94.3307 -94.3124 -94.3120 -94.3113 -94.3016 -94.2941 -94.2939
   -93.9167 -93.9141 -93.9140 -93.9127 -93.9117 -93.9096 -93.9096 -93.9083
   -93.9066 -93.9055 -93.9041 -93.9027 -93.9026 -93.9010 -93.9002 -93.8993
   -93.8980 -93.8973 -93.8968 -93.8960 -93.8955 -93.8949 -93.8918 -93.8905
   -93.8901 -93.8900 -93.8890 -93.8881 -93.8863 -93.8860 -93.8858 -93.7115
   -48.6612 -48.6510 -48.6505 -48.6441 -48.6415 -48.6356 -48.6313 -48.6295
   -48.6272 -48.6235 -48.6197 -48.6184 -48.6168 -48.6128 -48.6115 -48.6101
   -48.6094 -48.6054 -48.6036 -48.6002 -48.5966 -48.5950 -48.5905 -48.5810
   -48.5739 -48.5706 -48.5634 -48.5602 -48.5347 -48.5308 -48.5221 -48.5136
   -48.5130 -48.5108 -48.5102 -48.5086 -48.5072 -48.5048 -48.5005 -48.4923
   -48.4899 -48.4883 -48.4856 -48.4841 -48.4803 -48.4759 -48.4618 -48.4589
   -48.4575 -48.4543 -48.4505 -48.4478 -48.4470 -48.4430 -48.4420 -48.4377
   -48.4362 -48.4344 -48.4327 -48.4303 -48.4297 -48.4281 -48.4269 -48.4255
   -48.4246 -48.4232 -48.4190 -48.4175 -48.4167 -48.4161 -48.4136 -48.4109
   -48.4079 -48.4076 -48.4060 -48.4044 -48.4024 -48.4004 -48.3955 -48.3953
   -48.3946 -48.3873 -48.3856 -48.3846 -48.3804 -48.3780 -48.3775 -48.3738
   -48.3690 -48.3637 -48.3570 -48.3551 -48.3494 -48.3431 -48.3290 -48.3197
   -48.2689 -48.2648 -48.2582 -48.2570 -48.2535 -48.2523 -48.2518 -48.2511
   -48.2492 -48.2434 -48.2376 -48.2354 -48.2342 -48.2255 -48.2222 -48.2206
   -48.2173 -48.2168 -48.2108 -48.2045 -48.1901 -48.1831 -48.1767 -48.1751
   -48.1555 -48.1550 -48.1512 -48.1439 -48.1263 -48.1258 -48.1202 -48.1111
   -48.0988 -48.0923 -48.0857 -48.0835 -48.0822 -48.0780 -48.0743 -48.0736
   -48.0725 -48.0717 -48.0701 -48.0696 -48.0689 -48.0683 -48.0628 -48.0616
   -48.0606 -48.0595 -48.0527 -48.0513 -48.0494 -48.0485 -48.0335 -48.0308
   -48.0266 -48.0179 -48.0178 -48.0171 -48.0063 -48.0052 -47.9075 -47.9060
   -47.8500 -47.8475 -47.8451 -47.8449 -47.8433 -47.8406 -47.8388 -47.8371
   -47.8359 -47.8333 -47.8324 -47.8300 -47.8296 -47.8275 -47.8265 -47.8251
   -47.8237 -47.8224 -47.8216 -47.8197 -47.8192 -47.8183 -47.8114 -47.8109
   -47.8109 -47.8107 -47.8081 -47.8079 -47.8018 -47.8016 -47.8011 -47.6290
    -7.8952  -4.6467  -4.1706  -4.1493  -3.3567  -2.9390  -2.9270  -2.9083
    -2.8906  -2.4027  -2.3888  -2.2896  -2.2442  -2.2291  -2.2270  -2.1789
    -2.0347  -2.0127  -1.9638  -1.9572  -1.9485  -1.9318  -1.9159  -1.8808
    -1.8679  -1.8217  -1.8057  -1.7958  -1.7570  -1.7330  -1.6851  -1.6671
    -1.5919  -1.5856  -1.5716  -1.5492  -1.5410  -1.5106  -1.5075  -1.4721
    -1.4077  -1.3987  -1.3499  -1.3431  -1.2915  -1.2757  -1.2293  -1.2181
    -1.1469  -1.1448  -1.1244  -1.1200  -1.1127  -1.1114  -1.0885  -1.0866
    -1.0734  -1.0544  -1.0219  -0.9730  -0.9548  -0.9367  -0.9280  -0.8515
    -0.8503  -0.8170  -0.7956  -0.7864  -0.7596  -0.7495  -0.7431  -0.7254
    -0.6396  -0.5836  -0.5825  -0.5680  -0.4759  -0.4710  -0.4645  -0.4585
    -0.4502  -0.4167  -0.3562  -0.3470  -0.3315  -0.3207  -0.3140  -0.2912
    -0.2838  -0.2556  -0.2546  -0.1782  -0.1450  -0.0895  -0.0851  -0.0673
    -0.0506  -0.0328  -0.0191  -0.0063   0.0381   0.1274   0.1398   0.1531
     0.2082   0.2296   0.2300   0.2453   0.2836   0.2920   0.3366   0.3437
     0.3887   0.4005   0.4077   0.4344   0.4469   0.4865   0.5717   0.5759
     0.5866   0.5994   0.6085   0.6162   0.6287   0.6306   0.6363   0.6468
     0.6731   0.6767   0.6813   0.6893   0.6961   0.7213   0.7409   0.7624
     0.7887   0.7910   0.8107   0.8208   0.8705   0.8782   0.8841   0.8899
     0.9070   0.9127   0.9539   0.9767   0.9834   0.9855   0.9961   1.0026
     1.0040   1.0174   1.0187   1.0276   1.0328   1.0596   1.0701   1.0936
     1.1001   1.1162   1.1275   1.1382   1.1701   1.1792   1.2248   1.2342
     1.2416   1.2677   1.2738   1.2912   1.2957   1.3153   1.3291   1.3402
     1.3580   1.3688   1.3848   1.4008   1.4146   1.4235   1.4389   1.4530
     1.4636   1.4699   1.4803   1.4993   1.5080   1.5244   1.5770   1.6679
     1.6773   1.6817   1.7173   1.7883   1.7942   1.8372   1.8502   1.9080
     1.9206   1.9613   1.9635   2.0017   2.0057   2.0210   2.0290   2.0378
     2.0512   2.0597   2.0643   2.0865   2.1326   2.1410   2.1465   2.1513
     2.1597   2.1673   2.1762   2.1963   2.2018   2.2430   2.2557   2.2605
     2.2655   2.2860   2.3122   2.3181   2.3334   2.3507   2.3640   2.3757
     2.3953   2.4238   2.4819   2.4928   2.4994   2.5696   2.5921   2.6102
     2.7078   2.7357   2.7634   2.7783   2.7847   2.8048   2.8220   2.8273
     2.8499   2.8612   2.8635   2.8795   2.9154   2.9280   2.9544   2.9581
     2.9733   2.9943   3.0041   3.0147   3.0248   3.0408   3.0457   3.0612
     3.1049   3.1144   3.1247   3.1353   3.1429   3.1558   3.1653   3.1904
     3.2127   3.2216   3.2403   3.2468   3.2587   3.2780   3.2847   3.2986
     3.3482   3.4170   3.4233   3.4490   3.4638   3.4718   3.4894   3.4978
     3.5113   3.5338   3.5611   3.5703   3.6246   3.6274   3.6296   3.6452
     3.6801   3.6842   3.7043   3.7101   3.7168   3.7824   3.7835   3.7933
     3.8061   3.8252   3.8381   3.8466   3.8578   3.8698   3.8863   3.8966
     3.9115   3.9285   3.9516   3.9664   3.9779   3.9813   3.9918   3.9942
     4.0024   4.0108   4.0257   4.0267   4.0354   4.0441   4.0516   4.0682
     4.0840   4.0863   4.0921   4.1300   4.1619   4.1627   4.2005   4.2268
     4.2688   4.2766   4.2880   4.2905   4.3194   4.3277   4.3321   4.6867
     4.6895   4.7372   4.7589   4.9220   4.9258   4.9599   5.0361   5.0437
     5.1841   5.1856   5.2722   5.2758   5.3508   5.5567   5.6124   6.0758
     6.0868   6.2248   6.2362   6.2972   6.6535   6.7346   6.7688   7.0853
     7.0916   7.2675   7.3011   7.3578   7.4285   7.5506   7.5514   7.7577
     7.7606   7.7663   7.9666   8.1482   8.3235   8.3395   8.3451   8.3511
     8.5293   8.5313   8.9409   8.9474   8.9562   9.1122   9.2146   9.2195
     9.2464   9.3292   9.3712   9.4083   9.5448   9.7473   9.7539   9.8186
     9.8915   9.9019   9.9446  10.0219  10.1693  10.1844  10.2050  10.2794
    10.2998  10.3408  10.3739  10.4221  10.4709  10.4891  10.5110  10.5141
    10.6008  10.7124  10.7560  10.8072  10.8085  10.8234  10.8260  10.8923
    10.9056  10.9810  10.9858  11.1017  11.1106  11.2032  11.3459  11.4668
    11.5671  11.5766  11.6012  11.6049  11.6623  11.6696  11.7193  11.7597

     occupation numbers 
     1.0000   1.0000   1.0000   1.0000   1.0000   1.0000   1.0000   1.0000
     1.0000   1.0000   1.0000   1.0000   1.0000   1.0000   1.0000   1.0000
     1.0000   1.0000   1.0000   1.0000   1.0000   1.0000   1.0000   1.0000
     1.0000   1.0000   1.0000   1.0000   1.0000   1.0000   1.0000   1.0000
     1.0000   1.0000   1.0000   1.0000   1.0000   1.0000   1.0000   1.0000
     1.0000   1.0000   1.0000   1.0000   1.0000   1.0000   1.0000   1.0000
     1.0000   1.0000   1.0000   1.0000   1.0000   1.0000   1.0000   1.0000
     1.0000   1.0000   1.0000   1.0000   1.0000   1.0000   1.0000   1.0000
     1.0000   1.0000   1.0000   1.0000   1.0000   1.0000   1.0000   1.0000
     1.0000   1.0000   1.0000   1.0000   1.0000   1.0000   1.0000   1.0000
     1.0000   1.0000   1.0000   1.0000   1.0000   1.0000   1.0000   1.0000
     1.0000   1.0000   1.0000   1.0000   1.0000   1.0000   1.0000   1.0000
     1.0000   1.0000   1.0000   1.0000   1.0000   1.0000   1.0000   1.0000
     1.0000   1.0000   1.0000   1.0000   1.0000   1.0000   1.0000   1.0000
     1.0000   1.0000   1.0000   1.0000   1.0000   1.0000   1.0000   1.0000
     1.0000   1.0000   1.0000   1.0000   1.0000   1.0000   1.0000   1.0000
     1.0000   1.0000   1.0000   1.0000   1.0000   1.0000   1.0000   1.0000
     1.0000   1.0000   1.0000   1.0000   1.0000   1.0000   1.0000   1.0000
     1.0000   1.0000   1.0000   1.0000   1.0000   1.0000   1.0000   1.0000
     1.0000   1.0000   1.0000   1.0000   1.0000   1.0000   1.0000   1.0000
     1.0000   1.0000   1.0000   1.0000   1.0000   1.0000   1.0000   1.0000
     1.0000   1.0000   1.0000   1.0000   1.0000   1.0000   1.0000   1.0000
     1.0000   1.0000   1.0000   1.0000   1.0000   1.0000   1.0000   1.0000
     1.0000   1.0000   1.0000   1.0000   1.0000   1.0000   1.0000   1.0000
     1.0000   1.0000   1.0000   1.0000   1.0000   1.0000   1.0000   1.0000
     1.0000   1.0000   1.0000   1.0000   1.0000   1.0000   1.0000   1.0000
     1.0000   1.0000   1.0000   1.0000   1.0000   1.0000   1.0000   1.0000
     1.0000   1.0000   1.0000   1.0000   1.0000   1.0000   1.0000   1.0000
     1.0000   1.0000   1.0000   1.0000   1.0000   1.0000   1.0000   1.0000
     1.0000   1.0000   1.0000   1.0000   1.0000   1.0000   1.0000   1.0000
     1.0000   1.0000   1.0000   1.0000   1.0000   1.0000   1.0000   1.0000
     1.0000   1.0000   1.0000   1.0000   1.0000   1.0000   1.0000   1.0000
     1.0000   1.0000   1.0000   1.0000   1.0000   1.0000   1.0000   1.0000
     1.0000   1.0000   1.0000   1.0000   1.0000   1.0000   1.0000   1.0000
     1.0000   1.0000   1.0000   1.0000   1.0000   1.0000   1.0000   1.0000
     1.0000   1.0000   1.0000   1.0000   1.0000   1.0000   1.0000   1.0000
     1.0000   1.0000   1.0000   1.0000   1.0000   1.0000   1.0000   1.0000
     1.0000   1.0000   1.0000   1.0000   1.0000   1.0000   1.0000   1.0000
     1.0000   1.0000   1.0000   1.0000   1.0000   1.0000   1.0000   1.0000
     1.0000   1.0000   1.0000   1.0000   1.0000   1.0000   1.0000   1.0000
     1.0000   1.0000   1.0000   1.0000   1.0000   1.0000   1.0000   1.0000
     1.0000   1.0000   1.0000   1.0000   1.0000   1.0000   1.0000   1.0000
     1.0000   1.0000   1.0000   1.0000   1.0000   1.0000   1.0000   1.0000
     1.0000   1.0000   1.0000   1.0000   1.0000   1.0000   1.0000   1.0000
     1.0000   1.0000   1.0000   1.0000   1.0000   1.0000   1.0000   1.0000
     1.0000   1.0000   1.0000   1.0000   1.0000   1.0000   1.0000   1.0000
     1.0000   1.0000   1.0000   1.0000   1.0000   1.0000   1.0000   1.0000
     1.0000   1.0000   1.0000   1.0000   1.0000   1.0000   1.0000   1.0000
     1.0000   1.0000   1.0000   1.0000   1.0000   1.0000   1.0000   1.0000
     1.0000   1.0000   1.0000   1.0000   1.0000   1.0000   1.0000   1.0000
     1.0000   1.0000   1.0000   1.0000   1.0000   1.0000   1.0000   1.0000
     1.0000   1.0000   1.0000   1.0000   1.0000   1.0000   1.0000   1.0000
     1.0000   1.0000   1.0000   1.0000   1.0000   1.0000   1.0000   1.0000
     1.0000   1.0000   1.0000   1.0000   1.0000   1.0000   1.0000   1.0000
     1.0000   1.0000   1.0000   1.0000   1.0000   1.0000   1.0000   1.0000
     1.0000   1.0000   1.0000   1.0000   1.0000   1.0000   1.0000   1.0000
     1.0000   1.0000   1.0000   1.0000   1.0000   1.0000   1.0000   1.0000
     1.0000   1.0000   1.0000   1.0000   1.0000   1.0000   1.0000   1.0000
     1.0000   1.0000   1.0000   1.0000   1.0000   1.0000   1.0000   1.0000
     1.0000   1.0000   1.0000   1.0000   1.0000   1.0000   1.0000   1.0000
     1.0000   1.0000   1.0000   1.0000   1.0000   1.0000   1.0000   1.0000
     1.0000   1.0000   1.0000   1.0000   1.0000   1.0000   1.0000   1.0000
     1.0000   1.0000   1.0000   1.0000   1.0000   1.0000   1.0000   1.0000
     1.0000   1.0000   1.0000   1.0000   1.0000   1.0000   1.0000   1.0000
     1.0000   1.0000   1.0000   1.0000   1.0000   1.0000   1.0000   1.0000
     1.0000   1.0000   1.0000   1.0000   1.0000   1.0000   1.0000   1.0000
     1.0000   1.0000   1.0000   1.0000   1.0000   1.0000   1.0000   1.0000
     1.0000   1.0000   1.0000   1.0000   1.0000   1.0000   1.0000   1.0000
     1.0000   1.0000   1.0000   1.0000   0.9999   0.9999   0.9999   0.9999
     0.9997   0.9997   0.9995   0.9995   0.9994   0.9977   0.9977   0.9972
     0.9964   0.9947   0.9931   0.9919   0.9899   0.9871   0.9822   0.9782
     0.9709   0.9595   0.9374   0.9175   0.8983   0.8920   0.8702   0.8644
     0.8441   0.8207   0.7727   0.7693   0.7368   0.7017   0.6694   0.5925
     0.5145   0.5028   0.4739   0.2968   0.1824   0.1799   0.0934   0.0574
     0.0256   0.0220   0.0176   0.0168   0.0095   0.0080   0.0074   0.0000
     0.0000   0.0000   0.0000   0.0000   0.0000   0.0000   0.0000   0.0000
     0.0000   0.0000   0.0000   0.0000   0.0000   0.0000   0.0000   0.0000
     0.0000   0.0000   0.0000   0.0000   0.0000   0.0000   0.0000   0.0000
     0.0000   0.0000   0.0000   0.0000   0.0000   0.0000   0.0000   0.0000
     0.0000   0.0000   0.0000   0.0000   0.0000   0.0000   0.0000   0.0000
     0.0000   0.0000   0.0000   0.0000   0.0000   0.0000   0.0000   0.0000
     0.0000   0.0000   0.0000   0.0000   0.0000   0.0000   0.0000   0.0000
     0.0000   0.0000   0.0000   0.0000   0.0000   0.0000   0.0000   0.0000
     0.0000   0.0000   0.0000   0.0000   0.0000   0.0000   0.0000   0.0000
     0.0000   0.0000   0.0000   0.0000   0.0000   0.0000   0.0000   0.0000
     0.0000   0.0000   0.0000   0.0000   0.0000   0.0000   0.0000   0.0000
     0.0000   0.0000   0.0000   0.0000   0.0000   0.0000   0.0000   0.0000

          k =-0.5000 0.2887 0.0000 (156724 PWs)   bands (ev):

   -94.3681 -94.3658 -94.3612 -94.3592 -94.3575 -94.3559 -94.3540 -94.3532
   -94.3522 -94.3511 -94.3472 -94.3461 -94.3448 -94.3437 -94.3424 -94.3388
   -94.3380 -94.3367 -94.3364 -94.3359 -94.3358 -94.3345 -94.3329 -94.3322
   -94.3315 -94.3307 -94.3124 -94.3120 -94.3113 -94.3016 -94.2941 -94.2939
   -93.9166 -93.9143 -93.9139 -93.9125 -93.9121 -93.9098 -93.9084 -93.9082
   -93.9079 -93.9055 -93.9035 -93.9027 -93.9024 -93.9013 -93.9003 -93.8993
   -93.8978 -93.8973 -93.8969 -93.8960 -93.8955 -93.8949 -93.8919 -93.8903
   -93.8901 -93.8900 -93.8892 -93.8880 -93.8864 -93.8859 -93.8858 -93.7115
   -48.6567 -48.6548 -48.6506 -48.6465 -48.6382 -48.6341 -48.6332 -48.6318
   -48.6284 -48.6251 -48.6207 -48.6194 -48.6188 -48.6182 -48.6144 -48.6073
   -48.6046 -48.6033 -48.5993 -48.5971 -48.5961 -48.5861 -48.5819 -48.5798
   -48.5774 -48.5759 -48.5697 -48.5616 -48.5450 -48.5413 -48.5134 -48.5124
   -48.5115 -48.5106 -48.5089 -48.5057 -48.5018 -48.5003 -48.4998 -48.4962
   -48.4927 -48.4890 -48.4881 -48.4830 -48.4742 -48.4734 -48.4687 -48.4646
   -48.4556 -48.4549 -48.4483 -48.4472 -48.4419 -48.4416 -48.4388 -48.4370
   -48.4352 -48.4346 -48.4328 -48.4315 -48.4307 -48.4294 -48.4285 -48.4260
   -48.4259 -48.4225 -48.4206 -48.4195 -48.4187 -48.4161 -48.4157 -48.4144
   -48.4139 -48.4105 -48.4098 -48.4022 -48.3992 -48.3957 -48.3938 -48.3914
   -48.3905 -48.3868 -48.3867 -48.3841 -48.3819 -48.3771 -48.3751 -48.3712
   -48.3676 -48.3660 -48.3580 -48.3571 -48.3533 -48.3391 -48.3316 -48.3187
   -48.2621 -48.2620 -48.2614 -48.2608 -48.2584 -48.2564 -48.2552 -48.2449
   -48.2447 -48.2420 -48.2400 -48.2353 -48.2338 -48.2335 -48.2331 -48.2181
   -48.2025 -48.2006 -48.2001 -48.1990 -48.1987 -48.1968 -48.1851 -48.1757
   -48.1607 -48.1606 -48.1586 -48.1456 -48.1100 -48.1098 -48.1085 -48.1001
   -48.0960 -48.0957 -48.0948 -48.0931 -48.0912 -48.0900 -48.0840 -48.0820
   -48.0716 -48.0694 -48.0690 -48.0686 -48.0680 -48.0671 -48.0622 -48.0621
   -48.0597 -48.0568 -48.0559 -48.0425 -48.0409 -48.0361 -48.0324 -48.0313
   -48.0310 -48.0283 -48.0258 -48.0102 -48.0074 -48.0031 -47.9079 -47.9057
   -47.8498 -47.8477 -47.8457 -47.8445 -47.8433 -47.8392 -47.8387 -47.8381
   -47.8369 -47.8333 -47.8314 -47.8298 -47.8294 -47.8283 -47.8265 -47.8253
   -47.8233 -47.8225 -47.8216 -47.8197 -47.8192 -47.8183 -47.8114 -47.8109
   -47.8109 -47.8107 -47.8083 -47.8078 -47.8019 -47.8015 -47.8011 -47.6290
    -7.8952  -4.5324  -4.5116  -3.6054  -3.5955  -3.2463  -3.2302  -2.4179
    -2.4048  -2.3895  -2.3713  -2.3423  -2.3283  -2.3266  -2.3204  -2.1362
    -2.1220  -2.0765  -2.0555  -2.0040  -1.9900  -1.9683  -1.9593  -1.9434
    -1.9417  -1.7927  -1.7833  -1.7703  -1.7684  -1.6837  -1.6770  -1.6636
    -1.6520  -1.5089  -1.4980  -1.4356  -1.4280  -1.4169  -1.4137  -1.4013
    -1.3773  -1.3281  -1.3265  -1.3164  -1.2984  -1.2885  -1.2804  -1.2088
    -1.2043  -1.1702  -1.1692  -1.1557  -1.1516  -1.1445  -1.1203  -1.1048
    -1.1024  -1.0783  -1.0735  -0.9711  -0.9647  -0.9630  -0.9473  -0.9245
    -0.9208  -0.8963  -0.8759  -0.7959  -0.7859  -0.7850  -0.7711  -0.5568
    -0.5548  -0.5399  -0.5389  -0.5254  -0.5170  -0.4847  -0.4761  -0.4509
    -0.4402  -0.4272  -0.4184  -0.4169  -0.3945  -0.2338  -0.2310  -0.2224
    -0.2183  -0.1934  -0.1829  -0.1573  -0.1560  -0.1204  -0.0919  -0.0802
    -0.0576  -0.0186   0.0103   0.0967   0.1005   0.1095   0.1244   0.1417
     0.1522   0.1541   0.1711   0.1756   0.1885   0.3285   0.3436   0.3499
     0.3533   0.3550   0.3694   0.4182   0.4186   0.4396   0.4490   0.5044
     0.5126   0.5367   0.5629   0.6341   0.6409   0.6519   0.6674   0.7078
     0.7120   0.7236   0.7497   0.7561   0.7624   0.8011   0.8067   0.8302
     0.8319   0.8414   0.8514   0.9254   0.9323   0.9495   0.9511   0.9534
     0.9562   0.9610   0.9760   0.9840   0.9914   0.9951   1.0159   1.0489
     1.0533   1.0621   1.0655   1.0749   1.0783   1.0836   1.0993   1.1020
     1.1269   1.1374   1.1444   1.1447   1.1475   1.1515   1.1595   1.1732
     1.1891   1.1920   1.2040   1.2093   1.2281   1.2660   1.2896   1.2975
     1.3043   1.3083   1.3206   1.3303   1.3616   1.3852   1.4040   1.4087
     1.4248   1.4273   1.4704   1.5166   1.5374   1.5923   1.6046   1.6135
     1.6337   1.6577   1.6907   1.7156   1.7235   1.7340   1.7406   1.7436
     1.7627   1.8083   1.8372   1.9888   1.9911   2.0288   2.0314   2.0672
     2.0716   2.0754   2.0866   2.1245   2.1291   2.1363   2.1395   2.1467
     2.1662   2.1737   2.1832   2.1986   2.2256   2.3191   2.3411   2.3808
     2.3992   2.4065   2.4093   2.4279   2.4333   2.4465   2.4508   2.4924
     2.5128   2.5141   2.5368   2.5413   2.5647   2.5963   2.5977   2.6421
     2.6472   2.6587   2.6749   2.7072   2.7383   2.7450   2.7507   2.7805
     2.8245   2.8272   2.8359   2.8452   2.8720   2.8776   2.8814   2.9305
     2.9624   2.9696   2.9895   2.9929   3.0023   3.0027   3.0080   3.0088
     3.0299   3.0673   3.0797   3.0938   3.1002   3.1104   3.1120   3.1841
     3.2594   3.2733   3.3319   3.3397   3.4599   3.4654   3.4698   3.4718
     3.4771   3.4822   3.5085   3.5127   3.5146   3.5242   3.5246   3.5346
     3.6094   3.6146   3.6268   3.6317   3.6333   3.6373   3.6443   3.6485
     3.6613   3.6771   3.6773   3.6838   3.6890   3.6952   3.7071   3.7498
     3.7873   3.7978   3.8492   3.8519   3.8580   3.8581   3.8708   3.8768
     3.8891   3.9032   3.9051   3.9622   3.9687   3.9771   3.9895   4.0053
     4.0073   4.0164   4.0184   4.0360   4.0632   4.0895   4.0942   4.1040
     4.1146   4.1174   4.1214   4.1222   4.1335   4.1402   4.1454   4.1504
     4.1974   4.2015   4.2087   4.2182   4.2485   4.2560   4.3611   4.3641
     4.3892   4.3933   4.3945   4.4037   5.0898   5.1611   5.3072   5.3124
     5.3285   5.3338   5.3921   5.4091   5.8528   5.8572   5.8608   5.8640
     6.1132   6.1662   6.3409   6.3529   6.3533   6.3640   6.5487   6.6059
     7.3266   7.3334   7.3439   7.3507   7.4293   7.4440   7.4630   7.4789
     7.7941   7.8119   8.1772   8.1950   8.2108   8.2418   8.3005   8.3177
     8.9630   8.9735   8.9883   8.9907   9.0039   9.2070   9.2193   9.2774
     9.2819   9.2875   9.4651   9.4723   9.7674   9.7871   9.7920   9.7956
     9.8942   9.9223  10.0174  10.0471  10.0571  10.0804  10.1659  10.2095
    10.2191  10.2348  10.2391  10.2686  10.3843  10.4106  10.4153  10.4178
    10.4303  10.4371  10.5559  10.5729  10.7828  10.7906  10.8562  10.8703
    11.0739  11.1566  11.1693  11.2458  11.3773  11.3811  11.4075  11.4281
    11.4344  11.4425  11.4454  11.4642  11.5333  11.5974  11.6639  11.7239

     occupation numbers 
     1.0000   1.0000   1.0000   1.0000   1.0000   1.0000   1.0000   1.0000
     1.0000   1.0000   1.0000   1.0000   1.0000   1.0000   1.0000   1.0000
     1.0000   1.0000   1.0000   1.0000   1.0000   1.0000   1.0000   1.0000
     1.0000   1.0000   1.0000   1.0000   1.0000   1.0000   1.0000   1.0000
     1.0000   1.0000   1.0000   1.0000   1.0000   1.0000   1.0000   1.0000
     1.0000   1.0000   1.0000   1.0000   1.0000   1.0000   1.0000   1.0000
     1.0000   1.0000   1.0000   1.0000   1.0000   1.0000   1.0000   1.0000
     1.0000   1.0000   1.0000   1.0000   1.0000   1.0000   1.0000   1.0000
     1.0000   1.0000   1.0000   1.0000   1.0000   1.0000   1.0000   1.0000
     1.0000   1.0000   1.0000   1.0000   1.0000   1.0000   1.0000   1.0000
     1.0000   1.0000   1.0000   1.0000   1.0000   1.0000   1.0000   1.0000
     1.0000   1.0000   1.0000   1.0000   1.0000   1.0000   1.0000   1.0000
     1.0000   1.0000   1.0000   1.0000   1.0000   1.0000   1.0000   1.0000
     1.0000   1.0000   1.0000   1.0000   1.0000   1.0000   1.0000   1.0000
     1.0000   1.0000   1.0000   1.0000   1.0000   1.0000   1.0000   1.0000
     1.0000   1.0000   1.0000   1.0000   1.0000   1.0000   1.0000   1.0000
     1.0000   1.0000   1.0000   1.0000   1.0000   1.0000   1.0000   1.0000
     1.0000   1.0000   1.0000   1.0000   1.0000   1.0000   1.0000   1.0000
     1.0000   1.0000   1.0000   1.0000   1.0000   1.0000   1.0000   1.0000
     1.0000   1.0000   1.0000   1.0000   1.0000   1.0000   1.0000   1.0000
     1.0000   1.0000   1.0000   1.0000   1.0000   1.0000   1.0000   1.0000
     1.0000   1.0000   1.0000   1.0000   1.0000   1.0000   1.0000   1.0000
     1.0000   1.0000   1.0000   1.0000   1.0000   1.0000   1.0000   1.0000
     1.0000   1.0000   1.0000   1.0000   1.0000   1.0000   1.0000   1.0000
     1.0000   1.0000   1.0000   1.0000   1.0000   1.0000   1.0000   1.0000
     1.0000   1.0000   1.0000   1.0000   1.0000   1.0000   1.0000   1.0000
     1.0000   1.0000   1.0000   1.0000   1.0000   1.0000   1.0000   1.0000
     1.0000   1.0000   1.0000   1.0000   1.0000   1.0000   1.0000   1.0000
     1.0000   1.0000   1.0000   1.0000   1.0000   1.0000   1.0000   1.0000
     1.0000   1.0000   1.0000   1.0000   1.0000   1.0000   1.0000   1.0000
     1.0000   1.0000   1.0000   1.0000   1.0000   1.0000   1.0000   1.0000
     1.0000   1.0000   1.0000   1.0000   1.0000   1.0000   1.0000   1.0000
     1.0000   1.0000   1.0000   1.0000   1.0000   1.0000   1.0000   1.0000
     1.0000   1.0000   1.0000   1.0000   1.0000   1.0000   1.0000   1.0000
     1.0000   1.0000   1.0000   1.0000   1.0000   1.0000   1.0000   1.0000
     1.0000   1.0000   1.0000   1.0000   1.0000   1.0000   1.0000   1.0000
     1.0000   1.0000   1.0000   1.0000   1.0000   1.0000   1.0000   1.0000
     1.0000   1.0000   1.0000   1.0000   1.0000   1.0000   1.0000   1.0000
     1.0000   1.0000   1.0000   1.0000   1.0000   1.0000   1.0000   1.0000
     1.0000   1.0000   1.0000   1.0000   1.0000   1.0000   1.0000   1.0000
     1.0000   1.0000   1.0000   1.0000   1.0000   1.0000   1.0000   1.0000
     1.0000   1.0000   1.0000   1.0000   1.0000   1.0000   1.0000   1.0000
     1.0000   1.0000   1.0000   1.0000   1.0000   1.0000   1.0000   1.0000
     1.0000   1.0000   1.0000   1.0000   1.0000   1.0000   1.0000   1.0000
     1.0000   1.0000   1.0000   1.0000   1.0000   1.0000   1.0000   1.0000
     1.0000   1.0000   1.0000   1.0000   1.0000   1.0000   1.0000   1.0000
     1.0000   1.0000   1.0000   1.0000   1.0000   1.0000   1.0000   1.0000
     1.0000   1.0000   1.0000   1.0000   1.0000   1.0000   1.0000   1.0000
     1.0000   1.0000   1.0000   1.0000   1.0000   1.0000   1.0000   1.0000
     1.0000   1.0000   1.0000   1.0000   1.0000   1.0000   1.0000   1.0000
     1.0000   1.0000   1.0000   1.0000   1.0000   1.0000   1.0000   1.0000
     1.0000   1.0000   1.0000   1.0000   1.0000   1.0000   1.0000   1.0000
     1.0000   1.0000   1.0000   1.0000   1.0000   1.0000   1.0000   1.0000
     1.0000   1.0000   1.0000   1.0000   1.0000   1.0000   1.0000   1.0000
     1.0000   1.0000   1.0000   1.0000   1.0000   1.0000   1.0000   1.0000
     1.0000   1.0000   1.0000   1.0000   1.0000   1.0000   1.0000   1.0000
     1.0000   1.0000   1.0000   1.0000   1.0000   1.0000   1.0000   1.0000
     1.0000   1.0000   1.0000   1.0000   1.0000   1.0000   1.0000   1.0000
     1.0000   1.0000   1.0000   1.0000   1.0000   1.0000   1.0000   1.0000
     1.0000   1.0000   1.0000   1.0000   1.0000   1.0000   1.0000   1.0000
     1.0000   1.0000   1.0000   1.0000   1.0000   1.0000   1.0000   1.0000
     1.0000   1.0000   1.0000   1.0000   1.0000   1.0000   1.0000   1.0000
     1.0000   1.0000   1.0000   1.0000   1.0000   1.0000   1.0000   1.0000
     1.0000   1.0000   1.0000   1.0000   1.0000   1.0000   1.0000   1.0000
     1.0000   1.0000   1.0000   1.0000   1.0000   1.0000   1.0000   1.0000
     1.0000   1.0000   1.0000   1.0000   1.0000   1.0000   1.0000   1.0000
     1.0000   1.0000   1.0000   1.0000   1.0000   1.0000   1.0000   1.0000
     1.0000   1.0000   1.0000   1.0000   1.0000   1.0000   1.0000   1.0000
     0.9999   0.9999   0.9999   0.9999   0.9999   0.9999   0.9999   0.9998
     0.9998   0.9997   0.9997   0.9997   0.9996   0.9996   0.9995   0.9988
     0.9975   0.9969   0.9914   0.9910   0.9898   0.9898   0.9869   0.9852
     0.9812   0.9753   0.9743   0.9237   0.9141   0.8999   0.8752   0.8362
     0.8307   0.8036   0.7973   0.7344   0.6160   0.4869   0.4633   0.4150
     0.3650   0.3521   0.3340   0.3305   0.2823   0.2559   0.2368   0.2190
     0.0987   0.0917   0.0804   0.0675   0.0379   0.0329   0.0041   0.0039
     0.0024   0.0022   0.0021   0.0018   0.0000   0.0000   0.0000   0.0000
     0.0000   0.0000   0.0000   0.0000   0.0000   0.0000   0.0000   0.0000
     0.0000   0.0000   0.0000   0.0000   0.0000   0.0000   0.0000   0.0000
     0.0000   0.0000   0.0000   0.0000   0.0000   0.0000   0.0000   0.0000
     0.0000   0.0000   0.0000   0.0000   0.0000   0.0000   0.0000   0.0000
     0.0000   0.0000   0.0000   0.0000   0.0000   0.0000   0.0000   0.0000
     0.0000   0.0000   0.0000   0.0000   0.0000   0.0000   0.0000   0.0000
     0.0000   0.0000   0.0000   0.0000   0.0000   0.0000   0.0000   0.0000
     0.0000   0.0000   0.0000   0.0000   0.0000   0.0000   0.0000   0.0000
     0.0000   0.0000   0.0000   0.0000   0.0000   0.0000   0.0000   0.0000
     0.0000   0.0000   0.0000   0.0000   0.0000   0.0000   0.0000   0.0000
     0.0000   0.0000   0.0000   0.0000   0.0000   0.0000   0.0000   0.0000

          k =-0.5000 0.5774 0.0000 (156796 PWs)   bands (ev):

   -94.3682 -94.3656 -94.3615 -94.3588 -94.3576 -94.3561 -94.3539 -94.3530
   -94.3524 -94.3512 -94.3472 -94.3459 -94.3452 -94.3433 -94.3426 -94.3389
   -94.3379 -94.3369 -94.3364 -94.3360 -94.3353 -94.3346 -94.3331 -94.3321
   -94.3315 -94.3307 -94.3125 -94.3120 -94.3113 -94.3016 -94.2941 -94.2939
   -93.9167 -93.9140 -93.9140 -93.9128 -93.9117 -93.9096 -93.9095 -93.9084
   -93.9066 -93.9055 -93.9041 -93.9027 -93.9025 -93.9009 -93.9002 -93.8993
   -93.8980 -93.8972 -93.8969 -93.8960 -93.8955 -93.8949 -93.8920 -93.8902
   -93.8901 -93.8900 -93.8891 -93.8881 -93.8863 -93.8860 -93.8858 -93.7115
   -48.6626 -48.6508 -48.6497 -48.6438 -48.6408 -48.6353 -48.6317 -48.6303
   -48.6276 -48.6241 -48.6202 -48.6185 -48.6168 -48.6124 -48.6109 -48.6097
   -48.6093 -48.6054 -48.6033 -48.6001 -48.5965 -48.5946 -48.5899 -48.5812
   -48.5736 -48.5704 -48.5643 -48.5598 -48.5355 -48.5314 -48.5221 -48.5138
   -48.5128 -48.5107 -48.5098 -48.5088 -48.5074 -48.5046 -48.5008 -48.4922
   -48.4901 -48.4882 -48.4860 -48.4839 -48.4805 -48.4754 -48.4612 -48.4588
   -48.4576 -48.4541 -48.4509 -48.4483 -48.4476 -48.4435 -48.4420 -48.4380
   -48.4362 -48.4343 -48.4325 -48.4302 -48.4297 -48.4281 -48.4271 -48.4251
   -48.4243 -48.4229 -48.4190 -48.4176 -48.4163 -48.4159 -48.4139 -48.4104
   -48.4080 -48.4075 -48.4060 -48.4043 -48.4024 -48.4001 -48.3960 -48.3955
   -48.3948 -48.3876 -48.3856 -48.3845 -48.3800 -48.3781 -48.3773 -48.3732
   -48.3689 -48.3636 -48.3573 -48.3552 -48.3497 -48.3434 -48.3283 -48.3203
   -48.2691 -48.2651 -48.2581 -48.2569 -48.2534 -48.2522 -48.2517 -48.2510
   -48.2491 -48.2432 -48.2379 -48.2356 -48.2344 -48.2254 -48.2220 -48.2205
   -48.2170 -48.2166 -48.2110 -48.2039 -48.1898 -48.1833 -48.1771 -48.1748
   -48.1557 -48.1552 -48.1515 -48.1441 -48.1264 -48.1259 -48.1203 -48.1113
   -48.0985 -48.0920 -48.0855 -48.0832 -48.0821 -48.0775 -48.0745 -48.0726
   -48.0723 -48.0718 -48.0712 -48.0698 -48.0690 -48.0688 -48.0630 -48.0618
   -48.0608 -48.0595 -48.0529 -48.0512 -48.0491 -48.0481 -48.0331 -48.0305
   -48.0265 -48.0179 -48.0179 -48.0171 -48.0065 -48.0056 -47.9072 -47.9064
   -47.8499 -47.8477 -47.8452 -47.8442 -47.8438 -47.8407 -47.8385 -47.8373
   -47.8359 -47.8333 -47.8325 -47.8301 -47.8295 -47.8274 -47.8265 -47.8252
   -47.8238 -47.8223 -47.8217 -47.8197 -47.8191 -47.8183 -47.8114 -47.8109
   -47.8109 -47.8106 -47.8081 -47.8079 -47.8019 -47.8015 -47.8011 -47.6290
    -7.8952  -4.6467  -4.1705  -4.1494  -3.3567  -2.9384  -2.9266  -2.9083
    -2.8905  -2.4035  -2.3898  -2.2900  -2.2444  -2.2299  -2.2279  -2.1793
    -2.0330  -2.0114  -1.9637  -1.9565  -1.9475  -1.9321  -1.9162  -1.8804
    -1.8676  -1.8224  -1.8056  -1.7956  -1.7571  -1.7333  -1.6862  -1.6685
    -1.5923  -1.5859  -1.5709  -1.5486  -1.5404  -1.5102  -1.5075  -1.4722
    -1.4075  -1.3987  -1.3499  -1.3432  -1.2913  -1.2760  -1.2292  -1.2180
    -1.1473  -1.1452  -1.1248  -1.1195  -1.1132  -1.1111  -1.0872  -1.0851
    -1.0730  -1.0534  -1.0203  -0.9726  -0.9558  -0.9368  -0.9288  -0.8502
    -0.8484  -0.8197  -0.7962  -0.7860  -0.7588  -0.7497  -0.7434  -0.7254
    -0.6404  -0.5834  -0.5825  -0.5665  -0.4766  -0.4719  -0.4650  -0.4585
    -0.4510  -0.4176  -0.3557  -0.3469  -0.3314  -0.3207  -0.3144  -0.2915
    -0.2838  -0.2559  -0.2549  -0.1789  -0.1437  -0.0902  -0.0858  -0.0672
    -0.0504  -0.0331  -0.0177  -0.0052   0.0378   0.1278   0.1383   0.1515
     0.2084   0.2300   0.2304   0.2453   0.2846   0.2920   0.3349   0.3421
     0.3900   0.4025   0.4092   0.4335   0.4459   0.4864   0.5737   0.5759
     0.5866   0.5999   0.6087   0.6166   0.6288   0.6308   0.6370   0.6469
     0.6757   0.6773   0.6849   0.6898   0.6976   0.7208   0.7399   0.7614
     0.7888   0.7910   0.8090   0.8188   0.8666   0.8780   0.8815   0.8892
     0.9058   0.9110   0.9545   0.9781   0.9812   0.9842   0.9967   1.0015
     1.0034   1.0175   1.0187   1.0278   1.0316   1.0580   1.0694   1.0937
     1.0993   1.1167   1.1274   1.1390   1.1679   1.1767   1.2263   1.2352
     1.2413   1.2697   1.2765   1.2914   1.2986   1.3168   1.3298   1.3403
     1.3577   1.3683   1.3849   1.4012   1.4138   1.4226   1.4377   1.4529
     1.4619   1.4692   1.4812   1.4998   1.5079   1.5248   1.5773   1.6680
     1.6777   1.6832   1.7179   1.7883   1.7941   1.8371   1.8503   1.9086
     1.9210   1.9610   1.9636   2.0021   2.0055   2.0188   2.0302   2.0391
     2.0524   2.0589   2.0651   2.0864   2.1328   2.1407   2.1468   2.1517
     2.1592   2.1659   2.1757   2.1965   2.2028   2.2409   2.2554   2.2603
     2.2658   2.2865   2.3119   2.3184   2.3348   2.3527   2.3633   2.3762
     2.3952   2.4247   2.4817   2.4917   2.4973   2.5701   2.5909   2.6096
     2.7076   2.7356   2.7639   2.7793   2.7853   2.8056   2.8226   2.8275
     2.8506   2.8617   2.8640   2.8796   2.9163   2.9277   2.9552   2.9591
     2.9730   2.9943   3.0037   3.0147   3.0245   3.0407   3.0458   3.0607
     3.1039   3.1132   3.1243   3.1351   3.1426   3.1558   3.1646   3.1902
     3.2114   3.2217   3.2413   3.2469   3.2592   3.2770   3.2851   3.2988
     3.3473   3.4177   3.4239   3.4496   3.4629   3.4709   3.4888   3.4979
     3.5118   3.5347   3.5605   3.5705   3.6247   3.6281   3.6299   3.6452
     3.6800   3.6839   3.7045   3.7100   3.7167   3.7820   3.7836   3.7933
     3.8049   3.8255   3.8372   3.8468   3.8583   3.8705   3.8868   3.8956
     3.9104   3.9267   3.9502   3.9670   3.9797   3.9818   3.9933   3.9948
     4.0030   4.0127   4.0260   4.0282   4.0360   4.0444   4.0520   4.0696
     4.0848   4.0874   4.0925   4.1315   4.1636   4.1644   4.2003   4.2274
     4.2681   4.2759   4.2867   4.2895   4.3167   4.3252   4.3314   4.6869
     4.6896   4.7389   4.7598   4.9221   4.9256   4.9586   5.0363   5.0440
     5.1834   5.1851   5.2701   5.2739   5.3484   5.5570   5.6127   6.0767
     6.0875   6.2250   6.2363   6.2959   6.6553   6.7363   6.7706   7.0855
     7.0916   7.2671   7.3014   7.3562   7.4263   7.5476   7.5504   7.7579
     7.7606   7.7641   7.9604   8.1481   8.3247   8.3397   8.3465   8.3518
     8.5299   8.5322   8.9420   8.9492   8.9572   9.1113   9.2135   9.2216
     9.2484   9.3343   9.3711   9.4075   9.5458   9.7472   9.7540   9.8232
     9.8907   9.9006   9.9444  10.0222  10.1678  10.1825  10.2031  10.2774
    10.2976  10.3400  10.3738  10.4210  10.4733  10.4880  10.5114  10.5144
    10.5996  10.7128  10.7565  10.8096  10.8135  10.8261  10.8281  10.8924
    10.9056  10.9795  10.9850  11.0973  11.1070  11.2031  11.3440  11.4683
    11.5666  11.5762  11.6019  11.6061  11.6624  11.6696  11.7218  11.7570

     occupation numbers 
     1.0000   1.0000   1.0000   1.0000   1.0000   1.0000   1.0000   1.0000
     1.0000   1.0000   1.0000   1.0000   1.0000   1.0000   1.0000   1.0000
     1.0000   1.0000   1.0000   1.0000   1.0000   1.0000   1.0000   1.0000
     1.0000   1.0000   1.0000   1.0000   1.0000   1.0000   1.0000   1.0000
     1.0000   1.0000   1.0000   1.0000   1.0000   1.0000   1.0000   1.0000
     1.0000   1.0000   1.0000   1.0000   1.0000   1.0000   1.0000   1.0000
     1.0000   1.0000   1.0000   1.0000   1.0000   1.0000   1.0000   1.0000
     1.0000   1.0000   1.0000   1.0000   1.0000   1.0000   1.0000   1.0000
     1.0000   1.0000   1.0000   1.0000   1.0000   1.0000   1.0000   1.0000
     1.0000   1.0000   1.0000   1.0000   1.0000   1.0000   1.0000   1.0000
     1.0000   1.0000   1.0000   1.0000   1.0000   1.0000   1.0000   1.0000
     1.0000   1.0000   1.0000   1.0000   1.0000   1.0000   1.0000   1.0000
     1.0000   1.0000   1.0000   1.0000   1.0000   1.0000   1.0000   1.0000
     1.0000   1.0000   1.0000   1.0000   1.0000   1.0000   1.0000   1.0000
     1.0000   1.0000   1.0000   1.0000   1.0000   1.0000   1.0000   1.0000
     1.0000   1.0000   1.0000   1.0000   1.0000   1.0000   1.0000   1.0000
     1.0000   1.0000   1.0000   1.0000   1.0000   1.0000   1.0000   1.0000
     1.0000   1.0000   1.0000   1.0000   1.0000   1.0000   1.0000   1.0000
     1.0000   1.0000   1.0000   1.0000   1.0000   1.0000   1.0000   1.0000
     1.0000   1.0000   1.0000   1.0000   1.0000   1.0000   1.0000   1.0000
     1.0000   1.0000   1.0000   1.0000   1.0000   1.0000   1.0000   1.0000
     1.0000   1.0000   1.0000   1.0000   1.0000   1.0000   1.0000   1.0000
     1.0000   1.0000   1.0000   1.0000   1.0000   1.0000   1.0000   1.0000
     1.0000   1.0000   1.0000   1.0000   1.0000   1.0000   1.0000   1.0000
     1.0000   1.0000   1.0000   1.0000   1.0000   1.0000   1.0000   1.0000
     1.0000   1.0000   1.0000   1.0000   1.0000   1.0000   1.0000   1.0000
     1.0000   1.0000   1.0000   1.0000   1.0000   1.0000   1.0000   1.0000
     1.0000   1.0000   1.0000   1.0000   1.0000   1.0000   1.0000   1.0000
     1.0000   1.0000   1.0000   1.0000   1.0000   1.0000   1.0000   1.0000
     1.0000   1.0000   1.0000   1.0000   1.0000   1.0000   1.0000   1.0000
     1.0000   1.0000   1.0000   1.0000   1.0000   1.0000   1.0000   1.0000
     1.0000   1.0000   1.0000   1.0000   1.0000   1.0000   1.0000   1.0000
     1.0000   1.0000   1.0000   1.0000   1.0000   1.0000   1.0000   1.0000
     1.0000   1.0000   1.0000   1.0000   1.0000   1.0000   1.0000   1.0000
     1.0000   1.0000   1.0000   1.0000   1.0000   1.0000   1.0000   1.0000
     1.0000   1.0000   1.0000   1.0000   1.0000   1.0000   1.0000   1.0000
     1.0000   1.0000   1.0000   1.0000   1.0000   1.0000   1.0000   1.0000
     1.0000   1.0000   1.0000   1.0000   1.0000   1.0000   1.0000   1.0000
     1.0000   1.0000   1.0000   1.0000   1.0000   1.0000   1.0000   1.0000
     1.0000   1.0000   1.0000   1.0000   1.0000   1.0000   1.0000   1.0000
     1.0000   1.0000   1.0000   1.0000   1.0000   1.0000   1.0000   1.0000
     1.0000   1.0000   1.0000   1.0000   1.0000   1.0000   1.0000   1.0000
     1.0000   1.0000   1.0000   1.0000   1.0000   1.0000   1.0000   1.0000
     1.0000   1.0000   1.0000   1.0000   1.0000   1.0000   1.0000   1.0000
     1.0000   1.0000   1.0000   1.0000   1.0000   1.0000   1.0000   1.0000
     1.0000   1.0000   1.0000   1.0000   1.0000   1.0000   1.0000   1.0000
     1.0000   1.0000   1.0000   1.0000   1.0000   1.0000   1.0000   1.0000
     1.0000   1.0000   1.0000   1.0000   1.0000   1.0000   1.0000   1.0000
     1.0000   1.0000   1.0000   1.0000   1.0000   1.0000   1.0000   1.0000
     1.0000   1.0000   1.0000   1.0000   1.0000   1.0000   1.0000   1.0000
     1.0000   1.0000   1.0000   1.0000   1.0000   1.0000   1.0000   1.0000
     1.0000   1.0000   1.0000   1.0000   1.0000   1.0000   1.0000   1.0000
     1.0000   1.0000   1.0000   1.0000   1.0000   1.0000   1.0000   1.0000
     1.0000   1.0000   1.0000   1.0000   1.0000   1.0000   1.0000   1.0000
     1.0000   1.0000   1.0000   1.0000   1.0000   1.0000   1.0000   1.0000
     1.0000   1.0000   1.0000   1.0000   1.0000   1.0000   1.0000   1.0000
     1.0000   1.0000   1.0000   1.0000   1.0000   1.0000   1.0000   1.0000
     1.0000   1.0000   1.0000   1.0000   1.0000   1.0000   1.0000   1.0000
     1.0000   1.0000   1.0000   1.0000   1.0000   1.0000   1.0000   1.0000
     1.0000   1.0000   1.0000   1.0000   1.0000   1.0000   1.0000   1.0000
     1.0000   1.0000   1.0000   1.0000   1.0000   1.0000   1.0000   1.0000
     1.0000   1.0000   1.0000   1.0000   1.0000   1.0000   1.0000   1.0000
     1.0000   1.0000   1.0000   1.0000   1.0000   1.0000   1.0000   1.0000
     1.0000   1.0000   1.0000   1.0000   1.0000   1.0000   1.0000   1.0000
     1.0000   1.0000   1.0000   1.0000   1.0000   1.0000   1.0000   1.0000
     1.0000   1.0000   1.0000   1.0000   1.0000   1.0000   1.0000   1.0000
     1.0000   1.0000   1.0000   1.0000   1.0000   1.0000   1.0000   1.0000
     1.0000   1.0000   1.0000   1.0000   1.0000   1.0000   1.0000   1.0000
     1.0000   1.0000   1.0000   1.0000   0.9999   0.9999   0.9999   0.9999
     0.9997   0.9997   0.9995   0.9995   0.9994   0.9978   0.9977   0.9972
     0.9965   0.9947   0.9933   0.9918   0.9898   0.9870   0.9820   0.9787
     0.9715   0.9610   0.9389   0.9166   0.8950   0.8911   0.8666   0.8631
     0.8426   0.8151   0.7715   0.7638   0.7345   0.7004   0.6677   0.5855
     0.5105   0.4974   0.4720   0.2905   0.1772   0.1751   0.0937   0.0567
     0.0260   0.0223   0.0181   0.0171   0.0100   0.0084   0.0075   0.0000
     0.0000   0.0000   0.0000   0.0000   0.0000   0.0000   0.0000   0.0000
     0.0000   0.0000   0.0000   0.0000   0.0000   0.0000   0.0000   0.0000
     0.0000   0.0000   0.0000   0.0000   0.0000   0.0000   0.0000   0.0000
     0.0000   0.0000   0.0000   0.0000   0.0000   0.0000   0.0000   0.0000
     0.0000   0.0000   0.0000   0.0000   0.0000   0.0000   0.0000   0.0000
     0.0000   0.0000   0.0000   0.0000   0.0000   0.0000   0.0000   0.0000
     0.0000   0.0000   0.0000   0.0000   0.0000   0.0000   0.0000   0.0000
     0.0000   0.0000   0.0000   0.0000   0.0000   0.0000   0.0000   0.0000
     0.0000   0.0000   0.0000   0.0000   0.0000   0.0000   0.0000   0.0000
     0.0000   0.0000   0.0000   0.0000   0.0000   0.0000   0.0000   0.0000
     0.0000   0.0000   0.0000   0.0000   0.0000   0.0000   0.0000   0.0000
     0.0000   0.0000   0.0000   0.0000   0.0000   0.0000   0.0000   0.0000

          k =-0.5000-0.2887 0.0000 (156724 PWs)   bands (ev):

   -94.3682 -94.3656 -94.3614 -94.3593 -94.3574 -94.3558 -94.3541 -94.3529
   -94.3524 -94.3512 -94.3472 -94.3462 -94.3447 -94.3437 -94.3423 -94.3388
   -94.3385 -94.3365 -94.3362 -94.3359 -94.3354 -94.3344 -94.3335 -94.3319
   -94.3315 -94.3307 -94.3125 -94.3120 -94.3113 -94.3016 -94.2941 -94.2939
   -93.9167 -93.9139 -93.9137 -93.9131 -93.9121 -93.9093 -93.9086 -93.9084
   -93.9079 -93.9054 -93.9036 -93.9026 -93.9024 -93.9012 -93.9003 -93.8993
   -93.8979 -93.8972 -93.8969 -93.8959 -93.8955 -93.8949 -93.8921 -93.8901
   -93.8901 -93.8900 -93.8893 -93.8881 -93.8863 -93.8860 -93.8857 -93.7115
   -48.6574 -48.6555 -48.6508 -48.6472 -48.6375 -48.6336 -48.6334 -48.6312
   -48.6282 -48.6250 -48.6200 -48.6198 -48.6188 -48.6176 -48.6140 -48.6070
   -48.6049 -48.6036 -48.5995 -48.5969 -48.5964 -48.5861 -48.5819 -48.5795
   -48.5775 -48.5760 -48.5697 -48.5613 -48.5454 -48.5420 -48.5132 -48.5121
   -48.5117 -48.5108 -48.5092 -48.5055 -48.5019 -48.5004 -48.5001 -48.4961
   -48.4931 -48.4887 -48.4880 -48.4832 -48.4739 -48.4736 -48.4687 -48.4647
   -48.4557 -48.4550 -48.4484 -48.4475 -48.4418 -48.4415 -48.4393 -48.4373
   -48.4352 -48.4347 -48.4330 -48.4315 -48.4307 -48.4295 -48.4287 -48.4264
   -48.4256 -48.4220 -48.4203 -48.4189 -48.4183 -48.4160 -48.4157 -48.4140
   -48.4135 -48.4103 -48.4101 -48.4022 -48.3993 -48.3957 -48.3936 -48.3917
   -48.3902 -48.3875 -48.3864 -48.3835 -48.3822 -48.3768 -48.3758 -48.3704
   -48.3670 -48.3662 -48.3580 -48.3571 -48.3539 -48.3397 -48.3308 -48.3193
   -48.2623 -48.2622 -48.2614 -48.2611 -48.2583 -48.2565 -48.2555 -48.2447
   -48.2445 -48.2418 -48.2399 -48.2350 -48.2335 -48.2333 -48.2330 -48.2179
   -48.2026 -48.2006 -48.2001 -48.1989 -48.1988 -48.1968 -48.1851 -48.1756
   -48.1608 -48.1608 -48.1588 -48.1460 -48.1102 -48.1100 -48.1087 -48.1002
   -48.0959 -48.0956 -48.0947 -48.0930 -48.0907 -48.0899 -48.0839 -48.0820
   -48.0717 -48.0694 -48.0690 -48.0686 -48.0680 -48.0672 -48.0623 -48.0623
   -48.0598 -48.0564 -48.0562 -48.0423 -48.0407 -48.0358 -48.0322 -48.0311
   -48.0308 -48.0279 -48.0261 -48.0104 -48.0076 -48.0035 -47.9076 -47.9060
   -47.8497 -47.8481 -47.8448 -47.8445 -47.8440 -47.8388 -47.8386 -47.8380
   -47.8375 -47.8332 -47.8315 -47.8297 -47.8293 -47.8282 -47.8266 -47.8253
   -47.8235 -47.8223 -47.8217 -47.8197 -47.8191 -47.8183 -47.8115 -47.8109
   -47.8109 -47.8106 -47.8082 -47.8079 -47.8018 -47.8016 -47.8011 -47.6290
    -7.8952  -4.5326  -4.5116  -3.6055  -3.5950  -3.2464  -3.2302  -2.4178
    -2.4050  -2.3909  -2.3721  -2.3425  -2.3279  -2.3263  -2.3198  -2.1364
    -2.1221  -2.0771  -2.0557  -2.0038  -1.9896  -1.9677  -1.9593  -1.9429
    -1.9413  -1.7927  -1.7839  -1.7705  -1.7684  -1.6839  -1.6774  -1.6641
    -1.6525  -1.5087  -1.4976  -1.4356  -1.4286  -1.4173  -1.4136  -1.4016
    -1.3774  -1.3279  -1.3260  -1.3161  -1.2972  -1.2869  -1.2787  -1.2094
    -1.2041  -1.1700  -1.1694  -1.1554  -1.1509  -1.1451  -1.1206  -1.1046
    -1.1027  -1.0780  -1.0736  -0.9704  -0.9642  -0.9626  -0.9465  -0.9247
    -0.9208  -0.8959  -0.8759  -0.7962  -0.7861  -0.7856  -0.7715  -0.5563
    -0.5545  -0.5392  -0.5387  -0.5261  -0.5179  -0.4845  -0.4767  -0.4506
    -0.4401  -0.4272  -0.4181  -0.4170  -0.3948  -0.2347  -0.2313  -0.2228
    -0.2190  -0.1947  -0.1835  -0.1584  -0.1566  -0.1195  -0.0907  -0.0809
    -0.0580  -0.0183   0.0105   0.0969   0.1005   0.1090   0.1244   0.1411
     0.1511   0.1529   0.1734   0.1753   0.1900   0.3289   0.3446   0.3503
     0.3545   0.3551   0.3706   0.4178   0.4197   0.4402   0.4488   0.5043
     0.5128   0.5367   0.5621   0.6363   0.6425   0.6544   0.6690   0.7061
     0.7102   0.7224   0.7511   0.7581   0.7617   0.8010   0.8076   0.8279
     0.8297   0.8393   0.8505   0.9263   0.9328   0.9497   0.9509   0.9529
     0.9548   0.9593   0.9757   0.9835   0.9901   0.9939   1.0163   1.0466
     1.0521   1.0624   1.0656   1.0749   1.0777   1.0844   1.0998   1.1010
     1.1250   1.1357   1.1426   1.1430   1.1466   1.1503   1.1587   1.1721
     1.1890   1.1917   1.2029   1.2090   1.2274   1.2663   1.2898   1.2973
     1.3046   1.3077   1.3218   1.3298   1.3620   1.3894   1.4084   1.4097
     1.4266   1.4289   1.4717   1.5163   1.5371   1.5921   1.6034   1.6136
     1.6341   1.6574   1.6901   1.7154   1.7259   1.7353   1.7399   1.7425
     1.7641   1.8084   1.8374   1.9870   1.9897   2.0272   2.0300   2.0693
     2.0726   2.0756   2.0862   2.1257   2.1305   2.1366   2.1394   2.1475
     2.1658   2.1729   2.1820   2.1982   2.2249   2.3217   2.3442   2.3811
     2.4004   2.4085   2.4099   2.4267   2.4336   2.4447   2.4502   2.4915
     2.5136   2.5139   2.5372   2.5412   2.5641   2.5958   2.5975   2.6425
     2.6480   2.6584   2.6750   2.7076   2.7381   2.7448   2.7511   2.7805
     2.8246   2.8274   2.8358   2.8454   2.8728   2.8767   2.8804   2.9309
     2.9613   2.9675   2.9897   2.9922   3.0027   3.0030   3.0075   3.0089
     3.0298   3.0673   3.0798   3.0943   3.1007   3.1106   3.1130   3.1832
     3.2599   3.2745   3.3313   3.3390   3.4607   3.4657   3.4699   3.4723
     3.4777   3.4824   3.5079   3.5120   3.5142   3.5237   3.5241   3.5343
     3.6091   3.6145   3.6266   3.6317   3.6330   3.6381   3.6448   3.6481
     3.6618   3.6774   3.6776   3.6835   3.6889   3.6946   3.7065   3.7497
     3.7856   3.7966   3.8495   3.8527   3.8588   3.8590   3.8713   3.8779
     3.8899   3.9016   3.9045   3.9627   3.9685   3.9771   3.9903   4.0059
     4.0086   4.0173   4.0195   4.0369   4.0638   4.0901   4.0953   4.1064
     4.1154   4.1180   4.1216   4.1230   4.1332   4.1396   4.1455   4.1507
     4.1983   4.2015   4.2077   4.2188   4.2491   4.2563   4.3624   4.3634
     4.3871   4.3916   4.3927   4.4038   5.0888   5.1604   5.3065   5.3115
     5.3277   5.3331   5.3911   5.4084   5.8531   5.8573   5.8608   5.8645
     6.1147   6.1677   6.3404   6.3522   6.3524   6.3632   6.5473   6.6042
     7.3265   7.3333   7.3436   7.3506   7.4290   7.4441   7.4630   7.4783
     7.7924   7.8103   8.1775   8.1960   8.2123   8.2434   8.3005   8.3178
     8.9625   8.9738   8.9882   8.9894   9.0035   9.2066   9.2201   9.2772
     9.2824   9.2874   9.4652   9.4722   9.7688   9.7889   9.7940   9.7951
     9.8948   9.9223  10.0177  10.0476  10.0580  10.0804  10.1664  10.2097
    10.2193  10.2364  10.2386  10.2690  10.3826  10.4105  10.4117  10.4174
    10.4305  10.4362  10.5561  10.5726  10.7840  10.7922  10.8564  10.8703
    11.0735  11.1572  11.1683  11.2436  11.3795  11.3815  11.4093  11.4288
    11.4360  11.4426  11.4454  11.4647  11.5335  11.5973  11.6628  11.7215

     occupation numbers 
     1.0000   1.0000   1.0000   1.0000   1.0000   1.0000   1.0000   1.0000
     1.0000   1.0000   1.0000   1.0000   1.0000   1.0000   1.0000   1.0000
     1.0000   1.0000   1.0000   1.0000   1.0000   1.0000   1.0000   1.0000
     1.0000   1.0000   1.0000   1.0000   1.0000   1.0000   1.0000   1.0000
     1.0000   1.0000   1.0000   1.0000   1.0000   1.0000   1.0000   1.0000
     1.0000   1.0000   1.0000   1.0000   1.0000   1.0000   1.0000   1.0000
     1.0000   1.0000   1.0000   1.0000   1.0000   1.0000   1.0000   1.0000
     1.0000   1.0000   1.0000   1.0000   1.0000   1.0000   1.0000   1.0000
     1.0000   1.0000   1.0000   1.0000   1.0000   1.0000   1.0000   1.0000
     1.0000   1.0000   1.0000   1.0000   1.0000   1.0000   1.0000   1.0000
     1.0000   1.0000   1.0000   1.0000   1.0000   1.0000   1.0000   1.0000
     1.0000   1.0000   1.0000   1.0000   1.0000   1.0000   1.0000   1.0000
     1.0000   1.0000   1.0000   1.0000   1.0000   1.0000   1.0000   1.0000
     1.0000   1.0000   1.0000   1.0000   1.0000   1.0000   1.0000   1.0000
     1.0000   1.0000   1.0000   1.0000   1.0000   1.0000   1.0000   1.0000
     1.0000   1.0000   1.0000   1.0000   1.0000   1.0000   1.0000   1.0000
     1.0000   1.0000   1.0000   1.0000   1.0000   1.0000   1.0000   1.0000
     1.0000   1.0000   1.0000   1.0000   1.0000   1.0000   1.0000   1.0000
     1.0000   1.0000   1.0000   1.0000   1.0000   1.0000   1.0000   1.0000
     1.0000   1.0000   1.0000   1.0000   1.0000   1.0000   1.0000   1.0000
     1.0000   1.0000   1.0000   1.0000   1.0000   1.0000   1.0000   1.0000
     1.0000   1.0000   1.0000   1.0000   1.0000   1.0000   1.0000   1.0000
     1.0000   1.0000   1.0000   1.0000   1.0000   1.0000   1.0000   1.0000
     1.0000   1.0000   1.0000   1.0000   1.0000   1.0000   1.0000   1.0000
     1.0000   1.0000   1.0000   1.0000   1.0000   1.0000   1.0000   1.0000
     1.0000   1.0000   1.0000   1.0000   1.0000   1.0000   1.0000   1.0000
     1.0000   1.0000   1.0000   1.0000   1.0000   1.0000   1.0000   1.0000
     1.0000   1.0000   1.0000   1.0000   1.0000   1.0000   1.0000   1.0000
     1.0000   1.0000   1.0000   1.0000   1.0000   1.0000   1.0000   1.0000
     1.0000   1.0000   1.0000   1.0000   1.0000   1.0000   1.0000   1.0000
     1.0000   1.0000   1.0000   1.0000   1.0000   1.0000   1.0000   1.0000
     1.0000   1.0000   1.0000   1.0000   1.0000   1.0000   1.0000   1.0000
     1.0000   1.0000   1.0000   1.0000   1.0000   1.0000   1.0000   1.0000
     1.0000   1.0000   1.0000   1.0000   1.0000   1.0000   1.0000   1.0000
     1.0000   1.0000   1.0000   1.0000   1.0000   1.0000   1.0000   1.0000
     1.0000   1.0000   1.0000   1.0000   1.0000   1.0000   1.0000   1.0000
     1.0000   1.0000   1.0000   1.0000   1.0000   1.0000   1.0000   1.0000
     1.0000   1.0000   1.0000   1.0000   1.0000   1.0000   1.0000   1.0000
     1.0000   1.0000   1.0000   1.0000   1.0000   1.0000   1.0000   1.0000
     1.0000   1.0000   1.0000   1.0000   1.0000   1.0000   1.0000   1.0000
     1.0000   1.0000   1.0000   1.0000   1.0000   1.0000   1.0000   1.0000
     1.0000   1.0000   1.0000   1.0000   1.0000   1.0000   1.0000   1.0000
     1.0000   1.0000   1.0000   1.0000   1.0000   1.0000   1.0000   1.0000
     1.0000   1.0000   1.0000   1.0000   1.0000   1.0000   1.0000   1.0000
     1.0000   1.0000   1.0000   1.0000   1.0000   1.0000   1.0000   1.0000
     1.0000   1.0000   1.0000   1.0000   1.0000   1.0000   1.0000   1.0000
     1.0000   1.0000   1.0000   1.0000   1.0000   1.0000   1.0000   1.0000
     1.0000   1.0000   1.0000   1.0000   1.0000   1.0000   1.0000   1.0000
     1.0000   1.0000   1.0000   1.0000   1.0000   1.0000   1.0000   1.0000
     1.0000   1.0000   1.0000   1.0000   1.0000   1.0000   1.0000   1.0000
     1.0000   1.0000   1.0000   1.0000   1.0000   1.0000   1.0000   1.0000
     1.0000   1.0000   1.0000   1.0000   1.0000   1.0000   1.0000   1.0000
     1.0000   1.0000   1.0000   1.0000   1.0000   1.0000   1.0000   1.0000
     1.0000   1.0000   1.0000   1.0000   1.0000   1.0000   1.0000   1.0000
     1.0000   1.0000   1.0000   1.0000   1.0000   1.0000   1.0000   1.0000
     1.0000   1.0000   1.0000   1.0000   1.0000   1.0000   1.0000   1.0000
     1.0000   1.0000   1.0000   1.0000   1.0000   1.0000   1.0000   1.0000
     1.0000   1.0000   1.0000   1.0000   1.0000   1.0000   1.0000   1.0000
     1.0000   1.0000   1.0000   1.0000   1.0000   1.0000   1.0000   1.0000
     1.0000   1.0000   1.0000   1.0000   1.0000   1.0000   1.0000   1.0000
     1.0000   1.0000   1.0000   1.0000   1.0000   1.0000   1.0000   1.0000
     1.0000   1.0000   1.0000   1.0000   1.0000   1.0000   1.0000   1.0000
     1.0000   1.0000   1.0000   1.0000   1.0000   1.0000   1.0000   1.0000
     1.0000   1.0000   1.0000   1.0000   1.0000   1.0000   1.0000   1.0000
     1.0000   1.0000   1.0000   1.0000   1.0000   1.0000   1.0000   1.0000
     1.0000   1.0000   1.0000   1.0000   1.0000   1.0000   1.0000   1.0000
     1.0000   1.0000   1.0000   1.0000   1.0000   1.0000   1.0000   1.0000
     1.0000   1.0000   1.0000   1.0000   1.0000   1.0000   1.0000   1.0000
     0.9999   0.9999   0.9999   0.9999   0.9999   0.9999   0.9999   0.9998
     0.9998   0.9997   0.9997   0.9997   0.9997   0.9996   0.9995   0.9988
     0.9976   0.9970   0.9914   0.9908   0.9897   0.9896   0.9868   0.9849
     0.9809   0.9760   0.9746   0.9230   0.9144   0.8997   0.8733   0.8347
     0.8271   0.8009   0.7938   0.7308   0.6132   0.4838   0.4578   0.4037
     0.3613   0.3490   0.3331   0.3267   0.2837   0.2581   0.2364   0.2183
     0.0973   0.0917   0.0819   0.0667   0.0376   0.0326   0.0040   0.0039
     0.0025   0.0022   0.0022   0.0018   0.0000   0.0000   0.0000   0.0000
     0.0000   0.0000   0.0000   0.0000   0.0000   0.0000   0.0000   0.0000
     0.0000   0.0000   0.0000   0.0000   0.0000   0.0000   0.0000   0.0000
     0.0000   0.0000   0.0000   0.0000   0.0000   0.0000   0.0000   0.0000
     0.0000   0.0000   0.0000   0.0000   0.0000   0.0000   0.0000   0.0000
     0.0000   0.0000   0.0000   0.0000   0.0000   0.0000   0.0000   0.0000
     0.0000   0.0000   0.0000   0.0000   0.0000   0.0000   0.0000   0.0000
     0.0000   0.0000   0.0000   0.0000   0.0000   0.0000   0.0000   0.0000
     0.0000   0.0000   0.0000   0.0000   0.0000   0.0000   0.0000   0.0000
     0.0000   0.0000   0.0000   0.0000   0.0000   0.0000   0.0000   0.0000
     0.0000   0.0000   0.0000   0.0000   0.0000   0.0000   0.0000   0.0000
     0.0000   0.0000   0.0000   0.0000   0.0000   0.0000   0.0000   0.0000

 ------ SPIN DOWN ----------


          k = 0.0000 0.0000 0.0000 (156935 PWs)   bands (ev):

   -94.3796 -94.3722 -94.3719 -94.3717 -94.3650 -94.3648 -94.3615 -94.3604
   -94.3602 -94.3576 -94.3556 -94.3521 -94.3519 -94.3512 -94.3492 -94.3478
   -94.3470 -94.3439 -94.3438 -94.3433 -94.3421 -94.3415 -94.3413 -94.3402
   -94.3389 -94.3387 -94.3274 -94.3270 -94.3262 -94.3201 -94.3129 -94.3127
   -93.9211 -93.9172 -93.9138 -93.9138 -93.9134 -93.9133 -93.9125 -93.9111
   -93.9110 -93.9098 -93.9095 -93.9087 -93.9055 -93.9055 -93.9050 -93.9040
   -93.9033 -93.9032 -93.9024 -93.9008 -93.9003 -93.8979 -93.8962 -93.8962
   -93.8950 -93.8947 -93.8908 -93.8906 -93.8895 -93.8892 -93.8891 -93.7709
   -48.6881 -48.6853 -48.6844 -48.6634 -48.6633 -48.6611 -48.6357 -48.6324
   -48.6322 -48.6314 -48.6268 -48.6256 -48.6252 -48.6179 -48.6147 -48.6124
   -48.6116 -48.6113 -48.6112 -48.6078 -48.6045 -48.6044 -48.5867 -48.5865
   -48.5799 -48.5438 -48.5436 -48.5428 -48.5395 -48.5379 -48.5376 -48.5363
   -48.5358 -48.5347 -48.5269 -48.5260 -48.5215 -48.5050 -48.5049 -48.5009
   -48.4872 -48.4871 -48.4867 -48.4847 -48.4841 -48.4828 -48.4804 -48.4802
   -48.4781 -48.4780 -48.4774 -48.4749 -48.4712 -48.4709 -48.4685 -48.4634
   -48.4632 -48.4631 -48.4558 -48.4532 -48.4527 -48.4490 -48.4486 -48.4461
   -48.4355 -48.4322 -48.4303 -48.4298 -48.4298 -48.4279 -48.4275 -48.4224
   -48.4210 -48.4208 -48.4172 -48.4165 -48.4162 -48.4092 -48.4088 -48.4085
   -48.4047 -48.4026 -48.4019 -48.3899 -48.3895 -48.3879 -48.3751 -48.3744
   -48.3736 -48.3676 -48.3660 -48.3646 -48.3621 -48.3612 -48.3346 -48.3337
   -48.2899 -48.2897 -48.2872 -48.2843 -48.2745 -48.2744 -48.2408 -48.2401
   -48.2400 -48.2379 -48.2377 -48.2363 -48.2356 -48.2353 -48.2351 -48.2318
   -48.2150 -48.2149 -48.1531 -48.1527 -48.1525 -48.1513 -48.1511 -48.1503
   -48.1458 -48.1440 -48.1439 -48.1428 -48.1420 -48.1414 -48.1348 -48.1347
   -48.1343 -48.1343 -48.1323 -48.1323 -48.1268 -48.1266 -48.1257 -48.1248
   -48.0999 -48.0999 -48.0794 -48.0793 -48.0791 -48.0708 -48.0608 -48.0604
   -48.0445 -48.0436 -48.0435 -48.0420 -48.0409 -48.0407 -48.0405 -48.0354
   -48.0349 -48.0342 -48.0065 -48.0060 -48.0056 -48.0053 -47.9504 -47.9501
   -47.8576 -47.8488 -47.8449 -47.8449 -47.8446 -47.8421 -47.8418 -47.8415
   -47.8413 -47.8385 -47.8370 -47.8361 -47.8320 -47.8320 -47.8306 -47.8304
   -47.8299 -47.8297 -47.8288 -47.8253 -47.8252 -47.8215 -47.8183 -47.8182
   -47.8148 -47.8148 -47.8101 -47.8099 -47.8050 -47.8048 -47.8040 -47.7425
    -7.2802  -5.0368  -3.7380  -3.2775  -3.2773  -3.2769  -3.2580  -3.2575
    -3.2304  -2.6341  -2.5433  -2.3062  -2.3052  -2.3014  -2.2290  -2.2290
    -2.2277  -2.2257  -2.2255  -2.1781  -2.1441  -2.1346  -2.1346  -1.7083
    -1.7081  -1.6948  -1.4569  -1.4554  -1.4553  -1.4544  -1.4521  -1.4514
    -1.4498  -1.4476  -1.4475  -1.4473  -1.4374  -1.4370  -1.4238  -1.4233
    -1.4152  -1.3642  -1.3514  -1.3512  -1.3224  -1.2989  -1.2981  -1.2828
    -1.2781  -1.2758  -1.1238  -1.1227  -1.1195  -1.1189  -1.1110  -1.0873
    -0.9872  -0.9864  -0.9850  -0.9816  -0.9807  -0.9710  -0.6565  -0.6483
    -0.6445  -0.6432  -0.6376  -0.6365  -0.5992  -0.5929  -0.5907  -0.5680
    -0.5643  -0.5234  -0.5231  -0.5208  -0.5169  -0.5164  -0.4795  -0.4769
    -0.4699  -0.4666  -0.4665  -0.4407  -0.4405  -0.1143  -0.1085  -0.1079
    -0.0919  -0.0916  -0.0910  -0.0507  -0.0453  -0.0448  -0.0300  -0.0290
    -0.0288  -0.0261  -0.0175  -0.0119  -0.0114   0.0080   0.0087   0.0941
     0.0951   0.1099   0.1167   0.1179   0.1285   0.3582   0.3594   0.3611
     0.3712   0.3755   0.3755   0.3798   0.4004   0.4014   0.4950   0.4965
     0.5008   0.5158   0.5243   0.5243   0.5406   0.5413   0.5420   0.5481
     0.6521   0.6885   0.6889   0.6894   0.6925   0.6946   0.6947   0.7066
     0.7069   0.7918   0.7922   0.8761   0.8768   0.8784   0.8926   0.8944
     0.9029   0.9375   0.9451   0.9467   1.0963   1.1034   1.1047   1.1077
     1.1141   1.1153   1.1545   1.1546   1.1781   1.1832   1.1834   1.1912
     1.1987   1.1992   1.2423   1.2447   1.2632   1.2640   1.2697   1.2715
     1.2723   1.2787   1.2790   1.2850   1.2857   1.2863   1.2917   1.3009
     1.3022   1.3078   1.3083   1.3091   1.3492   1.3495   1.4138   1.4227
     1.4238   1.4292   1.4466   1.4473   1.4510   1.4785   1.4792   1.4795
     1.5041   1.5316   1.5325   1.5596   1.5678   1.5678   1.5853   1.5868
     1.5920   1.6104   1.6950   1.6961   1.9304   1.9422   1.9432   1.9514
     1.9515   1.9605   2.0035   2.0157   2.0228   2.0232   2.0322   2.0411
     2.0418   2.0603   2.0607   2.1260   2.1274   2.1382   2.1859   2.1867
     2.1935   2.2108   2.2271   2.2278   2.2955   2.2959   2.3141   2.3204
     2.3210   2.3368   2.5415   2.5417   2.5437   2.5619   2.5627   2.5627
     2.6132   2.6203   2.6474   2.6478   2.6517   2.6552   2.6631   2.6635
     2.6927   2.6937   2.6990   2.7012   2.7091   2.7099   2.8261   2.8338
     2.8410   2.8413   2.8491   2.8496   2.8755   2.9119   2.9129   2.9258
     2.9338   2.9350   2.9546   2.9557   2.9560   2.9680   2.9688   2.9772
     2.9782   2.9822   3.0812   3.0816   3.0940   3.1076   3.1137   3.1148
     3.1887   3.1891   3.1959   3.3587   3.3900   3.3920   3.5490   3.5502
     3.5730   3.5824   3.5856   3.5864   3.6110   3.6116   3.6916   3.7458
     3.7811   3.7815   3.7845   3.7882   3.7884   3.8909   3.8995   3.9005
     3.9509   3.9514   3.9681   4.0506   4.0546   4.0984   4.1045   4.1065
     4.1340   4.1344   4.1347   4.1385   4.1395   4.1403   4.1423   4.1433
     4.1470   4.1724   4.1733   4.1746   4.2704   4.3371   4.3371   4.3407
     4.3705   4.3721   4.3792   4.3812   4.3817   4.3825   4.3863   4.3894
     4.3897   4.3915   4.3920   4.5916   4.5917   4.5938   4.6214   4.6215
     4.6260   4.7520   5.0650   5.0919   5.0938   5.5114   6.0225   6.0226
     6.0234   6.0274   6.0274   6.0296   6.3914   6.3925   6.4377   6.4393
     6.4423   6.4785   6.4904   6.4918   6.5412   6.5413   6.5419   6.5489
     6.5527   6.5528   6.6116   6.7712   6.7750   6.7915   7.0761   7.0771
     7.0834   7.6608   7.6610   7.6734   7.6845   7.6851   7.6863   8.7206
     8.7238   8.7318   8.7389   8.7408   8.7596   8.8796   9.0910   9.4866
     9.4876   9.5088   9.5123   9.5265   9.5268   9.6367   9.7973   9.8010
     9.8029   9.9316   9.9468   9.9477  10.1918  10.1937  10.2330  10.3231
    10.3244  10.3416  10.4300  10.4664  10.4788  10.4826  10.5952  10.5959
    10.6229  10.6312  10.6313  10.6470  11.2195  11.2200  11.2350  11.2374
    11.2390  11.2399  11.2502  11.2514  11.2582  11.2726  11.2736  11.3388
    11.4247  11.4297  11.4307  11.4413  11.4416  11.4638  11.5063  11.5091

     occupation numbers 
     1.0000   1.0000   1.0000   1.0000   1.0000   1.0000   1.0000   1.0000
     1.0000   1.0000   1.0000   1.0000   1.0000   1.0000   1.0000   1.0000
     1.0000   1.0000   1.0000   1.0000   1.0000   1.0000   1.0000   1.0000
     1.0000   1.0000   1.0000   1.0000   1.0000   1.0000   1.0000   1.0000
     1.0000   1.0000   1.0000   1.0000   1.0000   1.0000   1.0000   1.0000
     1.0000   1.0000   1.0000   1.0000   1.0000   1.0000   1.0000   1.0000
     1.0000   1.0000   1.0000   1.0000   1.0000   1.0000   1.0000   1.0000
     1.0000   1.0000   1.0000   1.0000   1.0000   1.0000   1.0000   1.0000
     1.0000   1.0000   1.0000   1.0000   1.0000   1.0000   1.0000   1.0000
     1.0000   1.0000   1.0000   1.0000   1.0000   1.0000   1.0000   1.0000
     1.0000   1.0000   1.0000   1.0000   1.0000   1.0000   1.0000   1.0000
     1.0000   1.0000   1.0000   1.0000   1.0000   1.0000   1.0000   1.0000
     1.0000   1.0000   1.0000   1.0000   1.0000   1.0000   1.0000   1.0000
     1.0000   1.0000   1.0000   1.0000   1.0000   1.0000   1.0000   1.0000
     1.0000   1.0000   1.0000   1.0000   1.0000   1.0000   1.0000   1.0000
     1.0000   1.0000   1.0000   1.0000   1.0000   1.0000   1.0000   1.0000
     1.0000   1.0000   1.0000   1.0000   1.0000   1.0000   1.0000   1.0000
     1.0000   1.0000   1.0000   1.0000   1.0000   1.0000   1.0000   1.0000
     1.0000   1.0000   1.0000   1.0000   1.0000   1.0000   1.0000   1.0000
     1.0000   1.0000   1.0000   1.0000   1.0000   1.0000   1.0000   1.0000
     1.0000   1.0000   1.0000   1.0000   1.0000   1.0000   1.0000   1.0000
     1.0000   1.0000   1.0000   1.0000   1.0000   1.0000   1.0000   1.0000
     1.0000   1.0000   1.0000   1.0000   1.0000   1.0000   1.0000   1.0000
     1.0000   1.0000   1.0000   1.0000   1.0000   1.0000   1.0000   1.0000
     1.0000   1.0000   1.0000   1.0000   1.0000   1.0000   1.0000   1.0000
     1.0000   1.0000   1.0000   1.0000   1.0000   1.0000   1.0000   1.0000
     1.0000   1.0000   1.0000   1.0000   1.0000   1.0000   1.0000   1.0000
     1.0000   1.0000   1.0000   1.0000   1.0000   1.0000   1.0000   1.0000
     1.0000   1.0000   1.0000   1.0000   1.0000   1.0000   1.0000   1.0000
     1.0000   1.0000   1.0000   1.0000   1.0000   1.0000   1.0000   1.0000
     1.0000   1.0000   1.0000   1.0000   1.0000   1.0000   1.0000   1.0000
     1.0000   1.0000   1.0000   1.0000   1.0000   1.0000   1.0000   1.0000
     1.0000   1.0000   1.0000   1.0000   1.0000   1.0000   1.0000   1.0000
     1.0000   1.0000   1.0000   1.0000   1.0000   1.0000   1.0000   1.0000
     1.0000   1.0000   1.0000   1.0000   1.0000   1.0000   1.0000   1.0000
     1.0000   1.0000   1.0000   1.0000   1.0000   1.0000   1.0000   1.0000
     1.0000   1.0000   1.0000   1.0000   1.0000   1.0000   1.0000   1.0000
     1.0000   1.0000   1.0000   1.0000   1.0000   1.0000   1.0000   1.0000
     1.0000   1.0000   1.0000   1.0000   1.0000   1.0000   1.0000   1.0000
     1.0000   1.0000   1.0000   1.0000   1.0000   1.0000   1.0000   1.0000
     1.0000   1.0000   1.0000   1.0000   1.0000   1.0000   1.0000   1.0000
     1.0000   1.0000   1.0000   1.0000   1.0000   1.0000   1.0000   1.0000
     1.0000   1.0000   1.0000   1.0000   1.0000   1.0000   1.0000   1.0000
     1.0000   1.0000   1.0000   1.0000   1.0000   1.0000   1.0000   1.0000
     1.0000   1.0000   1.0000   1.0000   1.0000   1.0000   1.0000   1.0000
     1.0000   1.0000   1.0000   1.0000   1.0000   1.0000   1.0000   1.0000
     1.0000   1.0000   1.0000   1.0000   1.0000   1.0000   1.0000   1.0000
     1.0000   1.0000   1.0000   1.0000   1.0000   1.0000   1.0000   1.0000
     1.0000   1.0000   1.0000   1.0000   1.0000   1.0000   1.0000   1.0000
     1.0000   1.0000   1.0000   1.0000   1.0000   1.0000   1.0000   1.0000
     1.0000   1.0000   1.0000   1.0000   1.0000   1.0000   1.0000   1.0000
     1.0000   1.0000   1.0000   1.0000   1.0000   1.0000   1.0000   1.0000
     1.0000   1.0000   1.0000   1.0000   1.0000   1.0000   1.0000   1.0000
     1.0000   1.0000   1.0000   1.0000   1.0000   1.0000   1.0000   1.0000
     1.0000   1.0000   1.0000   1.0000   1.0000   1.0000   1.0000   1.0000
     1.0000   1.0000   1.0000   1.0000   1.0000   1.0000   1.0000   1.0000
     1.0000   1.0000   1.0000   1.0000   1.0000   1.0000   1.0000   1.0000
     1.0000   1.0000   1.0000   1.0000   1.0000   1.0000   1.0000   1.0000
     1.0000   1.0000   1.0000   1.0000   1.0000   1.0000   1.0000   1.0000
     1.0000   1.0000   1.0000   1.0000   1.0000   1.0000   1.0000   1.0000
     1.0000   1.0000   1.0000   1.0000   1.0000   1.0000   1.0000   1.0000
     1.0000   1.0000   1.0000   1.0000   1.0000   1.0000   1.0000   1.0000
     1.0000   1.0000   1.0000   1.0000   1.0000   1.0000   1.0000   1.0000
     1.0000   1.0000   1.0000   1.0000   1.0000   1.0000   1.0000   1.0000
     1.0000   1.0000   1.0000   1.0000   1.0000   1.0000   1.0000   1.0000
     1.0000   1.0000   1.0000   1.0000   1.0000   1.0000   1.0000   1.0000
     1.0000   1.0000   1.0000   1.0000   1.0000   1.0000   1.0000   1.0000
     1.0000   1.0000   1.0000   1.0000   1.0000   1.0000   1.0000   1.0000
     1.0000   1.0000   1.0000   1.0000   0.9999   0.9999   0.9996   0.9989
     0.9978   0.9978   0.9976   0.9975   0.9975   0.9805   0.9769   0.9765
     0.9382   0.9376   0.9149   0.6737   0.6559   0.4425   0.4125   0.4032
     0.2803   0.2788   0.2774   0.2625   0.2589   0.2558   0.2480   0.2444
     0.2308   0.1530   0.1509   0.1474   0.0248   0.0067   0.0067   0.0062
     0.0034   0.0033   0.0029   0.0028   0.0027   0.0027   0.0025   0.0023
     0.0023   0.0023   0.0022   0.0000   0.0000   0.0000   0.0000   0.0000
     0.0000   0.0000   0.0000   0.0000   0.0000   0.0000   0.0000   0.0000
     0.0000   0.0000   0.0000   0.0000   0.0000   0.0000   0.0000   0.0000
     0.0000   0.0000   0.0000   0.0000   0.0000   0.0000   0.0000   0.0000
     0.0000   0.0000   0.0000   0.0000   0.0000   0.0000   0.0000   0.0000
     0.0000   0.0000   0.0000   0.0000   0.0000   0.0000   0.0000   0.0000
     0.0000   0.0000   0.0000   0.0000   0.0000   0.0000   0.0000   0.0000
     0.0000   0.0000   0.0000   0.0000   0.0000   0.0000   0.0000   0.0000
     0.0000   0.0000   0.0000   0.0000   0.0000   0.0000   0.0000   0.0000
     0.0000   0.0000   0.0000   0.0000   0.0000   0.0000   0.0000   0.0000
     0.0000   0.0000   0.0000   0.0000   0.0000   0.0000   0.0000   0.0000
     0.0000   0.0000   0.0000   0.0000   0.0000   0.0000   0.0000   0.0000
     0.0000   0.0000   0.0000   0.0000   0.0000   0.0000   0.0000   0.0000

          k = 0.0000 0.2887 0.0000 (156705 PWs)   bands (ev):

   -94.3793 -94.3739 -94.3718 -94.3702 -94.3654 -94.3649 -94.3611 -94.3605
   -94.3601 -94.3577 -94.3552 -94.3526 -94.3522 -94.3511 -94.3496 -94.3469
   -94.3464 -94.3444 -94.3438 -94.3430 -94.3425 -94.3419 -94.3411 -94.3399
   -94.3390 -94.3385 -94.3274 -94.3270 -94.3262 -94.3201 -94.3129 -94.3127
   -93.9206 -93.9169 -93.9159 -93.9142 -93.9137 -93.9131 -93.9126 -93.9102
   -93.9101 -93.9095 -93.9086 -93.9085 -93.9061 -93.9059 -93.9052 -93.9041
   -93.9036 -93.9034 -93.9019 -93.9009 -93.9000 -93.8982 -93.8962 -93.8962
   -93.8947 -93.8943 -93.8914 -93.8908 -93.8895 -93.8890 -93.8889 -93.7709
   -48.6810 -48.6784 -48.6755 -48.6578 -48.6565 -48.6530 -48.6417 -48.6388
   -48.6344 -48.6329 -48.6321 -48.6247 -48.6225 -48.6209 -48.6191 -48.6149
   -48.6132 -48.6118 -48.6081 -48.6071 -48.6060 -48.6030 -48.5934 -48.5890
   -48.5859 -48.5812 -48.5666 -48.5629 -48.5475 -48.5461 -48.5269 -48.5264
   -48.5253 -48.5228 -48.5167 -48.5136 -48.5119 -48.5099 -48.5067 -48.5047
   -48.5035 -48.5017 -48.5012 -48.4972 -48.4875 -48.4868 -48.4801 -48.4722
   -48.4696 -48.4686 -48.4658 -48.4645 -48.4632 -48.4628 -48.4582 -48.4540
   -48.4536 -48.4504 -48.4470 -48.4460 -48.4449 -48.4443 -48.4418 -48.4386
   -48.4362 -48.4336 -48.4326 -48.4322 -48.4299 -48.4278 -48.4276 -48.4240
   -48.4221 -48.4218 -48.4204 -48.4187 -48.4152 -48.4125 -48.4118 -48.4055
   -48.4036 -48.4025 -48.3951 -48.3923 -48.3910 -48.3893 -48.3836 -48.3806
   -48.3775 -48.3731 -48.3687 -48.3670 -48.3643 -48.3552 -48.3445 -48.3358
   -48.2843 -48.2828 -48.2793 -48.2774 -48.2692 -48.2666 -48.2502 -48.2477
   -48.2438 -48.2429 -48.2418 -48.2403 -48.2332 -48.2298 -48.2276 -48.2269
   -48.2157 -48.2132 -48.2055 -48.1897 -48.1808 -48.1804 -48.1693 -48.1683
   -48.1581 -48.1580 -48.1495 -48.1429 -48.1274 -48.1272 -48.1235 -48.1228
   -48.1204 -48.1162 -48.1100 -48.1093 -48.1044 -48.1042 -48.0963 -48.0930
   -48.0889 -48.0869 -48.0856 -48.0854 -48.0764 -48.0749 -48.0635 -48.0623
   -48.0567 -48.0548 -48.0544 -48.0475 -48.0408 -48.0397 -48.0391 -48.0388
   -48.0290 -48.0282 -48.0168 -48.0138 -48.0081 -48.0066 -47.9532 -47.9508
   -47.8565 -47.8490 -47.8479 -47.8458 -47.8441 -47.8428 -47.8418 -47.8398
   -47.8397 -47.8370 -47.8367 -47.8357 -47.8332 -47.8331 -47.8309 -47.8304
   -47.8304 -47.8299 -47.8279 -47.8254 -47.8249 -47.8214 -47.8182 -47.8181
   -47.8147 -47.8146 -47.8105 -47.8102 -47.8049 -47.8046 -47.8040 -47.7425
    -7.2802  -4.9050  -3.9409  -3.6083  -3.5213  -3.5112  -2.8596  -2.8533
    -2.7160  -2.6795  -2.5012  -2.4209  -2.3728  -2.3542  -2.3080  -2.2158
    -2.2105  -2.0981  -2.0459  -2.0396  -1.9861  -1.9796  -1.9622  -1.7996
    -1.7963  -1.6836  -1.6492  -1.6460  -1.6319  -1.6180  -1.6160  -1.5570
    -1.4866  -1.4851  -1.4607  -1.4521  -1.4431  -1.4324  -1.4271  -1.4147
    -1.3557  -1.3536  -1.3439  -1.3376  -1.3193  -1.3157  -1.2907  -1.2491
    -1.2460  -1.2291  -1.2284  -1.2223  -1.2035  -1.1525  -1.0767  -1.0760
    -1.0408  -1.0376  -0.9959  -0.9849  -0.9427  -0.8608  -0.8525  -0.8495
    -0.8455  -0.8233  -0.8075  -0.7504  -0.7492  -0.5944  -0.5847  -0.5636
    -0.5630  -0.5455  -0.5366  -0.5299  -0.4859  -0.4746  -0.4203  -0.4150
    -0.3931  -0.3875  -0.3593  -0.3424  -0.2626  -0.2515  -0.2303  -0.2215
    -0.1995  -0.1899  -0.1567  -0.1437  -0.1327  -0.1309  -0.0855  -0.0674
    -0.0447  -0.0416   0.0029   0.0213   0.0439   0.0518   0.0656   0.0726
     0.1097   0.1392   0.1492   0.1947   0.3095   0.3158   0.3294   0.3329
     0.3793   0.4409   0.4469   0.4487   0.4567   0.4752   0.4987   0.5122
     0.5247   0.5323   0.5335   0.5384   0.5465   0.5542   0.5637   0.5822
     0.6187   0.6382   0.6479   0.6799   0.6940   0.7059   0.7205   0.7241
     0.7513   0.7769   0.7853   0.8616   0.8635   0.8754   0.8877   0.9150
     0.9457   0.9484   0.9578   0.9604   0.9698   0.9770   0.9877   1.0255
     1.0356   1.0936   1.1012   1.1036   1.1148   1.1188   1.1198   1.1351
     1.1589   1.1760   1.1932   1.1974   1.2044   1.2128   1.2332   1.2450
     1.2595   1.2759   1.2764   1.2946   1.3261   1.3282   1.3478   1.3540
     1.3677   1.3787   1.3802   1.3969   1.4259   1.4420   1.4437   1.4495
     1.4578   1.4594   1.4755   1.4908   1.4925   1.5127   1.5353   1.5486
     1.5940   1.6246   1.6456   1.6466   1.6656   1.6854   1.7389   1.7518
     1.7640   1.7679   1.8222   1.8396   1.8432   1.8520   1.8711   1.8871
     1.9283   1.9851   2.0240   2.0327   2.0399   2.0404   2.0573   2.0805
     2.0864   2.0963   2.1025   2.1034   2.1184   2.1394   2.1554   2.1700
     2.1705   2.1924   2.2494   2.2562   2.2926   2.3378   2.3410   2.4403
     2.4424   2.4703   2.5290   2.5487   2.5569   2.5666   2.5708   2.5737
     2.6087   2.6229   2.6457   2.6526   2.7012   2.7419   2.7487   2.7613
     2.7648   2.7739   2.7854   2.7908   2.8338   2.9162   2.9260   2.9283
     2.9346   2.9508   2.9623   2.9719   2.9763   2.9870   3.0086   3.0169
     3.0451   3.0546   3.0805   3.0815   3.0906   3.1011   3.1040   3.1089
     3.1293   3.1546   3.1797   3.1815   3.2141   3.2307   3.2352   3.2471
     3.2507   3.2903   3.2995   3.3971   3.4187   3.4261   3.4290   3.4938
     3.5116   3.5329   3.5389   3.5787   3.5811   3.5908   3.5969   3.6108
     3.6412   3.6656   3.7097   3.7224   3.7629   3.7949   3.7951   3.8007
     3.8499   3.8588   3.9044   3.9424   3.9554   3.9649   3.9763   3.9833
     3.9952   4.0029   4.0259   4.0343   4.0365   4.0550   4.0575   4.0683
     4.1049   4.1054   4.1169   4.1413   4.1466   4.1619   4.2320   4.2407
     4.2482   4.2584   4.2632   4.2839   4.2901   4.2945   4.3396   4.3531
     4.3646   4.3773   4.3852   4.4315   4.4320   4.4447   4.4835   4.6772
     4.7249   4.8084   5.0304   5.0325   5.2222   5.2603   5.2741   5.3011
     5.4907   5.5025   5.6196   5.8715   5.9868   5.9899   6.1441   6.1808
     6.2806   6.3300   6.3365   6.3471   6.3493   6.4872   6.4925   6.8260
     6.8521   6.8605   6.8857   7.0738   7.0756   7.0872   7.5921   7.6106
     7.6758   7.8848   7.8932   7.9151   7.9285   8.2462   8.3265   8.3269
     8.3481   8.3825   8.8935   9.1166   9.1203   9.1863   9.3724   9.4118
     9.4737   9.5002   9.6420   9.6434   9.6618   9.7257   9.7411   9.7664
     9.7808   9.7964   9.9431  10.0111  10.0236  10.0347  10.0759  10.3162
    10.3192  10.3234  10.3246  10.3375  10.3397  10.3505  10.3752  10.5652
    10.6405  10.6681  10.6960  10.7818  10.8865  10.9041  10.9476  10.9675
    10.9784  11.0553  11.0873  11.1340  11.1431  11.1843  11.1895  11.2645
    11.2670  11.2931  11.3035  11.3299  11.3533  11.4762  11.5804  11.7055

     occupation numbers 
     1.0000   1.0000   1.0000   1.0000   1.0000   1.0000   1.0000   1.0000
     1.0000   1.0000   1.0000   1.0000   1.0000   1.0000   1.0000   1.0000
     1.0000   1.0000   1.0000   1.0000   1.0000   1.0000   1.0000   1.0000
     1.0000   1.0000   1.0000   1.0000   1.0000   1.0000   1.0000   1.0000
     1.0000   1.0000   1.0000   1.0000   1.0000   1.0000   1.0000   1.0000
     1.0000   1.0000   1.0000   1.0000   1.0000   1.0000   1.0000   1.0000
     1.0000   1.0000   1.0000   1.0000   1.0000   1.0000   1.0000   1.0000
     1.0000   1.0000   1.0000   1.0000   1.0000   1.0000   1.0000   1.0000
     1.0000   1.0000   1.0000   1.0000   1.0000   1.0000   1.0000   1.0000
     1.0000   1.0000   1.0000   1.0000   1.0000   1.0000   1.0000   1.0000
     1.0000   1.0000   1.0000   1.0000   1.0000   1.0000   1.0000   1.0000
     1.0000   1.0000   1.0000   1.0000   1.0000   1.0000   1.0000   1.0000
     1.0000   1.0000   1.0000   1.0000   1.0000   1.0000   1.0000   1.0000
     1.0000   1.0000   1.0000   1.0000   1.0000   1.0000   1.0000   1.0000
     1.0000   1.0000   1.0000   1.0000   1.0000   1.0000   1.0000   1.0000
     1.0000   1.0000   1.0000   1.0000   1.0000   1.0000   1.0000   1.0000
     1.0000   1.0000   1.0000   1.0000   1.0000   1.0000   1.0000   1.0000
     1.0000   1.0000   1.0000   1.0000   1.0000   1.0000   1.0000   1.0000
     1.0000   1.0000   1.0000   1.0000   1.0000   1.0000   1.0000   1.0000
     1.0000   1.0000   1.0000   1.0000   1.0000   1.0000   1.0000   1.0000
     1.0000   1.0000   1.0000   1.0000   1.0000   1.0000   1.0000   1.0000
     1.0000   1.0000   1.0000   1.0000   1.0000   1.0000   1.0000   1.0000
     1.0000   1.0000   1.0000   1.0000   1.0000   1.0000   1.0000   1.0000
     1.0000   1.0000   1.0000   1.0000   1.0000   1.0000   1.0000   1.0000
     1.0000   1.0000   1.0000   1.0000   1.0000   1.0000   1.0000   1.0000
     1.0000   1.0000   1.0000   1.0000   1.0000   1.0000   1.0000   1.0000
     1.0000   1.0000   1.0000   1.0000   1.0000   1.0000   1.0000   1.0000
     1.0000   1.0000   1.0000   1.0000   1.0000   1.0000   1.0000   1.0000
     1.0000   1.0000   1.0000   1.0000   1.0000   1.0000   1.0000   1.0000
     1.0000   1.0000   1.0000   1.0000   1.0000   1.0000   1.0000   1.0000
     1.0000   1.0000   1.0000   1.0000   1.0000   1.0000   1.0000   1.0000
     1.0000   1.0000   1.0000   1.0000   1.0000   1.0000   1.0000   1.0000
     1.0000   1.0000   1.0000   1.0000   1.0000   1.0000   1.0000   1.0000
     1.0000   1.0000   1.0000   1.0000   1.0000   1.0000   1.0000   1.0000
     1.0000   1.0000   1.0000   1.0000   1.0000   1.0000   1.0000   1.0000
     1.0000   1.0000   1.0000   1.0000   1.0000   1.0000   1.0000   1.0000
     1.0000   1.0000   1.0000   1.0000   1.0000   1.0000   1.0000   1.0000
     1.0000   1.0000   1.0000   1.0000   1.0000   1.0000   1.0000   1.0000
     1.0000   1.0000   1.0000   1.0000   1.0000   1.0000   1.0000   1.0000
     1.0000   1.0000   1.0000   1.0000   1.0000   1.0000   1.0000   1.0000
     1.0000   1.0000   1.0000   1.0000   1.0000   1.0000   1.0000   1.0000
     1.0000   1.0000   1.0000   1.0000   1.0000   1.0000   1.0000   1.0000
     1.0000   1.0000   1.0000   1.0000   1.0000   1.0000   1.0000   1.0000
     1.0000   1.0000   1.0000   1.0000   1.0000   1.0000   1.0000   1.0000
     1.0000   1.0000   1.0000   1.0000   1.0000   1.0000   1.0000   1.0000
     1.0000   1.0000   1.0000   1.0000   1.0000   1.0000   1.0000   1.0000
     1.0000   1.0000   1.0000   1.0000   1.0000   1.0000   1.0000   1.0000
     1.0000   1.0000   1.0000   1.0000   1.0000   1.0000   1.0000   1.0000
     1.0000   1.0000   1.0000   1.0000   1.0000   1.0000   1.0000   1.0000
     1.0000   1.0000   1.0000   1.0000   1.0000   1.0000   1.0000   1.0000
     1.0000   1.0000   1.0000   1.0000   1.0000   1.0000   1.0000   1.0000
     1.0000   1.0000   1.0000   1.0000   1.0000   1.0000   1.0000   1.0000
     1.0000   1.0000   1.0000   1.0000   1.0000   1.0000   1.0000   1.0000
     1.0000   1.0000   1.0000   1.0000   1.0000   1.0000   1.0000   1.0000
     1.0000   1.0000   1.0000   1.0000   1.0000   1.0000   1.0000   1.0000
     1.0000   1.0000   1.0000   1.0000   1.0000   1.0000   1.0000   1.0000
     1.0000   1.0000   1.0000   1.0000   1.0000   1.0000   1.0000   1.0000
     1.0000   1.0000   1.0000   1.0000   1.0000   1.0000   1.0000   1.0000
     1.0000   1.0000   1.0000   1.0000   1.0000   1.0000   1.0000   1.0000
     1.0000   1.0000   1.0000   1.0000   1.0000   1.0000   1.0000   1.0000
     1.0000   1.0000   1.0000   1.0000   1.0000   1.0000   1.0000   1.0000
     1.0000   1.0000   1.0000   1.0000   1.0000   1.0000   1.0000   1.0000
     1.0000   1.0000   1.0000   1.0000   1.0000   1.0000   1.0000   1.0000
     1.0000   1.0000   1.0000   1.0000   1.0000   1.0000   1.0000   1.0000
     1.0000   1.0000   1.0000   1.0000   1.0000   1.0000   1.0000   1.0000
     1.0000   1.0000   1.0000   1.0000   1.0000   1.0000   1.0000   1.0000
     1.0000   1.0000   1.0000   1.0000   1.0000   1.0000   1.0000   1.0000
     1.0000   1.0000   1.0000   1.0000   1.0000   1.0000   1.0000   1.0000
     1.0000   1.0000   1.0000   1.0000   1.0000   1.0000   0.9999   0.9999
     0.9999   0.9998   0.9995   0.9993   0.9985   0.9971   0.9971   0.9967
     0.9913   0.9897   0.9746   0.9473   0.9328   0.9198   0.9012   0.8881
     0.8621   0.8428   0.7720   0.7409   0.7324   0.6540   0.6428   0.5918
     0.4108   0.4082   0.3540   0.2519   0.2323   0.1824   0.0520   0.0441
     0.0382   0.0314   0.0286   0.0191   0.0169   0.0155   0.0063   0.0049
     0.0039   0.0030   0.0026   0.0010   0.0010   0.0008   0.0004   0.0000
     0.0000   0.0000   0.0000   0.0000   0.0000   0.0000   0.0000   0.0000
     0.0000   0.0000   0.0000   0.0000   0.0000   0.0000   0.0000   0.0000
     0.0000   0.0000   0.0000   0.0000   0.0000   0.0000   0.0000   0.0000
     0.0000   0.0000   0.0000   0.0000   0.0000   0.0000   0.0000   0.0000
     0.0000   0.0000   0.0000   0.0000   0.0000   0.0000   0.0000   0.0000
     0.0000   0.0000   0.0000   0.0000   0.0000   0.0000   0.0000   0.0000
     0.0000   0.0000   0.0000   0.0000   0.0000   0.0000   0.0000   0.0000
     0.0000   0.0000   0.0000   0.0000   0.0000   0.0000   0.0000   0.0000
     0.0000   0.0000   0.0000   0.0000   0.0000   0.0000   0.0000   0.0000
     0.0000   0.0000   0.0000   0.0000   0.0000   0.0000   0.0000   0.0000
     0.0000   0.0000   0.0000   0.0000   0.0000   0.0000   0.0000   0.0000
     0.0000   0.0000   0.0000   0.0000   0.0000   0.0000   0.0000   0.0000

          k = 0.0000-0.5774 0.0000 (156724 PWs)   bands (ev):

   -94.3790 -94.3748 -94.3719 -94.3693 -94.3659 -94.3648 -94.3609 -94.3605
   -94.3599 -94.3579 -94.3544 -94.3537 -94.3523 -94.3512 -94.3496 -94.3465
   -94.3459 -94.3447 -94.3439 -94.3431 -94.3425 -94.3424 -94.3409 -94.3398
   -94.3391 -94.3384 -94.3273 -94.3270 -94.3262 -94.3201 -94.3129 -94.3127
   -93.9196 -93.9175 -93.9166 -93.9145 -93.9141 -93.9134 -93.9127 -93.9095
   -93.9088 -93.9087 -93.9083 -93.9081 -93.9072 -93.9065 -93.9054 -93.9042
   -93.9038 -93.9035 -93.9017 -93.9010 -93.8995 -93.8987 -93.8962 -93.8962
   -93.8947 -93.8934 -93.8922 -93.8909 -93.8895 -93.8889 -93.8888 -93.7709
   -48.6671 -48.6641 -48.6605 -48.6586 -48.6482 -48.6449 -48.6436 -48.6418
   -48.6401 -48.6392 -48.6330 -48.6319 -48.6304 -48.6279 -48.6235 -48.6206
   -48.6150 -48.6141 -48.6098 -48.6091 -48.6067 -48.5967 -48.5941 -48.5908
   -48.5892 -48.5875 -48.5841 -48.5754 -48.5563 -48.5531 -48.5246 -48.5229
   -48.5221 -48.5204 -48.5203 -48.5162 -48.5137 -48.5119 -48.5104 -48.5081
   -48.5044 -48.5006 -48.4997 -48.4953 -48.4845 -48.4836 -48.4804 -48.4771
   -48.4672 -48.4651 -48.4585 -48.4582 -48.4524 -48.4518 -48.4494 -48.4478
   -48.4467 -48.4451 -48.4427 -48.4419 -48.4408 -48.4404 -48.4395 -48.4384
   -48.4379 -48.4331 -48.4323 -48.4305 -48.4298 -48.4278 -48.4272 -48.4257
   -48.4256 -48.4229 -48.4214 -48.4139 -48.4094 -48.4061 -48.4053 -48.4036
   -48.4025 -48.3996 -48.3990 -48.3973 -48.3948 -48.3896 -48.3849 -48.3824
   -48.3808 -48.3802 -48.3777 -48.3723 -48.3705 -48.3581 -48.3491 -48.3392
   -48.2700 -48.2690 -48.2685 -48.2656 -48.2633 -48.2619 -48.2592 -48.2517
   -48.2494 -48.2488 -48.2442 -48.2427 -48.2411 -48.2378 -48.2373 -48.2222
   -48.2083 -48.2080 -48.2071 -48.2061 -48.2042 -48.1996 -48.1891 -48.1810
   -48.1680 -48.1678 -48.1612 -48.1492 -48.1171 -48.1170 -48.1109 -48.1037
   -48.1036 -48.1030 -48.1022 -48.1007 -48.0941 -48.0937 -48.0873 -48.0859
   -48.0769 -48.0766 -48.0761 -48.0751 -48.0741 -48.0694 -48.0691 -48.0671
   -48.0647 -48.0607 -48.0596 -48.0501 -48.0482 -48.0402 -48.0397 -48.0387
   -48.0341 -48.0327 -48.0319 -48.0174 -48.0150 -48.0067 -47.9560 -47.9515
   -47.8545 -47.8519 -47.8474 -47.8463 -47.8446 -47.8437 -47.8420 -47.8374
   -47.8371 -47.8369 -47.8362 -47.8355 -47.8351 -47.8343 -47.8313 -47.8306
   -47.8305 -47.8301 -47.8274 -47.8256 -47.8244 -47.8214 -47.8181 -47.8180
   -47.8145 -47.8142 -47.8110 -47.8105 -47.8047 -47.8045 -47.8041 -47.7425
    -7.2802  -4.5337  -4.5130  -3.6069  -3.5971  -3.2477  -3.2317  -2.4197
    -2.4068  -2.3933  -2.3766  -2.3453  -2.3313  -2.3301  -2.3240  -2.1388
    -2.1251  -2.0809  -2.0609  -2.0091  -1.9955  -1.9747  -1.9661  -1.9501
    -1.9491  -1.7976  -1.7881  -1.7760  -1.7744  -1.6879  -1.6809  -1.6677
    -1.6563  -1.5160  -1.5054  -1.4436  -1.4361  -1.4266  -1.4237  -1.4070
    -1.3847  -1.3338  -1.3318  -1.3196  -1.3056  -1.2949  -1.2886  -1.2163
    -1.2116  -1.1762  -1.1755  -1.1618  -1.1581  -1.1493  -1.1257  -1.1089
    -1.1064  -1.0838  -1.0790  -0.9798  -0.9725  -0.9710  -0.9555  -0.9295
    -0.9253  -0.9017  -0.8816  -0.7915  -0.7786  -0.5933  -0.5837  -0.5626
    -0.5604  -0.5462  -0.5451  -0.5324  -0.5251  -0.4899  -0.4810  -0.4561
    -0.4456  -0.4348  -0.4238  -0.4224  -0.4000  -0.2391  -0.2373  -0.2291
    -0.2236  -0.2007  -0.1917  -0.1662  -0.1658  -0.1259  -0.0979  -0.0867
    -0.0659  -0.0264   0.0026   0.0900   0.0942   0.1034   0.1174   0.1357
     0.1462   0.1478   0.1609   0.1680   0.1756   0.3194   0.3365   0.3416
     0.3451   0.3453   0.3610   0.4108   0.4115   0.4323   0.4408   0.4978
     0.5048   0.5314   0.5563   0.6256   0.6308   0.6432   0.6571   0.7004
     0.7063   0.7168   0.7403   0.7491   0.7560   0.7936   0.8000   0.8228
     0.8252   0.8330   0.8424   0.9167   0.9243   0.9430   0.9438   0.9459
     0.9494   0.9541   0.9693   0.9785   0.9856   0.9866   1.0073   1.0388
     1.0452   1.0555   1.0568   1.0649   1.0695   1.0763   1.0880   1.0935
     1.1165   1.1330   1.1347   1.1384   1.1412   1.1462   1.1544   1.1671
     1.1832   1.1859   1.1969   1.1982   1.2211   1.2582   1.2841   1.2921
     1.2990   1.3032   1.3135   1.3227   1.3541   1.3742   1.3929   1.4014
     1.4164   1.4184   1.4551   1.5101   1.5295   1.5866   1.5986   1.6063
     1.6271   1.6496   1.6823   1.7087   1.7168   1.7286   1.7338   1.7352
     1.7549   1.8017   1.8328   1.9817   1.9832   2.0199   2.0287   2.0597
     2.0628   2.0685   2.0777   2.1195   2.1220   2.1291   2.1316   2.1394
     2.1599   2.1683   2.1778   2.1879   2.2129   2.3104   2.3322   2.3887
     2.3936   2.4011   2.4049   2.4211   2.4316   2.4373   2.4428   2.5011
     2.5082   2.5240   2.5334   2.5545   2.5666   2.5911   2.5922   2.6349
     2.6390   2.6564   2.6684   2.7153   2.7326   2.7376   2.7453   2.8143
     2.8166   2.8257   2.8374   2.8564   2.8658   2.8719   2.8772   2.9504
     2.9629   2.9704   2.9856   2.9865   2.9950   2.9957   2.9997   3.0058
     3.0370   3.0715   3.0725   3.0860   3.0909   3.0997   3.1076   3.2425
     3.2531   3.2939   3.3238   3.3924   3.4504   3.4565   3.4625   3.4640
     3.4683   3.4871   3.4996   3.5034   3.5046   3.5159   3.5177   3.5707
     3.6004   3.6065   3.6191   3.6234   3.6238   3.6274   3.6338   3.6392
     3.6491   3.6669   3.6673   3.6738   3.6804   3.6868   3.6968   3.7697
     3.7891   3.7955   3.8416   3.8420   3.8482   3.8546   3.8629   3.8681
     3.8795   3.8938   3.8998   3.9584   3.9655   3.9777   3.9862   3.9961
     3.9972   4.0050   4.0106   4.0495   4.0724   4.0826   4.0944   4.0972
     4.1057   4.1082   4.1126   4.1242   4.1273   4.1371   4.1411   4.1891
     4.1931   4.2018   4.2065   4.2369   4.2468   4.3132   4.3521   4.3542
     4.3800   4.3839   4.3848   4.8832   5.0833   5.2239   5.3024   5.3061
     5.3218   5.3605   5.3884   5.6327   5.8442   5.8505   5.8543   5.8567
     6.1055   6.1990   6.3389   6.3475   6.3483   6.3581   6.5450   6.6607
     7.3208   7.3304   7.3401   7.3483   7.4235   7.4385   7.4577   7.4911
     7.7903   7.8121   8.1744   8.1897   8.2064   8.2525   8.2941   8.3110
     8.9596   8.9843   8.9869   8.9993   9.0948   9.2025   9.2154   9.2758
     9.2830   9.2994   9.4694   9.4728   9.7616   9.7806   9.7864   9.7886
     9.9371   9.9541  10.0303  10.0425  10.0581  10.0845  10.1673  10.2216
    10.2227  10.2336  10.2374  10.2721  10.3857  10.4058  10.4139  10.4152
    10.4264  10.4349  10.5822  10.6101  10.7797  10.7861  10.8683  10.8799
    11.1010  11.1934  11.2153  11.3050  11.3779  11.3884  11.4037  11.4235
    11.4300  11.4405  11.4608  11.4646  11.5360  11.6004  11.6897  11.7489

     occupation numbers 
     1.0000   1.0000   1.0000   1.0000   1.0000   1.0000   1.0000   1.0000
     1.0000   1.0000   1.0000   1.0000   1.0000   1.0000   1.0000   1.0000
     1.0000   1.0000   1.0000   1.0000   1.0000   1.0000   1.0000   1.0000
     1.0000   1.0000   1.0000   1.0000   1.0000   1.0000   1.0000   1.0000
     1.0000   1.0000   1.0000   1.0000   1.0000   1.0000   1.0000   1.0000
     1.0000   1.0000   1.0000   1.0000   1.0000   1.0000   1.0000   1.0000
     1.0000   1.0000   1.0000   1.0000   1.0000   1.0000   1.0000   1.0000
     1.0000   1.0000   1.0000   1.0000   1.0000   1.0000   1.0000   1.0000
     1.0000   1.0000   1.0000   1.0000   1.0000   1.0000   1.0000   1.0000
     1.0000   1.0000   1.0000   1.0000   1.0000   1.0000   1.0000   1.0000
     1.0000   1.0000   1.0000   1.0000   1.0000   1.0000   1.0000   1.0000
     1.0000   1.0000   1.0000   1.0000   1.0000   1.0000   1.0000   1.0000
     1.0000   1.0000   1.0000   1.0000   1.0000   1.0000   1.0000   1.0000
     1.0000   1.0000   1.0000   1.0000   1.0000   1.0000   1.0000   1.0000
     1.0000   1.0000   1.0000   1.0000   1.0000   1.0000   1.0000   1.0000
     1.0000   1.0000   1.0000   1.0000   1.0000   1.0000   1.0000   1.0000
     1.0000   1.0000   1.0000   1.0000   1.0000   1.0000   1.0000   1.0000
     1.0000   1.0000   1.0000   1.0000   1.0000   1.0000   1.0000   1.0000
     1.0000   1.0000   1.0000   1.0000   1.0000   1.0000   1.0000   1.0000
     1.0000   1.0000   1.0000   1.0000   1.0000   1.0000   1.0000   1.0000
     1.0000   1.0000   1.0000   1.0000   1.0000   1.0000   1.0000   1.0000
     1.0000   1.0000   1.0000   1.0000   1.0000   1.0000   1.0000   1.0000
     1.0000   1.0000   1.0000   1.0000   1.0000   1.0000   1.0000   1.0000
     1.0000   1.0000   1.0000   1.0000   1.0000   1.0000   1.0000   1.0000
     1.0000   1.0000   1.0000   1.0000   1.0000   1.0000   1.0000   1.0000
     1.0000   1.0000   1.0000   1.0000   1.0000   1.0000   1.0000   1.0000
     1.0000   1.0000   1.0000   1.0000   1.0000   1.0000   1.0000   1.0000
     1.0000   1.0000   1.0000   1.0000   1.0000   1.0000   1.0000   1.0000
     1.0000   1.0000   1.0000   1.0000   1.0000   1.0000   1.0000   1.0000
     1.0000   1.0000   1.0000   1.0000   1.0000   1.0000   1.0000   1.0000
     1.0000   1.0000   1.0000   1.0000   1.0000   1.0000   1.0000   1.0000
     1.0000   1.0000   1.0000   1.0000   1.0000   1.0000   1.0000   1.0000
     1.0000   1.0000   1.0000   1.0000   1.0000   1.0000   1.0000   1.0000
     1.0000   1.0000   1.0000   1.0000   1.0000   1.0000   1.0000   1.0000
     1.0000   1.0000   1.0000   1.0000   1.0000   1.0000   1.0000   1.0000
     1.0000   1.0000   1.0000   1.0000   1.0000   1.0000   1.0000   1.0000
     1.0000   1.0000   1.0000   1.0000   1.0000   1.0000   1.0000   1.0000
     1.0000   1.0000   1.0000   1.0000   1.0000   1.0000   1.0000   1.0000
     1.0000   1.0000   1.0000   1.0000   1.0000   1.0000   1.0000   1.0000
     1.0000   1.0000   1.0000   1.0000   1.0000   1.0000   1.0000   1.0000
     1.0000   1.0000   1.0000   1.0000   1.0000   1.0000   1.0000   1.0000
     1.0000   1.0000   1.0000   1.0000   1.0000   1.0000   1.0000   1.0000
     1.0000   1.0000   1.0000   1.0000   1.0000   1.0000   1.0000   1.0000
     1.0000   1.0000   1.0000   1.0000   1.0000   1.0000   1.0000   1.0000
     1.0000   1.0000   1.0000   1.0000   1.0000   1.0000   1.0000   1.0000
     1.0000   1.0000   1.0000   1.0000   1.0000   1.0000   1.0000   1.0000
     1.0000   1.0000   1.0000   1.0000   1.0000   1.0000   1.0000   1.0000
     1.0000   1.0000   1.0000   1.0000   1.0000   1.0000   1.0000   1.0000
     1.0000   1.0000   1.0000   1.0000   1.0000   1.0000   1.0000   1.0000
     1.0000   1.0000   1.0000   1.0000   1.0000   1.0000   1.0000   1.0000
     1.0000   1.0000   1.0000   1.0000   1.0000   1.0000   1.0000   1.0000
     1.0000   1.0000   1.0000   1.0000   1.0000   1.0000   1.0000   1.0000
     1.0000   1.0000   1.0000   1.0000   1.0000   1.0000   1.0000   1.0000
     1.0000   1.0000   1.0000   1.0000   1.0000   1.0000   1.0000   1.0000
     1.0000   1.0000   1.0000   1.0000   1.0000   1.0000   1.0000   1.0000
     1.0000   1.0000   1.0000   1.0000   1.0000   1.0000   1.0000   1.0000
     1.0000   1.0000   1.0000   1.0000   1.0000   1.0000   1.0000   1.0000
     1.0000   1.0000   1.0000   1.0000   1.0000   1.0000   1.0000   1.0000
     1.0000   1.0000   1.0000   1.0000   1.0000   1.0000   1.0000   1.0000
     1.0000   1.0000   1.0000   1.0000   1.0000   1.0000   1.0000   1.0000
     1.0000   1.0000   1.0000   1.0000   1.0000   1.0000   1.0000   1.0000
     1.0000   1.0000   1.0000   1.0000   1.0000   1.0000   1.0000   1.0000
     1.0000   1.0000   1.0000   1.0000   1.0000   1.0000   1.0000   1.0000
     1.0000   1.0000   1.0000   1.0000   1.0000   1.0000   1.0000   1.0000
     1.0000   1.0000   1.0000   1.0000   1.0000   1.0000   1.0000   1.0000
     1.0000   1.0000   1.0000   1.0000   1.0000   1.0000   1.0000   1.0000
     1.0000   1.0000   1.0000   1.0000   1.0000   1.0000   1.0000   1.0000
     1.0000   1.0000   1.0000   1.0000   1.0000   1.0000   1.0000   1.0000
     0.9999   0.9999   0.9999   0.9999   0.9999   0.9999   0.9999   0.9999
     0.9998   0.9998   0.9998   0.9997   0.9997   0.9997   0.9996   0.9982
     0.9974   0.9971   0.9926   0.9926   0.9916   0.9905   0.9888   0.9876
     0.9845   0.9794   0.9768   0.9288   0.9189   0.8987   0.8822   0.8599
     0.8574   0.8371   0.8213   0.6788   0.5720   0.5212   0.4625   0.4483
     0.4069   0.3947   0.3740   0.3214   0.3081   0.2681   0.2526   0.1146
     0.1068   0.0912   0.0838   0.0474   0.0392   0.0107   0.0049   0.0047
     0.0028   0.0026   0.0026   0.0000   0.0000   0.0000   0.0000   0.0000
     0.0000   0.0000   0.0000   0.0000   0.0000   0.0000   0.0000   0.0000
     0.0000   0.0000   0.0000   0.0000   0.0000   0.0000   0.0000   0.0000
     0.0000   0.0000   0.0000   0.0000   0.0000   0.0000   0.0000   0.0000
     0.0000   0.0000   0.0000   0.0000   0.0000   0.0000   0.0000   0.0000
     0.0000   0.0000   0.0000   0.0000   0.0000   0.0000   0.0000   0.0000
     0.0000   0.0000   0.0000   0.0000   0.0000   0.0000   0.0000   0.0000
     0.0000   0.0000   0.0000   0.0000   0.0000   0.0000   0.0000   0.0000
     0.0000   0.0000   0.0000   0.0000   0.0000   0.0000   0.0000   0.0000
     0.0000   0.0000   0.0000   0.0000   0.0000   0.0000   0.0000   0.0000
     0.0000   0.0000   0.0000   0.0000   0.0000   0.0000   0.0000   0.0000
     0.0000   0.0000   0.0000   0.0000   0.0000   0.0000   0.0000   0.0000

          k = 0.2500-0.1443 0.0000 (156705 PWs)   bands (ev):

   -94.3793 -94.3738 -94.3719 -94.3701 -94.3654 -94.3648 -94.3611 -94.3604
   -94.3601 -94.3577 -94.3552 -94.3527 -94.3521 -94.3511 -94.3496 -94.3471
   -94.3463 -94.3445 -94.3437 -94.3430 -94.3424 -94.3418 -94.3413 -94.3399
   -94.3389 -94.3386 -94.3274 -94.3270 -94.3262 -94.3201 -94.3129 -94.3127
   -93.9206 -93.9169 -93.9159 -93.9142 -93.9138 -93.9131 -93.9124 -93.9102
   -93.9100 -93.9097 -93.9086 -93.9084 -93.9061 -93.9060 -93.9052 -93.9041
   -93.9036 -93.9034 -93.9019 -93.9009 -93.9000 -93.8982 -93.8962 -93.8962
   -93.8948 -93.8942 -93.8913 -93.8908 -93.8895 -93.8890 -93.8889 -93.7709
   -48.6813 -48.6785 -48.6751 -48.6578 -48.6566 -48.6529 -48.6420 -48.6390
   -48.6341 -48.6326 -48.6321 -48.6248 -48.6226 -48.6210 -48.6191 -48.6148
   -48.6133 -48.6116 -48.6081 -48.6071 -48.6059 -48.6029 -48.5931 -48.5890
   -48.5859 -48.5812 -48.5667 -48.5630 -48.5479 -48.5462 -48.5271 -48.5264
   -48.5251 -48.5225 -48.5166 -48.5138 -48.5119 -48.5099 -48.5067 -48.5047
   -48.5036 -48.5019 -48.5012 -48.4972 -48.4875 -48.4868 -48.4800 -48.4722
   -48.4695 -48.4685 -48.4657 -48.4646 -48.4633 -48.4629 -48.4583 -48.4541
   -48.4536 -48.4507 -48.4469 -48.4458 -48.4449 -48.4442 -48.4417 -48.4386
   -48.4362 -48.4335 -48.4326 -48.4320 -48.4298 -48.4278 -48.4276 -48.4240
   -48.4222 -48.4220 -48.4204 -48.4187 -48.4152 -48.4124 -48.4116 -48.4055
   -48.4033 -48.4026 -48.3953 -48.3922 -48.3911 -48.3893 -48.3837 -48.3805
   -48.3776 -48.3729 -48.3688 -48.3672 -48.3640 -48.3555 -48.3443 -48.3361
   -48.2843 -48.2828 -48.2793 -48.2774 -48.2693 -48.2665 -48.2503 -48.2477
   -48.2439 -48.2428 -48.2418 -48.2403 -48.2332 -48.2297 -48.2276 -48.2269
   -48.2156 -48.2131 -48.2055 -48.1896 -48.1808 -48.1803 -48.1694 -48.1682
   -48.1582 -48.1580 -48.1497 -48.1431 -48.1274 -48.1273 -48.1235 -48.1228
   -48.1206 -48.1162 -48.1100 -48.1091 -48.1045 -48.1041 -48.0962 -48.0931
   -48.0890 -48.0868 -48.0856 -48.0853 -48.0764 -48.0749 -48.0634 -48.0624
   -48.0568 -48.0548 -48.0544 -48.0476 -48.0407 -48.0396 -48.0391 -48.0387
   -48.0290 -48.0283 -48.0167 -48.0137 -48.0082 -48.0067 -47.9531 -47.9509
   -47.8565 -47.8490 -47.8479 -47.8457 -47.8441 -47.8430 -47.8415 -47.8398
   -47.8397 -47.8372 -47.8367 -47.8355 -47.8332 -47.8331 -47.8310 -47.8305
   -47.8304 -47.8299 -47.8279 -47.8254 -47.8249 -47.8214 -47.8182 -47.8181
   -47.8147 -47.8145 -47.8105 -47.8103 -47.8049 -47.8046 -47.8040 -47.7425
    -7.2802  -4.9050  -3.9410  -3.6083  -3.5214  -3.5110  -2.8596  -2.8530
    -2.7160  -2.6800  -2.5012  -2.4210  -2.3728  -2.3542  -2.3086  -2.2157
    -2.2103  -2.0980  -2.0459  -2.0397  -1.9860  -1.9797  -1.9622  -1.7995
    -1.7960  -1.6838  -1.6493  -1.6460  -1.6319  -1.6182  -1.6158  -1.5574
    -1.4871  -1.4852  -1.4609  -1.4522  -1.4433  -1.4323  -1.4270  -1.4145
    -1.3556  -1.3535  -1.3438  -1.3374  -1.3191  -1.3151  -1.2907  -1.2491
    -1.2460  -1.2289  -1.2283  -1.2221  -1.2030  -1.1526  -1.0768  -1.0759
    -1.0408  -1.0376  -0.9957  -0.9846  -0.9428  -0.8610  -0.8527  -0.8495
    -0.8457  -0.8231  -0.8072  -0.7504  -0.7493  -0.5943  -0.5849  -0.5638
    -0.5631  -0.5456  -0.5364  -0.5301  -0.4859  -0.4745  -0.4208  -0.4153
    -0.3932  -0.3877  -0.3594  -0.3426  -0.2624  -0.2513  -0.2299  -0.2209
    -0.1997  -0.1900  -0.1564  -0.1437  -0.1326  -0.1310  -0.0857  -0.0674
    -0.0450  -0.0419   0.0027   0.0212   0.0440   0.0518   0.0657   0.0727
     0.1099   0.1390   0.1491   0.1947   0.3090   0.3155   0.3297   0.3334
     0.3797   0.4409   0.4470   0.4495   0.4576   0.4761   0.4987   0.5116
     0.5252   0.5323   0.5339   0.5382   0.5464   0.5541   0.5638   0.5827
     0.6187   0.6375   0.6474   0.6797   0.6939   0.7060   0.7199   0.7242
     0.7508   0.7775   0.7853   0.8618   0.8636   0.8753   0.8878   0.9149
     0.9452   0.9483   0.9577   0.9608   0.9699   0.9763   0.9878   1.0253
     1.0356   1.0927   1.1006   1.1032   1.1143   1.1179   1.1196   1.1349
     1.1585   1.1755   1.1925   1.1972   1.2042   1.2126   1.2330   1.2449
     1.2592   1.2760   1.2765   1.2946   1.3265   1.3290   1.3477   1.3545
     1.3681   1.3790   1.3814   1.3972   1.4260   1.4421   1.4436   1.4497
     1.4578   1.4597   1.4762   1.4907   1.4927   1.5127   1.5349   1.5488
     1.5941   1.6245   1.6456   1.6467   1.6657   1.6853   1.7386   1.7513
     1.7637   1.7678   1.8223   1.8396   1.8432   1.8519   1.8712   1.8870
     1.9289   1.9854   2.0248   2.0326   2.0399   2.0404   2.0572   2.0801
     2.0865   2.0964   2.1027   2.1033   2.1186   2.1392   2.1554   2.1703
     2.1706   2.1928   2.2490   2.2561   2.2926   2.3381   2.3414   2.4402
     2.4425   2.4701   2.5302   2.5478   2.5574   2.5668   2.5708   2.5741
     2.6088   2.6231   2.6455   2.6527   2.7011   2.7419   2.7486   2.7608
     2.7643   2.7742   2.7853   2.7909   2.8334   2.9163   2.9259   2.9282
     2.9346   2.9509   2.9617   2.9714   2.9764   2.9871   3.0087   3.0168
     3.0451   3.0547   3.0805   3.0816   3.0906   3.1012   3.1039   3.1089
     3.1295   3.1549   3.1796   3.1818   3.2143   3.2309   3.2355   3.2466
     3.2511   3.2903   3.2996   3.3970   3.4187   3.4260   3.4288   3.4940
     3.5116   3.5328   3.5388   3.5788   3.5813   3.5907   3.5964   3.6109
     3.6408   3.6659   3.7096   3.7223   3.7629   3.7949   3.7953   3.8007
     3.8498   3.8587   3.9044   3.9423   3.9549   3.9650   3.9762   3.9828
     3.9949   4.0027   4.0263   4.0344   4.0370   4.0552   4.0575   4.0688
     4.1055   4.1058   4.1175   4.1415   4.1468   4.1623   4.2321   4.2410
     4.2485   4.2587   4.2640   4.2839   4.2902   4.2948   4.3402   4.3525
     4.3643   4.3767   4.3843   4.4312   4.4318   4.4443   4.4835   4.6770
     4.7246   4.8079   5.0304   5.0324   5.2222   5.2611   5.2742   5.3010
     5.4909   5.5028   5.6192   5.8712   5.9867   5.9898   6.1445   6.1813
     6.2809   6.3297   6.3360   6.3467   6.3492   6.4870   6.4923   6.8260
     6.8517   6.8604   6.8856   7.0738   7.0757   7.0865   7.5922   7.6107
     7.6748   7.8847   7.8934   7.9146   7.9282   8.2468   8.3264   8.3272
     8.3482   8.3831   8.8935   9.1167   9.1201   9.1863   9.3729   9.4123
     9.4739   9.5005   9.6420   9.6439   9.6618   9.7246   9.7404   9.7655
     9.7814   9.7972   9.9431  10.0115  10.0237  10.0345  10.0758  10.3161
    10.3193  10.3231  10.3244  10.3374  10.3399  10.3510  10.3748  10.5651
    10.6405  10.6690  10.6966  10.7816  10.8872  10.9048  10.9477  10.9675
    10.9785  11.0554  11.0875  11.1340  11.1431  11.1831  11.1893  11.2639
    11.2665  11.2933  11.3030  11.3295  11.3529  11.4760  11.5804  11.7051

     occupation numbers 
     1.0000   1.0000   1.0000   1.0000   1.0000   1.0000   1.0000   1.0000
     1.0000   1.0000   1.0000   1.0000   1.0000   1.0000   1.0000   1.0000
     1.0000   1.0000   1.0000   1.0000   1.0000   1.0000   1.0000   1.0000
     1.0000   1.0000   1.0000   1.0000   1.0000   1.0000   1.0000   1.0000
     1.0000   1.0000   1.0000   1.0000   1.0000   1.0000   1.0000   1.0000
     1.0000   1.0000   1.0000   1.0000   1.0000   1.0000   1.0000   1.0000
     1.0000   1.0000   1.0000   1.0000   1.0000   1.0000   1.0000   1.0000
     1.0000   1.0000   1.0000   1.0000   1.0000   1.0000   1.0000   1.0000
     1.0000   1.0000   1.0000   1.0000   1.0000   1.0000   1.0000   1.0000
     1.0000   1.0000   1.0000   1.0000   1.0000   1.0000   1.0000   1.0000
     1.0000   1.0000   1.0000   1.0000   1.0000   1.0000   1.0000   1.0000
     1.0000   1.0000   1.0000   1.0000   1.0000   1.0000   1.0000   1.0000
     1.0000   1.0000   1.0000   1.0000   1.0000   1.0000   1.0000   1.0000
     1.0000   1.0000   1.0000   1.0000   1.0000   1.0000   1.0000   1.0000
     1.0000   1.0000   1.0000   1.0000   1.0000   1.0000   1.0000   1.0000
     1.0000   1.0000   1.0000   1.0000   1.0000   1.0000   1.0000   1.0000
     1.0000   1.0000   1.0000   1.0000   1.0000   1.0000   1.0000   1.0000
     1.0000   1.0000   1.0000   1.0000   1.0000   1.0000   1.0000   1.0000
     1.0000   1.0000   1.0000   1.0000   1.0000   1.0000   1.0000   1.0000
     1.0000   1.0000   1.0000   1.0000   1.0000   1.0000   1.0000   1.0000
     1.0000   1.0000   1.0000   1.0000   1.0000   1.0000   1.0000   1.0000
     1.0000   1.0000   1.0000   1.0000   1.0000   1.0000   1.0000   1.0000
     1.0000   1.0000   1.0000   1.0000   1.0000   1.0000   1.0000   1.0000
     1.0000   1.0000   1.0000   1.0000   1.0000   1.0000   1.0000   1.0000
     1.0000   1.0000   1.0000   1.0000   1.0000   1.0000   1.0000   1.0000
     1.0000   1.0000   1.0000   1.0000   1.0000   1.0000   1.0000   1.0000
     1.0000   1.0000   1.0000   1.0000   1.0000   1.0000   1.0000   1.0000
     1.0000   1.0000   1.0000   1.0000   1.0000   1.0000   1.0000   1.0000
     1.0000   1.0000   1.0000   1.0000   1.0000   1.0000   1.0000   1.0000
     1.0000   1.0000   1.0000   1.0000   1.0000   1.0000   1.0000   1.0000
     1.0000   1.0000   1.0000   1.0000   1.0000   1.0000   1.0000   1.0000
     1.0000   1.0000   1.0000   1.0000   1.0000   1.0000   1.0000   1.0000
     1.0000   1.0000   1.0000   1.0000   1.0000   1.0000   1.0000   1.0000
     1.0000   1.0000   1.0000   1.0000   1.0000   1.0000   1.0000   1.0000
     1.0000   1.0000   1.0000   1.0000   1.0000   1.0000   1.0000   1.0000
     1.0000   1.0000   1.0000   1.0000   1.0000   1.0000   1.0000   1.0000
     1.0000   1.0000   1.0000   1.0000   1.0000   1.0000   1.0000   1.0000
     1.0000   1.0000   1.0000   1.0000   1.0000   1.0000   1.0000   1.0000
     1.0000   1.0000   1.0000   1.0000   1.0000   1.0000   1.0000   1.0000
     1.0000   1.0000   1.0000   1.0000   1.0000   1.0000   1.0000   1.0000
     1.0000   1.0000   1.0000   1.0000   1.0000   1.0000   1.0000   1.0000
     1.0000   1.0000   1.0000   1.0000   1.0000   1.0000   1.0000   1.0000
     1.0000   1.0000   1.0000   1.0000   1.0000   1.0000   1.0000   1.0000
     1.0000   1.0000   1.0000   1.0000   1.0000   1.0000   1.0000   1.0000
     1.0000   1.0000   1.0000   1.0000   1.0000   1.0000   1.0000   1.0000
     1.0000   1.0000   1.0000   1.0000   1.0000   1.0000   1.0000   1.0000
     1.0000   1.0000   1.0000   1.0000   1.0000   1.0000   1.0000   1.0000
     1.0000   1.0000   1.0000   1.0000   1.0000   1.0000   1.0000   1.0000
     1.0000   1.0000   1.0000   1.0000   1.0000   1.0000   1.0000   1.0000
     1.0000   1.0000   1.0000   1.0000   1.0000   1.0000   1.0000   1.0000
     1.0000   1.0000   1.0000   1.0000   1.0000   1.0000   1.0000   1.0000
     1.0000   1.0000   1.0000   1.0000   1.0000   1.0000   1.0000   1.0000
     1.0000   1.0000   1.0000   1.0000   1.0000   1.0000   1.0000   1.0000
     1.0000   1.0000   1.0000   1.0000   1.0000   1.0000   1.0000   1.0000
     1.0000   1.0000   1.0000   1.0000   1.0000   1.0000   1.0000   1.0000
     1.0000   1.0000   1.0000   1.0000   1.0000   1.0000   1.0000   1.0000
     1.0000   1.0000   1.0000   1.0000   1.0000   1.0000   1.0000   1.0000
     1.0000   1.0000   1.0000   1.0000   1.0000   1.0000   1.0000   1.0000
     1.0000   1.0000   1.0000   1.0000   1.0000   1.0000   1.0000   1.0000
     1.0000   1.0000   1.0000   1.0000   1.0000   1.0000   1.0000   1.0000
     1.0000   1.0000   1.0000   1.0000   1.0000   1.0000   1.0000   1.0000
     1.0000   1.0000   1.0000   1.0000   1.0000   1.0000   1.0000   1.0000
     1.0000   1.0000   1.0000   1.0000   1.0000   1.0000   1.0000   1.0000
     1.0000   1.0000   1.0000   1.0000   1.0000   1.0000   1.0000   1.0000
     1.0000   1.0000   1.0000   1.0000   1.0000   1.0000   1.0000   1.0000
     1.0000   1.0000   1.0000   1.0000   1.0000   1.0000   1.0000   1.0000
     1.0000   1.0000   1.0000   1.0000   1.0000   1.0000   1.0000   1.0000
     1.0000   1.0000   1.0000   1.0000   1.0000   1.0000   1.0000   1.0000
     1.0000   1.0000   1.0000   1.0000   1.0000   1.0000   0.9999   0.9999
     0.9999   0.9998   0.9995   0.9993   0.9985   0.9971   0.9971   0.9967
     0.9914   0.9897   0.9746   0.9474   0.9334   0.9196   0.9015   0.8890
     0.8629   0.8433   0.7704   0.7407   0.7305   0.6533   0.6430   0.5892
     0.4078   0.4066   0.3517   0.2513   0.2318   0.1811   0.0519   0.0438
     0.0379   0.0312   0.0281   0.0191   0.0169   0.0154   0.0063   0.0049
     0.0039   0.0030   0.0026   0.0010   0.0010   0.0008   0.0004   0.0000
     0.0000   0.0000   0.0000   0.0000   0.0000   0.0000   0.0000   0.0000
     0.0000   0.0000   0.0000   0.0000   0.0000   0.0000   0.0000   0.0000
     0.0000   0.0000   0.0000   0.0000   0.0000   0.0000   0.0000   0.0000
     0.0000   0.0000   0.0000   0.0000   0.0000   0.0000   0.0000   0.0000
     0.0000   0.0000   0.0000   0.0000   0.0000   0.0000   0.0000   0.0000
     0.0000   0.0000   0.0000   0.0000   0.0000   0.0000   0.0000   0.0000
     0.0000   0.0000   0.0000   0.0000   0.0000   0.0000   0.0000   0.0000
     0.0000   0.0000   0.0000   0.0000   0.0000   0.0000   0.0000   0.0000
     0.0000   0.0000   0.0000   0.0000   0.0000   0.0000   0.0000   0.0000
     0.0000   0.0000   0.0000   0.0000   0.0000   0.0000   0.0000   0.0000
     0.0000   0.0000   0.0000   0.0000   0.0000   0.0000   0.0000   0.0000
     0.0000   0.0000   0.0000   0.0000   0.0000   0.0000   0.0000   0.0000

          k = 0.2500 0.1443 0.0000 (156705 PWs)   bands (ev):

   -94.3793 -94.3736 -94.3722 -94.3700 -94.3654 -94.3648 -94.3612 -94.3603
   -94.3602 -94.3577 -94.3552 -94.3527 -94.3520 -94.3511 -94.3495 -94.3474
   -94.3461 -94.3446 -94.3434 -94.3431 -94.3422 -94.3420 -94.3416 -94.3398
   -94.3388 -94.3387 -94.3274 -94.3269 -94.3262 -94.3201 -94.3129 -94.3127
   -93.9206 -93.9169 -93.9159 -93.9142 -93.9134 -93.9131 -93.9128 -93.9102
   -93.9100 -93.9093 -93.9086 -93.9086 -93.9061 -93.9060 -93.9052 -93.9041
   -93.9037 -93.9033 -93.9020 -93.9009 -93.9000 -93.8982 -93.8962 -93.8962
   -93.8949 -93.8941 -93.8913 -93.8909 -93.8894 -93.8891 -93.8889 -93.7709
   -48.6817 -48.6792 -48.6741 -48.6579 -48.6568 -48.6528 -48.6423 -48.6396
   -48.6336 -48.6320 -48.6318 -48.6249 -48.6228 -48.6210 -48.6193 -48.6146
   -48.6136 -48.6114 -48.6079 -48.6070 -48.6056 -48.6026 -48.5925 -48.5889
   -48.5860 -48.5811 -48.5670 -48.5632 -48.5481 -48.5473 -48.5271 -48.5267
   -48.5244 -48.5218 -48.5164 -48.5142 -48.5116 -48.5098 -48.5068 -48.5048
   -48.5038 -48.5021 -48.5014 -48.4973 -48.4875 -48.4868 -48.4799 -48.4722
   -48.4694 -48.4683 -48.4657 -48.4647 -48.4637 -48.4631 -48.4585 -48.4540
   -48.4538 -48.4514 -48.4467 -48.4455 -48.4449 -48.4441 -48.4416 -48.4385
   -48.4363 -48.4332 -48.4326 -48.4316 -48.4295 -48.4280 -48.4276 -48.4241
   -48.4225 -48.4223 -48.4202 -48.4188 -48.4150 -48.4120 -48.4113 -48.4056
   -48.4027 -48.4026 -48.3959 -48.3920 -48.3915 -48.3890 -48.3840 -48.3803
   -48.3779 -48.3721 -48.3693 -48.3673 -48.3634 -48.3561 -48.3436 -48.3367
   -48.2844 -48.2829 -48.2793 -48.2774 -48.2694 -48.2663 -48.2504 -48.2479
   -48.2441 -48.2427 -48.2417 -48.2403 -48.2331 -48.2294 -48.2275 -48.2268
   -48.2156 -48.2132 -48.2053 -48.1894 -48.1809 -48.1804 -48.1694 -48.1683
   -48.1583 -48.1582 -48.1499 -48.1435 -48.1275 -48.1275 -48.1233 -48.1227
   -48.1208 -48.1162 -48.1096 -48.1092 -48.1045 -48.1042 -48.0961 -48.0931
   -48.0890 -48.0866 -48.0854 -48.0853 -48.0766 -48.0749 -48.0631 -48.0627
   -48.0570 -48.0547 -48.0543 -48.0477 -48.0403 -48.0395 -48.0391 -48.0386
   -48.0291 -48.0285 -48.0165 -48.0133 -48.0084 -48.0071 -47.9529 -47.9511
   -47.8565 -47.8491 -47.8478 -47.8458 -47.8441 -47.8427 -47.8421 -47.8398
   -47.8397 -47.8367 -47.8365 -47.8360 -47.8332 -47.8332 -47.8309 -47.8305
   -47.8304 -47.8298 -47.8279 -47.8254 -47.8249 -47.8214 -47.8182 -47.8181
   -47.8147 -47.8145 -47.8104 -47.8104 -47.8048 -47.8047 -47.8040 -47.7425
    -7.2802  -4.9050  -3.9412  -3.6083  -3.5214  -3.5105  -2.8595  -2.8524
    -2.7161  -2.6810  -2.5013  -2.4211  -2.3727  -2.3542  -2.3098  -2.2150
    -2.2099  -2.0979  -2.0459  -2.0397  -1.9857  -1.9799  -1.9623  -1.7993
    -1.7952  -1.6843  -1.6496  -1.6461  -1.6319  -1.6184  -1.6155  -1.5583
    -1.4872  -1.4863  -1.4614  -1.4523  -1.4436  -1.4322  -1.4268  -1.4140
    -1.3555  -1.3534  -1.3435  -1.3370  -1.3186  -1.3141  -1.2909  -1.2489
    -1.2458  -1.2284  -1.2279  -1.2217  -1.2019  -1.1530  -1.0766  -1.0760
    -1.0407  -1.0380  -0.9954  -0.9839  -0.9429  -0.8616  -0.8530  -0.8496
    -0.8462  -0.8226  -0.8063  -0.7505  -0.7495  -0.5941  -0.5851  -0.5640
    -0.5637  -0.5457  -0.5358  -0.5307  -0.4858  -0.4744  -0.4216  -0.4161
    -0.3934  -0.3881  -0.3596  -0.3433  -0.2619  -0.2508  -0.2293  -0.2194
    -0.2002  -0.1902  -0.1557  -0.1436  -0.1323  -0.1313  -0.0862  -0.0677
    -0.0455  -0.0426   0.0021   0.0210   0.0441   0.0517   0.0659   0.0729
     0.1105   0.1384   0.1489   0.1946   0.3078   0.3147   0.3306   0.3342
     0.3806   0.4409   0.4469   0.4514   0.4596   0.4781   0.4987   0.5101
     0.5262   0.5320   0.5353   0.5381   0.5463   0.5538   0.5636   0.5841
     0.6187   0.6358   0.6462   0.6795   0.6935   0.7062   0.7186   0.7245
     0.7498   0.7789   0.7852   0.8623   0.8637   0.8752   0.8878   0.9145
     0.9444   0.9476   0.9582   0.9611   0.9703   0.9745   0.9881   1.0248
     1.0356   1.0906   1.0995   1.1023   1.1129   1.1159   1.1189   1.1343
     1.1577   1.1742   1.1908   1.1969   1.2036   1.2120   1.2325   1.2446
     1.2585   1.2759   1.2774   1.2946   1.3282   1.3302   1.3474   1.3556
     1.3690   1.3798   1.3845   1.3981   1.4263   1.4425   1.4433   1.4501
     1.4579   1.4605   1.4779   1.4906   1.4930   1.5126   1.5340   1.5493
     1.5943   1.6241   1.6457   1.6468   1.6659   1.6849   1.7381   1.7503
     1.7629   1.7676   1.8226   1.8397   1.8429   1.8518   1.8713   1.8870
     1.9301   1.9862   2.0264   2.0321   2.0398   2.0403   2.0568   2.0791
     2.0866   2.0967   2.1029   2.1031   2.1191   2.1390   2.1553   2.1703
     2.1715   2.1937   2.2483   2.2555   2.2924   2.3389   2.3422   2.4399
     2.4425   2.4696   2.5341   2.5446   2.5586   2.5676   2.5712   2.5747
     2.6090   2.6236   2.6450   2.6530   2.7010   2.7419   2.7484   2.7598
     2.7630   2.7748   2.7850   2.7910   2.8326   2.9167   2.9256   2.9279
     2.9343   2.9514   2.9600   2.9702   2.9767   2.9873   3.0088   3.0165
     3.0450   3.0549   3.0805   3.0817   3.0909   3.1014   3.1036   3.1086
     3.1299   3.1556   3.1794   3.1822   3.2146   3.2317   3.2361   3.2457
     3.2518   3.2903   3.2999   3.3968   3.4185   3.4256   3.4282   3.4943
     3.5117   3.5327   3.5384   3.5793   3.5813   3.5904   3.5955   3.6111
     3.6401   3.6665   3.7095   3.7220   3.7630   3.7948   3.7955   3.8005
     3.8495   3.8585   3.9044   3.9419   3.9539   3.9653   3.9758   3.9818
     3.9942   4.0021   4.0274   4.0352   4.0374   4.0555   4.0573   4.0701
     4.1063   4.1072   4.1186   4.1419   4.1471   4.1633   4.2323   4.2419
     4.2490   4.2603   4.2648   4.2840   4.2903   4.2954   4.3414   4.3513
     4.3637   4.3755   4.3822   4.4306   4.4313   4.4432   4.4835   4.6766
     4.7240   4.8068   5.0304   5.0323   5.2223   5.2628   5.2742   5.3008
     5.4918   5.5035   5.6182   5.8705   5.9866   5.9898   6.1453   6.1826
     6.2817   6.3290   6.3350   6.3457   6.3490   6.4866   6.4919   6.8260
     6.8515   6.8595   6.8852   7.0737   7.0760   7.0848   7.5926   7.6109
     7.6726   7.8844   7.8938   7.9142   7.9269   8.2482   8.3263   8.3280
     8.3486   8.3845   8.8935   9.1173   9.1195   9.1864   9.3742   9.4133
     9.4746   9.5011   9.6430   9.6440   9.6618   9.7220   9.7389   9.7636
     9.7838   9.7980   9.9431  10.0128  10.0236  10.0343  10.0755  10.3161
    10.3193  10.3224  10.3240  10.3372  10.3402  10.3518  10.3738  10.5651
    10.6407  10.6714  10.6975  10.7812  10.8888  10.9063  10.9479  10.9678
    10.9783  11.0557  11.0877  11.1343  11.1432  11.1800  11.1892  11.2626
    11.2653  11.2936  11.3020  11.3285  11.3519  11.4755  11.5803  11.7041

     occupation numbers 
     1.0000   1.0000   1.0000   1.0000   1.0000   1.0000   1.0000   1.0000
     1.0000   1.0000   1.0000   1.0000   1.0000   1.0000   1.0000   1.0000
     1.0000   1.0000   1.0000   1.0000   1.0000   1.0000   1.0000   1.0000
     1.0000   1.0000   1.0000   1.0000   1.0000   1.0000   1.0000   1.0000
     1.0000   1.0000   1.0000   1.0000   1.0000   1.0000   1.0000   1.0000
     1.0000   1.0000   1.0000   1.0000   1.0000   1.0000   1.0000   1.0000
     1.0000   1.0000   1.0000   1.0000   1.0000   1.0000   1.0000   1.0000
     1.0000   1.0000   1.0000   1.0000   1.0000   1.0000   1.0000   1.0000
     1.0000   1.0000   1.0000   1.0000   1.0000   1.0000   1.0000   1.0000
     1.0000   1.0000   1.0000   1.0000   1.0000   1.0000   1.0000   1.0000
     1.0000   1.0000   1.0000   1.0000   1.0000   1.0000   1.0000   1.0000
     1.0000   1.0000   1.0000   1.0000   1.0000   1.0000   1.0000   1.0000
     1.0000   1.0000   1.0000   1.0000   1.0000   1.0000   1.0000   1.0000
     1.0000   1.0000   1.0000   1.0000   1.0000   1.0000   1.0000   1.0000
     1.0000   1.0000   1.0000   1.0000   1.0000   1.0000   1.0000   1.0000
     1.0000   1.0000   1.0000   1.0000   1.0000   1.0000   1.0000   1.0000
     1.0000   1.0000   1.0000   1.0000   1.0000   1.0000   1.0000   1.0000
     1.0000   1.0000   1.0000   1.0000   1.0000   1.0000   1.0000   1.0000
     1.0000   1.0000   1.0000   1.0000   1.0000   1.0000   1.0000   1.0000
     1.0000   1.0000   1.0000   1.0000   1.0000   1.0000   1.0000   1.0000
     1.0000   1.0000   1.0000   1.0000   1.0000   1.0000   1.0000   1.0000
     1.0000   1.0000   1.0000   1.0000   1.0000   1.0000   1.0000   1.0000
     1.0000   1.0000   1.0000   1.0000   1.0000   1.0000   1.0000   1.0000
     1.0000   1.0000   1.0000   1.0000   1.0000   1.0000   1.0000   1.0000
     1.0000   1.0000   1.0000   1.0000   1.0000   1.0000   1.0000   1.0000
     1.0000   1.0000   1.0000   1.0000   1.0000   1.0000   1.0000   1.0000
     1.0000   1.0000   1.0000   1.0000   1.0000   1.0000   1.0000   1.0000
     1.0000   1.0000   1.0000   1.0000   1.0000   1.0000   1.0000   1.0000
     1.0000   1.0000   1.0000   1.0000   1.0000   1.0000   1.0000   1.0000
     1.0000   1.0000   1.0000   1.0000   1.0000   1.0000   1.0000   1.0000
     1.0000   1.0000   1.0000   1.0000   1.0000   1.0000   1.0000   1.0000
     1.0000   1.0000   1.0000   1.0000   1.0000   1.0000   1.0000   1.0000
     1.0000   1.0000   1.0000   1.0000   1.0000   1.0000   1.0000   1.0000
     1.0000   1.0000   1.0000   1.0000   1.0000   1.0000   1.0000   1.0000
     1.0000   1.0000   1.0000   1.0000   1.0000   1.0000   1.0000   1.0000
     1.0000   1.0000   1.0000   1.0000   1.0000   1.0000   1.0000   1.0000
     1.0000   1.0000   1.0000   1.0000   1.0000   1.0000   1.0000   1.0000
     1.0000   1.0000   1.0000   1.0000   1.0000   1.0000   1.0000   1.0000
     1.0000   1.0000   1.0000   1.0000   1.0000   1.0000   1.0000   1.0000
     1.0000   1.0000   1.0000   1.0000   1.0000   1.0000   1.0000   1.0000
     1.0000   1.0000   1.0000   1.0000   1.0000   1.0000   1.0000   1.0000
     1.0000   1.0000   1.0000   1.0000   1.0000   1.0000   1.0000   1.0000
     1.0000   1.0000   1.0000   1.0000   1.0000   1.0000   1.0000   1.0000
     1.0000   1.0000   1.0000   1.0000   1.0000   1.0000   1.0000   1.0000
     1.0000   1.0000   1.0000   1.0000   1.0000   1.0000   1.0000   1.0000
     1.0000   1.0000   1.0000   1.0000   1.0000   1.0000   1.0000   1.0000
     1.0000   1.0000   1.0000   1.0000   1.0000   1.0000   1.0000   1.0000
     1.0000   1.0000   1.0000   1.0000   1.0000   1.0000   1.0000   1.0000
     1.0000   1.0000   1.0000   1.0000   1.0000   1.0000   1.0000   1.0000
     1.0000   1.0000   1.0000   1.0000   1.0000   1.0000   1.0000   1.0000
     1.0000   1.0000   1.0000   1.0000   1.0000   1.0000   1.0000   1.0000
     1.0000   1.0000   1.0000   1.0000   1.0000   1.0000   1.0000   1.0000
     1.0000   1.0000   1.0000   1.0000   1.0000   1.0000   1.0000   1.0000
     1.0000   1.0000   1.0000   1.0000   1.0000   1.0000   1.0000   1.0000
     1.0000   1.0000   1.0000   1.0000   1.0000   1.0000   1.0000   1.0000
     1.0000   1.0000   1.0000   1.0000   1.0000   1.0000   1.0000   1.0000
     1.0000   1.0000   1.0000   1.0000   1.0000   1.0000   1.0000   1.0000
     1.0000   1.0000   1.0000   1.0000   1.0000   1.0000   1.0000   1.0000
     1.0000   1.0000   1.0000   1.0000   1.0000   1.0000   1.0000   1.0000
     1.0000   1.0000   1.0000   1.0000   1.0000   1.0000   1.0000   1.0000
     1.0000   1.0000   1.0000   1.0000   1.0000   1.0000   1.0000   1.0000
     1.0000   1.0000   1.0000   1.0000   1.0000   1.0000   1.0000   1.0000
     1.0000   1.0000   1.0000   1.0000   1.0000   1.0000   1.0000   1.0000
     1.0000   1.0000   1.0000   1.0000   1.0000   1.0000   1.0000   1.0000
     1.0000   1.0000   1.0000   1.0000   1.0000   1.0000   1.0000   1.0000
     1.0000   1.0000   1.0000   1.0000   1.0000   1.0000   1.0000   1.0000
     1.0000   1.0000   1.0000   1.0000   1.0000   1.0000   1.0000   1.0000
     1.0000   1.0000   1.0000   1.0000   1.0000   1.0000   1.0000   1.0000
     1.0000   1.0000   1.0000   1.0000   1.0000   1.0000   0.9999   0.9999
     0.9999   0.9998   0.9995   0.9993   0.9985   0.9971   0.9971   0.9968
     0.9914   0.9897   0.9747   0.9478   0.9346   0.9192   0.9021   0.8910
     0.8646   0.8448   0.7665   0.7374   0.7290   0.6517   0.6436   0.5828
     0.4040   0.3998   0.3463   0.2498   0.2306   0.1782   0.0518   0.0430
     0.0376   0.0302   0.0277   0.0190   0.0168   0.0152   0.0061   0.0050
     0.0039   0.0031   0.0027   0.0010   0.0010   0.0008   0.0004   0.0000
     0.0000   0.0000   0.0000   0.0000   0.0000   0.0000   0.0000   0.0000
     0.0000   0.0000   0.0000   0.0000   0.0000   0.0000   0.0000   0.0000
     0.0000   0.0000   0.0000   0.0000   0.0000   0.0000   0.0000   0.0000
     0.0000   0.0000   0.0000   0.0000   0.0000   0.0000   0.0000   0.0000
     0.0000   0.0000   0.0000   0.0000   0.0000   0.0000   0.0000   0.0000
     0.0000   0.0000   0.0000   0.0000   0.0000   0.0000   0.0000   0.0000
     0.0000   0.0000   0.0000   0.0000   0.0000   0.0000   0.0000   0.0000
     0.0000   0.0000   0.0000   0.0000   0.0000   0.0000   0.0000   0.0000
     0.0000   0.0000   0.0000   0.0000   0.0000   0.0000   0.0000   0.0000
     0.0000   0.0000   0.0000   0.0000   0.0000   0.0000   0.0000   0.0000
     0.0000   0.0000   0.0000   0.0000   0.0000   0.0000   0.0000   0.0000
     0.0000   0.0000   0.0000   0.0000   0.0000   0.0000   0.0000   0.0000

          k = 0.2500-0.7217 0.0000 (156796 PWs)   bands (ev):

   -94.3790 -94.3746 -94.3722 -94.3692 -94.3656 -94.3651 -94.3608 -94.3604
   -94.3600 -94.3579 -94.3545 -94.3532 -94.3528 -94.3507 -94.3498 -94.3467
   -94.3458 -94.3448 -94.3435 -94.3429 -94.3426 -94.3422 -94.3414 -94.3397
   -94.3390 -94.3385 -94.3274 -94.3269 -94.3262 -94.3201 -94.3129 -94.3127
   -93.9197 -93.9170 -93.9166 -93.9157 -93.9138 -93.9130 -93.9121 -93.9100
   -93.9092 -93.9086 -93.9085 -93.9080 -93.9071 -93.9062 -93.9053 -93.9042
   -93.9041 -93.9033 -93.9017 -93.9010 -93.8996 -93.8987 -93.8962 -93.8961
   -93.8948 -93.8933 -93.8921 -93.8912 -93.8894 -93.8889 -93.8888 -93.7709
   -48.6728 -48.6614 -48.6598 -48.6538 -48.6525 -48.6475 -48.6418 -48.6408
   -48.6381 -48.6343 -48.6323 -48.6312 -48.6281 -48.6231 -48.6222 -48.6206
   -48.6202 -48.6168 -48.6140 -48.6112 -48.6076 -48.6072 -48.6022 -48.5923
   -48.5857 -48.5826 -48.5764 -48.5733 -48.5467 -48.5430 -48.5332 -48.5247
   -48.5228 -48.5218 -48.5210 -48.5208 -48.5184 -48.5155 -48.5119 -48.5044
   -48.5011 -48.4993 -48.4972 -48.4958 -48.4919 -48.4872 -48.4722 -48.4698
   -48.4679 -48.4655 -48.4625 -48.4593 -48.4582 -48.4547 -48.4531 -48.4484
   -48.4468 -48.4449 -48.4435 -48.4411 -48.4402 -48.4386 -48.4380 -48.4359
   -48.4347 -48.4342 -48.4303 -48.4292 -48.4282 -48.4273 -48.4244 -48.4224
   -48.4194 -48.4188 -48.4177 -48.4156 -48.4143 -48.4119 -48.4074 -48.4064
   -48.4055 -48.3997 -48.3989 -48.3968 -48.3917 -48.3915 -48.3888 -48.3852
   -48.3830 -48.3795 -48.3768 -48.3728 -48.3638 -48.3554 -48.3505 -48.3408
   -48.2767 -48.2688 -48.2655 -48.2641 -48.2608 -48.2592 -48.2565 -48.2553
   -48.2527 -48.2469 -48.2449 -48.2433 -48.2381 -48.2304 -48.2286 -48.2276
   -48.2248 -48.2205 -48.2151 -48.2074 -48.1974 -48.1907 -48.1801 -48.1792
   -48.1630 -48.1626 -48.1538 -48.1478 -48.1339 -48.1333 -48.1235 -48.1158
   -48.1060 -48.0952 -48.0928 -48.0909 -48.0851 -48.0818 -48.0804 -48.0799
   -48.0794 -48.0771 -48.0765 -48.0748 -48.0733 -48.0717 -48.0692 -48.0681
   -48.0665 -48.0627 -48.0588 -48.0567 -48.0566 -48.0515 -48.0381 -48.0371
   -48.0321 -48.0252 -48.0246 -48.0216 -48.0139 -48.0096 -47.9547 -47.9526
   -47.8547 -47.8510 -47.8485 -47.8472 -47.8432 -47.8428 -47.8421 -47.8396
   -47.8368 -47.8364 -47.8361 -47.8357 -47.8349 -47.8336 -47.8314 -47.8312
   -47.8305 -47.8297 -47.8274 -47.8256 -47.8245 -47.8213 -47.8181 -47.8180
   -47.8146 -47.8141 -47.8109 -47.8107 -47.8047 -47.8045 -47.8041 -47.7425
    -7.2802  -4.6480  -4.1719  -4.1507  -3.3582  -2.9403  -2.9287  -2.9098
    -2.8921  -2.4077  -2.3934  -2.2925  -2.2473  -2.2357  -2.2337  -2.1842
    -2.0380  -2.0178  -1.9689  -1.9624  -1.9541  -1.9348  -1.9192  -1.8850
    -1.8727  -1.8276  -1.8087  -1.8001  -1.7610  -1.7386  -1.6911  -1.6733
    -1.5988  -1.5925  -1.5760  -1.5552  -1.5467  -1.5203  -1.5163  -1.4818
    -1.4140  -1.4046  -1.3544  -1.3478  -1.2998  -1.2848  -1.2363  -1.2258
    -1.1556  -1.1528  -1.1294  -1.1245  -1.1188  -1.1171  -1.0951  -1.0911
    -1.0782  -1.0598  -1.0282  -0.9773  -0.9607  -0.9426  -0.9347  -0.8564
    -0.8544  -0.8265  -0.7646  -0.7549  -0.7495  -0.7317  -0.6479  -0.5949
    -0.5898  -0.5870  -0.5817  -0.5741  -0.4824  -0.4787  -0.4713  -0.4637
    -0.4581  -0.4231  -0.3614  -0.3524  -0.3381  -0.3260  -0.3199  -0.2980
    -0.2902  -0.2645  -0.2632  -0.1861  -0.1509  -0.0969  -0.0924  -0.0742
    -0.0572  -0.0416  -0.0272  -0.0172   0.0323   0.1205   0.1300   0.1422
     0.2022   0.2225   0.2233   0.2372   0.2742   0.2858   0.3288   0.3360
     0.3803   0.3951   0.4025   0.4276   0.4391   0.4781   0.5662   0.5688
     0.5794   0.5934   0.6018   0.6103   0.6218   0.6238   0.6280   0.6412
     0.6673   0.6707   0.6755   0.6829   0.6894   0.7137   0.7338   0.7546
     0.7821   0.7835   0.8010   0.8123   0.8591   0.8678   0.8750   0.8826
     0.8979   0.9044   0.9453   0.9701   0.9730   0.9765   0.9883   0.9926
     0.9946   1.0068   1.0116   1.0197   1.0239   1.0509   1.0617   1.0866
     1.0920   1.1072   1.1189   1.1287   1.1574   1.1670   1.2202   1.2276
     1.2337   1.2618   1.2675   1.2826   1.2891   1.3077   1.3232   1.3345
     1.3483   1.3588   1.3775   1.3931   1.4071   1.4146   1.4300   1.4467
     1.4543   1.4627   1.4734   1.4927   1.5001   1.5153   1.5697   1.6621
     1.6707   1.6757   1.7072   1.7810   1.7868   1.8324   1.8442   1.9009
     1.9132   1.9556   1.9590   1.9956   2.0031   2.0118   2.0223   2.0312
     2.0459   2.0538   2.0599   2.0816   2.1272   2.1343   2.1406   2.1453
     2.1520   2.1583   2.1706   2.1899   2.1949   2.2363   2.2481   2.2540
     2.2658   2.2853   2.3113   2.3178   2.3289   2.3452   2.3634   2.3676
     2.3873   2.4112   2.4730   2.4830   2.4873   2.5795   2.5976   2.6070
     2.7285   2.7548   2.7707   2.7738   2.7930   2.8095   2.8162   2.8221
     2.8505   2.8542   2.8596   2.8803   2.9184   2.9448   2.9471   2.9550
     2.9801   2.9901   3.0065   3.0110   3.0170   3.0374   3.0461   3.0820
     3.0953   3.1174   3.1229   3.1279   3.1405   3.1472   3.1579   3.1907
     3.2070   3.2181   3.2342   3.2391   3.2535   3.2759   3.2817   3.2901
     3.3871   3.4093   3.4143   3.4539   3.4553   3.4622   3.4824   3.4987
     3.5073   3.5349   3.5532   3.5709   3.6148   3.6177   3.6236   3.6610
     3.6714   3.6952   3.6977   3.7052   3.7329   3.7728   3.7766   3.7888
     3.7996   3.8189   3.8287   3.8375   3.8529   3.8688   3.8812   3.8916
     3.9089   3.9243   3.9525   3.9569   3.9688   3.9717   3.9821   3.9886
     3.9947   4.0097   4.0163   4.0217   4.0324   4.0364   4.0559   4.0629
     4.0758   4.0776   4.0810   4.1477   4.1548   4.1888   4.2198   4.2551
     4.2591   4.2659   4.2767   4.3059   4.3101   4.3203   4.6545   4.6804
     4.6883   4.7326   4.8514   4.9138   4.9173   5.0273   5.0363   5.1424
     5.1766   5.1870   5.2656   5.2949   5.3957   5.5509   5.7580   6.0768
     6.0854   6.2191   6.2327   6.3436   6.6500   6.7293   6.7853   7.0786
     7.0849   7.2637   7.3195   7.3509   7.4241   7.5445   7.5613   7.7527
     7.7555   7.7595   7.9579   8.1421   8.3190   8.3385   8.3430   8.3479
     8.5248   8.5268   8.9400   8.9443   9.0606   9.1062   9.2099   9.2192
     9.2522   9.3279   9.3749   9.4575   9.5682   9.7536   9.7548   9.8164
     9.8868   9.8963   9.9523  10.0180  10.1633  10.1789  10.2048  10.2810
    10.3023  10.3512  10.3829  10.4651  10.4824  10.4933  10.5117  10.5275
    10.6173  10.7146  10.7780  10.8076  10.8158  10.8269  10.8473  10.9006
    10.9246  10.9773  10.9844  11.0927  11.1038  11.2271  11.4135  11.4831
    11.5791  11.5948  11.6070  11.6133  11.6614  11.6984  11.7481  11.7775

     occupation numbers 
     1.0000   1.0000   1.0000   1.0000   1.0000   1.0000   1.0000   1.0000
     1.0000   1.0000   1.0000   1.0000   1.0000   1.0000   1.0000   1.0000
     1.0000   1.0000   1.0000   1.0000   1.0000   1.0000   1.0000   1.0000
     1.0000   1.0000   1.0000   1.0000   1.0000   1.0000   1.0000   1.0000
     1.0000   1.0000   1.0000   1.0000   1.0000   1.0000   1.0000   1.0000
     1.0000   1.0000   1.0000   1.0000   1.0000   1.0000   1.0000   1.0000
     1.0000   1.0000   1.0000   1.0000   1.0000   1.0000   1.0000   1.0000
     1.0000   1.0000   1.0000   1.0000   1.0000   1.0000   1.0000   1.0000
     1.0000   1.0000   1.0000   1.0000   1.0000   1.0000   1.0000   1.0000
     1.0000   1.0000   1.0000   1.0000   1.0000   1.0000   1.0000   1.0000
     1.0000   1.0000   1.0000   1.0000   1.0000   1.0000   1.0000   1.0000
     1.0000   1.0000   1.0000   1.0000   1.0000   1.0000   1.0000   1.0000
     1.0000   1.0000   1.0000   1.0000   1.0000   1.0000   1.0000   1.0000
     1.0000   1.0000   1.0000   1.0000   1.0000   1.0000   1.0000   1.0000
     1.0000   1.0000   1.0000   1.0000   1.0000   1.0000   1.0000   1.0000
     1.0000   1.0000   1.0000   1.0000   1.0000   1.0000   1.0000   1.0000
     1.0000   1.0000   1.0000   1.0000   1.0000   1.0000   1.0000   1.0000
     1.0000   1.0000   1.0000   1.0000   1.0000   1.0000   1.0000   1.0000
     1.0000   1.0000   1.0000   1.0000   1.0000   1.0000   1.0000   1.0000
     1.0000   1.0000   1.0000   1.0000   1.0000   1.0000   1.0000   1.0000
     1.0000   1.0000   1.0000   1.0000   1.0000   1.0000   1.0000   1.0000
     1.0000   1.0000   1.0000   1.0000   1.0000   1.0000   1.0000   1.0000
     1.0000   1.0000   1.0000   1.0000   1.0000   1.0000   1.0000   1.0000
     1.0000   1.0000   1.0000   1.0000   1.0000   1.0000   1.0000   1.0000
     1.0000   1.0000   1.0000   1.0000   1.0000   1.0000   1.0000   1.0000
     1.0000   1.0000   1.0000   1.0000   1.0000   1.0000   1.0000   1.0000
     1.0000   1.0000   1.0000   1.0000   1.0000   1.0000   1.0000   1.0000
     1.0000   1.0000   1.0000   1.0000   1.0000   1.0000   1.0000   1.0000
     1.0000   1.0000   1.0000   1.0000   1.0000   1.0000   1.0000   1.0000
     1.0000   1.0000   1.0000   1.0000   1.0000   1.0000   1.0000   1.0000
     1.0000   1.0000   1.0000   1.0000   1.0000   1.0000   1.0000   1.0000
     1.0000   1.0000   1.0000   1.0000   1.0000   1.0000   1.0000   1.0000
     1.0000   1.0000   1.0000   1.0000   1.0000   1.0000   1.0000   1.0000
     1.0000   1.0000   1.0000   1.0000   1.0000   1.0000   1.0000   1.0000
     1.0000   1.0000   1.0000   1.0000   1.0000   1.0000   1.0000   1.0000
     1.0000   1.0000   1.0000   1.0000   1.0000   1.0000   1.0000   1.0000
     1.0000   1.0000   1.0000   1.0000   1.0000   1.0000   1.0000   1.0000
     1.0000   1.0000   1.0000   1.0000   1.0000   1.0000   1.0000   1.0000
     1.0000   1.0000   1.0000   1.0000   1.0000   1.0000   1.0000   1.0000
     1.0000   1.0000   1.0000   1.0000   1.0000   1.0000   1.0000   1.0000
     1.0000   1.0000   1.0000   1.0000   1.0000   1.0000   1.0000   1.0000
     1.0000   1.0000   1.0000   1.0000   1.0000   1.0000   1.0000   1.0000
     1.0000   1.0000   1.0000   1.0000   1.0000   1.0000   1.0000   1.0000
     1.0000   1.0000   1.0000   1.0000   1.0000   1.0000   1.0000   1.0000
     1.0000   1.0000   1.0000   1.0000   1.0000   1.0000   1.0000   1.0000
     1.0000   1.0000   1.0000   1.0000   1.0000   1.0000   1.0000   1.0000
     1.0000   1.0000   1.0000   1.0000   1.0000   1.0000   1.0000   1.0000
     1.0000   1.0000   1.0000   1.0000   1.0000   1.0000   1.0000   1.0000
     1.0000   1.0000   1.0000   1.0000   1.0000   1.0000   1.0000   1.0000
     1.0000   1.0000   1.0000   1.0000   1.0000   1.0000   1.0000   1.0000
     1.0000   1.0000   1.0000   1.0000   1.0000   1.0000   1.0000   1.0000
     1.0000   1.0000   1.0000   1.0000   1.0000   1.0000   1.0000   1.0000
     1.0000   1.0000   1.0000   1.0000   1.0000   1.0000   1.0000   1.0000
     1.0000   1.0000   1.0000   1.0000   1.0000   1.0000   1.0000   1.0000
     1.0000   1.0000   1.0000   1.0000   1.0000   1.0000   1.0000   1.0000
     1.0000   1.0000   1.0000   1.0000   1.0000   1.0000   1.0000   1.0000
     1.0000   1.0000   1.0000   1.0000   1.0000   1.0000   1.0000   1.0000
     1.0000   1.0000   1.0000   1.0000   1.0000   1.0000   1.0000   1.0000
     1.0000   1.0000   1.0000   1.0000   1.0000   1.0000   1.0000   1.0000
     1.0000   1.0000   1.0000   1.0000   1.0000   1.0000   1.0000   1.0000
     1.0000   1.0000   1.0000   1.0000   1.0000   1.0000   1.0000   1.0000
     1.0000   1.0000   1.0000   1.0000   1.0000   1.0000   1.0000   1.0000
     1.0000   1.0000   1.0000   1.0000   1.0000   1.0000   1.0000   1.0000
     1.0000   1.0000   1.0000   1.0000   1.0000   1.0000   1.0000   1.0000
     1.0000   1.0000   1.0000   1.0000   1.0000   1.0000   1.0000   1.0000
     1.0000   1.0000   1.0000   1.0000   1.0000   1.0000   1.0000   1.0000
     1.0000   1.0000   1.0000   1.0000   1.0000   1.0000   1.0000   1.0000
     1.0000   1.0000   1.0000   1.0000   1.0000   1.0000   1.0000   1.0000
     1.0000   1.0000   1.0000   1.0000   0.9999   0.9999   0.9999   0.9998
     0.9998   0.9996   0.9996   0.9995   0.9992   0.9981   0.9980   0.9974
     0.9968   0.9953   0.9943   0.9932   0.9908   0.9874   0.9839   0.9803
     0.9723   0.9627   0.9362   0.9308   0.9139   0.9092   0.8904   0.8771
     0.8633   0.8241   0.8041   0.7864   0.7484   0.7329   0.6502   0.6175
     0.5550   0.5463   0.5291   0.2286   0.2045   0.1153   0.0654   0.0334
     0.0309   0.0271   0.0219   0.0123   0.0114   0.0093   0.0000   0.0000
     0.0000   0.0000   0.0000   0.0000   0.0000   0.0000   0.0000   0.0000
     0.0000   0.0000   0.0000   0.0000   0.0000   0.0000   0.0000   0.0000
     0.0000   0.0000   0.0000   0.0000   0.0000   0.0000   0.0000   0.0000
     0.0000   0.0000   0.0000   0.0000   0.0000   0.0000   0.0000   0.0000
     0.0000   0.0000   0.0000   0.0000   0.0000   0.0000   0.0000   0.0000
     0.0000   0.0000   0.0000   0.0000   0.0000   0.0000   0.0000   0.0000
     0.0000   0.0000   0.0000   0.0000   0.0000   0.0000   0.0000   0.0000
     0.0000   0.0000   0.0000   0.0000   0.0000   0.0000   0.0000   0.0000
     0.0000   0.0000   0.0000   0.0000   0.0000   0.0000   0.0000   0.0000
     0.0000   0.0000   0.0000   0.0000   0.0000   0.0000   0.0000   0.0000
     0.0000   0.0000   0.0000   0.0000   0.0000   0.0000   0.0000   0.0000
     0.0000   0.0000   0.0000   0.0000   0.0000   0.0000   0.0000   0.0000

          k = 0.2500-0.4330 0.0000 (156796 PWs)   bands (ev):

   -94.3790 -94.3747 -94.3720 -94.3693 -94.3656 -94.3651 -94.3608 -94.3604
   -94.3600 -94.3579 -94.3545 -94.3531 -94.3529 -94.3507 -94.3498 -94.3463
   -94.3460 -94.3448 -94.3437 -94.3433 -94.3424 -94.3422 -94.3412 -94.3398
   -94.3390 -94.3385 -94.3274 -94.3270 -94.3262 -94.3201 -94.3129 -94.3127
   -93.9197 -93.9170 -93.9166 -93.9157 -93.9141 -93.9126 -93.9121 -93.9100
   -93.9095 -93.9086 -93.9082 -93.9079 -93.9071 -93.9062 -93.9054 -93.9042
   -93.9041 -93.9034 -93.9017 -93.9010 -93.8996 -93.8987 -93.8962 -93.8961
   -93.8948 -93.8935 -93.8921 -93.8911 -93.8894 -93.8889 -93.8888 -93.7709
   -48.6718 -48.6612 -48.6607 -48.6538 -48.6533 -48.6477 -48.6414 -48.6404
   -48.6376 -48.6338 -48.6320 -48.6311 -48.6281 -48.6236 -48.6223 -48.6207
   -48.6204 -48.6169 -48.6142 -48.6113 -48.6078 -48.6074 -48.6027 -48.5922
   -48.5859 -48.5828 -48.5756 -48.5736 -48.5461 -48.5426 -48.5332 -48.5247
   -48.5231 -48.5217 -48.5211 -48.5207 -48.5182 -48.5157 -48.5118 -48.5045
   -48.5010 -48.4993 -48.4972 -48.4957 -48.4917 -48.4876 -48.4726 -48.4699
   -48.4678 -48.4657 -48.4623 -48.4589 -48.4578 -48.4542 -48.4531 -48.4482
   -48.4468 -48.4450 -48.4437 -48.4410 -48.4403 -48.4386 -48.4380 -48.4360
   -48.4349 -48.4345 -48.4303 -48.4294 -48.4281 -48.4275 -48.4242 -48.4226
   -48.4197 -48.4187 -48.4179 -48.4156 -48.4143 -48.4121 -48.4068 -48.4064
   -48.4054 -48.3997 -48.3988 -48.3965 -48.3919 -48.3915 -48.3891 -48.3854
   -48.3830 -48.3798 -48.3765 -48.3728 -48.3638 -48.3553 -48.3508 -48.3403
   -48.2765 -48.2686 -48.2656 -48.2641 -48.2608 -48.2593 -48.2566 -48.2554
   -48.2528 -48.2470 -48.2447 -48.2431 -48.2380 -48.2305 -48.2286 -48.2277
   -48.2250 -48.2207 -48.2149 -48.2078 -48.1976 -48.1905 -48.1800 -48.1792
   -48.1628 -48.1625 -48.1536 -48.1477 -48.1338 -48.1332 -48.1234 -48.1156
   -48.1062 -48.0955 -48.0930 -48.0911 -48.0852 -48.0816 -48.0807 -48.0798
   -48.0793 -48.0771 -48.0765 -48.0756 -48.0729 -48.0709 -48.0691 -48.0680
   -48.0662 -48.0627 -48.0589 -48.0567 -48.0565 -48.0518 -48.0383 -48.0374
   -48.0322 -48.0252 -48.0247 -48.0217 -48.0138 -48.0094 -47.9549 -47.9524
   -47.8547 -47.8510 -47.8485 -47.8472 -47.8437 -47.8422 -47.8420 -47.8396
   -47.8370 -47.8368 -47.8360 -47.8353 -47.8348 -47.8337 -47.8314 -47.8313
   -47.8305 -47.8298 -47.8274 -47.8256 -47.8245 -47.8214 -47.8181 -47.8180
   -47.8146 -47.8141 -47.8109 -47.8106 -47.8048 -47.8044 -47.8041 -47.7425
    -7.2802  -4.6480  -4.1720  -4.1507  -3.3581  -2.9408  -2.9289  -2.9098
    -2.8922  -2.4071  -2.3928  -2.2923  -2.2471  -2.2348  -2.2333  -2.1840
    -2.0393  -2.0187  -1.9690  -1.9629  -1.9548  -1.9345  -1.9190  -1.8853
    -1.8729  -1.8271  -1.8088  -1.8002  -1.7609  -1.7384  -1.6903  -1.6722
    -1.5984  -1.5923  -1.5767  -1.5556  -1.5472  -1.5205  -1.5163  -1.4817
    -1.4141  -1.4046  -1.3544  -1.3478  -1.2999  -1.2845  -1.2363  -1.2259
    -1.1553  -1.1526  -1.1291  -1.1248  -1.1184  -1.1174  -1.0960  -1.0922
    -1.0785  -1.0605  -1.0293  -0.9776  -0.9600  -0.9425  -0.9341  -0.8573
    -0.8556  -0.8246  -0.7652  -0.7546  -0.7493  -0.7317  -0.6473  -0.5943
    -0.5903  -0.5867  -0.5830  -0.5742  -0.4818  -0.4780  -0.4708  -0.4637
    -0.4576  -0.4225  -0.3618  -0.3525  -0.3381  -0.3261  -0.3197  -0.2978
    -0.2902  -0.2643  -0.2630  -0.1856  -0.1519  -0.0964  -0.0919  -0.0742
    -0.0573  -0.0414  -0.0281  -0.0182   0.0325   0.1202   0.1310   0.1433
     0.2021   0.2224   0.2228   0.2373   0.2735   0.2857   0.3302   0.3371
     0.3793   0.3936   0.4013   0.4282   0.4398   0.4781   0.5648   0.5686
     0.5796   0.5930   0.6018   0.6099   0.6217   0.6236   0.6277   0.6410
     0.6650   0.6705   0.6729   0.6823   0.6886   0.7142   0.7345   0.7554
     0.7821   0.7835   0.8023   0.8136   0.8620   0.8684   0.8764   0.8831
     0.8989   0.9053   0.9449   0.9691   0.9747   0.9775   0.9879   0.9936
     0.9948   1.0066   1.0118   1.0196   1.0245   1.0522   1.0620   1.0866
     1.0924   1.1069   1.1191   1.1282   1.1590   1.1686   1.2192   1.2269
     1.2338   1.2605   1.2655   1.2825   1.2871   1.3068   1.3227   1.3345
     1.3485   1.3591   1.3776   1.3926   1.4077   1.4151   1.4309   1.4467
     1.4556   1.4631   1.4726   1.4924   1.5002   1.5149   1.5695   1.6620
     1.6704   1.6746   1.7068   1.7810   1.7868   1.8324   1.8442   1.9005
     1.9129   1.9557   1.9592   1.9954   2.0031   2.0135   2.0214   2.0303
     2.0452   2.0544   2.0593   2.0815   2.1273   2.1346   2.1404   2.1452
     2.1524   2.1589   2.1711   2.1898   2.1944   2.2377   2.2484   2.2545
     2.2651   2.2854   2.3113   2.3178   2.3276   2.3443   2.3636   2.3670
     2.3870   2.4105   2.4732   2.4834   2.4890   2.5802   2.5980   2.6073
     2.7287   2.7544   2.7701   2.7734   2.7918   2.8084   2.8159   2.8220
     2.8502   2.8539   2.8596   2.8801   2.9180   2.9450   2.9463   2.9546
     2.9801   2.9903   3.0069   3.0113   3.0174   3.0373   3.0462   3.0831
     3.0961   3.1175   3.1229   3.1280   3.1406   3.1474   3.1584   3.1914
     3.2081   3.2175   3.2336   3.2391   3.2533   3.2760   3.2822   3.2900
     3.3871   3.4087   3.4138   3.4544   3.4554   3.4628   3.4831   3.4981
     3.5066   3.5348   3.5535   3.5707   3.6146   3.6175   3.6230   3.6613
     3.6715   3.6951   3.6977   3.7052   3.7328   3.7731   3.7765   3.7894
     3.8001   3.8190   3.8291   3.8372   3.8522   3.8680   3.8818   3.8925
     3.9100   3.9255   3.9526   3.9560   3.9678   3.9713   3.9811   3.9882
     3.9943   4.0075   4.0160   4.0214   4.0325   4.0363   4.0547   4.0618
     4.0753   4.0769   4.0807   4.1465   4.1536   4.1889   4.2193   4.2561
     4.2593   4.2665   4.2774   4.3077   4.3115   4.3210   4.6549   4.6802
     4.6878   4.7315   4.8521   4.9137   4.9174   5.0271   5.0361   5.1431
     5.1771   5.1872   5.2671   5.2960   5.3967   5.5507   5.7580   6.0760
     6.0852   6.2190   6.2329   6.3441   6.6488   6.7281   6.7842   7.0785
     7.0850   7.2639   7.3193   7.3522   7.4256   7.5462   7.5623   7.7527
     7.7554   7.7610   7.9623   8.1422   8.3182   8.3385   8.3419   8.3475
     8.5247   8.5258   8.9391   8.9427   9.0605   9.1068   9.2108   9.2177
     9.2507   9.3243   9.3749   9.4582   9.5675   9.7537   9.7548   9.8131
     9.8874   9.8972   9.9524  10.0178  10.1644  10.1801  10.2062  10.2830
    10.3036  10.3515  10.3829  10.4657  10.4818  10.4937  10.5123  10.5259
    10.6182  10.7143  10.7756  10.8046  10.8141  10.8258  10.8467  10.9005
    10.9244  10.9784  10.9848  11.0962  11.1060  11.2270  11.4148  11.4820
    11.5784  11.5955  11.6065  11.6131  11.6613  11.6978  11.7477  11.7791

     occupation numbers 
     1.0000   1.0000   1.0000   1.0000   1.0000   1.0000   1.0000   1.0000
     1.0000   1.0000   1.0000   1.0000   1.0000   1.0000   1.0000   1.0000
     1.0000   1.0000   1.0000   1.0000   1.0000   1.0000   1.0000   1.0000
     1.0000   1.0000   1.0000   1.0000   1.0000   1.0000   1.0000   1.0000
     1.0000   1.0000   1.0000   1.0000   1.0000   1.0000   1.0000   1.0000
     1.0000   1.0000   1.0000   1.0000   1.0000   1.0000   1.0000   1.0000
     1.0000   1.0000   1.0000   1.0000   1.0000   1.0000   1.0000   1.0000
     1.0000   1.0000   1.0000   1.0000   1.0000   1.0000   1.0000   1.0000
     1.0000   1.0000   1.0000   1.0000   1.0000   1.0000   1.0000   1.0000
     1.0000   1.0000   1.0000   1.0000   1.0000   1.0000   1.0000   1.0000
     1.0000   1.0000   1.0000   1.0000   1.0000   1.0000   1.0000   1.0000
     1.0000   1.0000   1.0000   1.0000   1.0000   1.0000   1.0000   1.0000
     1.0000   1.0000   1.0000   1.0000   1.0000   1.0000   1.0000   1.0000
     1.0000   1.0000   1.0000   1.0000   1.0000   1.0000   1.0000   1.0000
     1.0000   1.0000   1.0000   1.0000   1.0000   1.0000   1.0000   1.0000
     1.0000   1.0000   1.0000   1.0000   1.0000   1.0000   1.0000   1.0000
     1.0000   1.0000   1.0000   1.0000   1.0000   1.0000   1.0000   1.0000
     1.0000   1.0000   1.0000   1.0000   1.0000   1.0000   1.0000   1.0000
     1.0000   1.0000   1.0000   1.0000   1.0000   1.0000   1.0000   1.0000
     1.0000   1.0000   1.0000   1.0000   1.0000   1.0000   1.0000   1.0000
     1.0000   1.0000   1.0000   1.0000   1.0000   1.0000   1.0000   1.0000
     1.0000   1.0000   1.0000   1.0000   1.0000   1.0000   1.0000   1.0000
     1.0000   1.0000   1.0000   1.0000   1.0000   1.0000   1.0000   1.0000
     1.0000   1.0000   1.0000   1.0000   1.0000   1.0000   1.0000   1.0000
     1.0000   1.0000   1.0000   1.0000   1.0000   1.0000   1.0000   1.0000
     1.0000   1.0000   1.0000   1.0000   1.0000   1.0000   1.0000   1.0000
     1.0000   1.0000   1.0000   1.0000   1.0000   1.0000   1.0000   1.0000
     1.0000   1.0000   1.0000   1.0000   1.0000   1.0000   1.0000   1.0000
     1.0000   1.0000   1.0000   1.0000   1.0000   1.0000   1.0000   1.0000
     1.0000   1.0000   1.0000   1.0000   1.0000   1.0000   1.0000   1.0000
     1.0000   1.0000   1.0000   1.0000   1.0000   1.0000   1.0000   1.0000
     1.0000   1.0000   1.0000   1.0000   1.0000   1.0000   1.0000   1.0000
     1.0000   1.0000   1.0000   1.0000   1.0000   1.0000   1.0000   1.0000
     1.0000   1.0000   1.0000   1.0000   1.0000   1.0000   1.0000   1.0000
     1.0000   1.0000   1.0000   1.0000   1.0000   1.0000   1.0000   1.0000
     1.0000   1.0000   1.0000   1.0000   1.0000   1.0000   1.0000   1.0000
     1.0000   1.0000   1.0000   1.0000   1.0000   1.0000   1.0000   1.0000
     1.0000   1.0000   1.0000   1.0000   1.0000   1.0000   1.0000   1.0000
     1.0000   1.0000   1.0000   1.0000   1.0000   1.0000   1.0000   1.0000
     1.0000   1.0000   1.0000   1.0000   1.0000   1.0000   1.0000   1.0000
     1.0000   1.0000   1.0000   1.0000   1.0000   1.0000   1.0000   1.0000
     1.0000   1.0000   1.0000   1.0000   1.0000   1.0000   1.0000   1.0000
     1.0000   1.0000   1.0000   1.0000   1.0000   1.0000   1.0000   1.0000
     1.0000   1.0000   1.0000   1.0000   1.0000   1.0000   1.0000   1.0000
     1.0000   1.0000   1.0000   1.0000   1.0000   1.0000   1.0000   1.0000
     1.0000   1.0000   1.0000   1.0000   1.0000   1.0000   1.0000   1.0000
     1.0000   1.0000   1.0000   1.0000   1.0000   1.0000   1.0000   1.0000
     1.0000   1.0000   1.0000   1.0000   1.0000   1.0000   1.0000   1.0000
     1.0000   1.0000   1.0000   1.0000   1.0000   1.0000   1.0000   1.0000
     1.0000   1.0000   1.0000   1.0000   1.0000   1.0000   1.0000   1.0000
     1.0000   1.0000   1.0000   1.0000   1.0000   1.0000   1.0000   1.0000
     1.0000   1.0000   1.0000   1.0000   1.0000   1.0000   1.0000   1.0000
     1.0000   1.0000   1.0000   1.0000   1.0000   1.0000   1.0000   1.0000
     1.0000   1.0000   1.0000   1.0000   1.0000   1.0000   1.0000   1.0000
     1.0000   1.0000   1.0000   1.0000   1.0000   1.0000   1.0000   1.0000
     1.0000   1.0000   1.0000   1.0000   1.0000   1.0000   1.0000   1.0000
     1.0000   1.0000   1.0000   1.0000   1.0000   1.0000   1.0000   1.0000
     1.0000   1.0000   1.0000   1.0000   1.0000   1.0000   1.0000   1.0000
     1.0000   1.0000   1.0000   1.0000   1.0000   1.0000   1.0000   1.0000
     1.0000   1.0000   1.0000   1.0000   1.0000   1.0000   1.0000   1.0000
     1.0000   1.0000   1.0000   1.0000   1.0000   1.0000   1.0000   1.0000
     1.0000   1.0000   1.0000   1.0000   1.0000   1.0000   1.0000   1.0000
     1.0000   1.0000   1.0000   1.0000   1.0000   1.0000   1.0000   1.0000
     1.0000   1.0000   1.0000   1.0000   1.0000   1.0000   1.0000   1.0000
     1.0000   1.0000   1.0000   1.0000   1.0000   1.0000   1.0000   1.0000
     1.0000   1.0000   1.0000   1.0000   1.0000   1.0000   1.0000   1.0000
     1.0000   1.0000   1.0000   1.0000   1.0000   1.0000   1.0000   1.0000
     1.0000   1.0000   1.0000   1.0000   1.0000   1.0000   1.0000   1.0000
     1.0000   1.0000   1.0000   1.0000   0.9999   0.9999   0.9999   0.9998
     0.9998   0.9996   0.9996   0.9995   0.9992   0.9981   0.9980   0.9974
     0.9968   0.9953   0.9943   0.9933   0.9909   0.9876   0.9837   0.9799
     0.9718   0.9619   0.9361   0.9320   0.9155   0.9098   0.8923   0.8779
     0.8643   0.8303   0.8050   0.7873   0.7480   0.7335   0.6555   0.6225
     0.5577   0.5497   0.5310   0.2329   0.2084   0.1150   0.0660   0.0328
     0.0308   0.0268   0.0217   0.0119   0.0111   0.0092   0.0000   0.0000
     0.0000   0.0000   0.0000   0.0000   0.0000   0.0000   0.0000   0.0000
     0.0000   0.0000   0.0000   0.0000   0.0000   0.0000   0.0000   0.0000
     0.0000   0.0000   0.0000   0.0000   0.0000   0.0000   0.0000   0.0000
     0.0000   0.0000   0.0000   0.0000   0.0000   0.0000   0.0000   0.0000
     0.0000   0.0000   0.0000   0.0000   0.0000   0.0000   0.0000   0.0000
     0.0000   0.0000   0.0000   0.0000   0.0000   0.0000   0.0000   0.0000
     0.0000   0.0000   0.0000   0.0000   0.0000   0.0000   0.0000   0.0000
     0.0000   0.0000   0.0000   0.0000   0.0000   0.0000   0.0000   0.0000
     0.0000   0.0000   0.0000   0.0000   0.0000   0.0000   0.0000   0.0000
     0.0000   0.0000   0.0000   0.0000   0.0000   0.0000   0.0000   0.0000
     0.0000   0.0000   0.0000   0.0000   0.0000   0.0000   0.0000   0.0000
     0.0000   0.0000   0.0000   0.0000   0.0000   0.0000   0.0000   0.0000

          k =-0.5000 0.2887 0.0000 (156724 PWs)   bands (ev):

   -94.3790 -94.3747 -94.3720 -94.3693 -94.3659 -94.3648 -94.3609 -94.3604
   -94.3599 -94.3579 -94.3544 -94.3537 -94.3522 -94.3512 -94.3496 -94.3467
   -94.3458 -94.3447 -94.3438 -94.3431 -94.3424 -94.3423 -94.3412 -94.3397
   -94.3390 -94.3385 -94.3274 -94.3270 -94.3262 -94.3201 -94.3129 -94.3127
   -93.9196 -93.9175 -93.9165 -93.9145 -93.9143 -93.9134 -93.9124 -93.9098
   -93.9088 -93.9088 -93.9081 -93.9080 -93.9071 -93.9066 -93.9054 -93.9042
   -93.9038 -93.9035 -93.9017 -93.9010 -93.8996 -93.8987 -93.8962 -93.8961
   -93.8948 -93.8933 -93.8923 -93.8910 -93.8894 -93.8889 -93.8888 -93.7709
   -48.6676 -48.6643 -48.6606 -48.6587 -48.6478 -48.6445 -48.6437 -48.6418
   -48.6401 -48.6392 -48.6327 -48.6315 -48.6306 -48.6278 -48.6234 -48.6204
   -48.6151 -48.6142 -48.6099 -48.6091 -48.6067 -48.5967 -48.5941 -48.5906
   -48.5893 -48.5874 -48.5842 -48.5753 -48.5565 -48.5534 -48.5245 -48.5228
   -48.5221 -48.5205 -48.5204 -48.5161 -48.5137 -48.5120 -48.5104 -48.5082
   -48.5045 -48.5005 -48.4996 -48.4954 -48.4845 -48.4835 -48.4804 -48.4771
   -48.4673 -48.4651 -48.4586 -48.4584 -48.4524 -48.4517 -48.4496 -48.4479
   -48.4467 -48.4450 -48.4429 -48.4418 -48.4409 -48.4404 -48.4395 -48.4384
   -48.4380 -48.4330 -48.4323 -48.4304 -48.4296 -48.4278 -48.4271 -48.4255
   -48.4254 -48.4228 -48.4215 -48.4139 -48.4094 -48.4062 -48.4051 -48.4036
   -48.4024 -48.3995 -48.3988 -48.3976 -48.3950 -48.3896 -48.3852 -48.3821
   -48.3809 -48.3799 -48.3776 -48.3725 -48.3705 -48.3577 -48.3493 -48.3394
   -48.2701 -48.2691 -48.2685 -48.2656 -48.2634 -48.2620 -48.2592 -48.2517
   -48.2493 -48.2489 -48.2441 -48.2427 -48.2410 -48.2378 -48.2371 -48.2221
   -48.2084 -48.2080 -48.2071 -48.2061 -48.2042 -48.1996 -48.1890 -48.1809
   -48.1681 -48.1679 -48.1614 -48.1493 -48.1172 -48.1171 -48.1111 -48.1037
   -48.1035 -48.1029 -48.1022 -48.1007 -48.0940 -48.0935 -48.0873 -48.0858
   -48.0769 -48.0766 -48.0761 -48.0751 -48.0742 -48.0695 -48.0691 -48.0672
   -48.0648 -48.0605 -48.0597 -48.0500 -48.0481 -48.0401 -48.0395 -48.0386
   -48.0340 -48.0326 -48.0319 -48.0175 -48.0151 -48.0068 -47.9559 -47.9515
   -47.8545 -47.8519 -47.8473 -47.8462 -47.8447 -47.8440 -47.8417 -47.8374
   -47.8373 -47.8370 -47.8362 -47.8355 -47.8349 -47.8343 -47.8314 -47.8306
   -47.8305 -47.8301 -47.8274 -47.8256 -47.8245 -47.8213 -47.8181 -47.8180
   -47.8145 -47.8142 -47.8110 -47.8106 -47.8048 -47.8044 -47.8041 -47.7425
    -7.2802  -4.5337  -4.5130  -3.6070  -3.5969  -3.2478  -3.2317  -2.4197
    -2.4069  -2.3939  -2.3770  -2.3454  -2.3312  -2.3298  -2.3238  -2.1389
    -2.1251  -2.0812  -2.0610  -2.0090  -1.9954  -1.9744  -1.9661  -1.9501
    -1.9487  -1.7976  -1.7884  -1.7762  -1.7743  -1.6880  -1.6810  -1.6680
    -1.6565  -1.5159  -1.5052  -1.4435  -1.4363  -1.4269  -1.4237  -1.4071
    -1.3848  -1.3337  -1.3316  -1.3195  -1.3051  -1.2942  -1.2879  -1.2165
    -1.2115  -1.1764  -1.1753  -1.1618  -1.1577  -1.1495  -1.1259  -1.1088
    -1.1065  -1.0838  -1.0791  -0.9796  -0.9723  -0.9709  -0.9552  -0.9296
    -0.9252  -0.9015  -0.8817  -0.7919  -0.7788  -0.5933  -0.5837  -0.5625
    -0.5601  -0.5461  -0.5449  -0.5327  -0.5255  -0.4898  -0.4813  -0.4560
    -0.4455  -0.4348  -0.4237  -0.4224  -0.4001  -0.2394  -0.2374  -0.2293
    -0.2239  -0.2013  -0.1919  -0.1666  -0.1662  -0.1255  -0.0974  -0.0870
    -0.0660  -0.0263   0.0027   0.0901   0.0943   0.1032   0.1175   0.1355
     0.1456   0.1475   0.1618   0.1679   0.1763   0.3195   0.3369   0.3418
     0.3453   0.3457   0.3616   0.4106   0.4120   0.4326   0.4406   0.4978
     0.5049   0.5314   0.5560   0.6258   0.6322   0.6440   0.6580   0.6998
     0.7055   0.7163   0.7408   0.7499   0.7558   0.7935   0.8004   0.8218
     0.8242   0.8322   0.8420   0.9170   0.9246   0.9425   0.9435   0.9456
     0.9491   0.9535   0.9692   0.9783   0.9852   0.9861   1.0075   1.0380
     1.0445   1.0555   1.0571   1.0649   1.0692   1.0766   1.0875   1.0936
     1.1158   1.1323   1.1340   1.1374   1.1408   1.1457   1.1541   1.1666
     1.1829   1.1861   1.1965   1.1981   1.2208   1.2584   1.2842   1.2920
     1.2991   1.3030   1.3140   1.3224   1.3545   1.3759   1.3948   1.4019
     1.4171   1.4193   1.4557   1.5100   1.5294   1.5865   1.5981   1.6064
     1.6273   1.6496   1.6821   1.7086   1.7178   1.7293   1.7335   1.7348
     1.7554   1.8017   1.8329   1.9809   1.9827   2.0192   2.0281   2.0605
     2.0634   2.0683   2.0774   2.1202   2.1223   2.1290   2.1316   2.1400
     2.1598   2.1679   2.1773   2.1877   2.2127   2.3116   2.3333   2.3892
     2.3942   2.4013   2.4056   2.4207   2.4317   2.4366   2.4425   2.5011
     2.5082   2.5239   2.5334   2.5544   2.5664   2.5907   2.5922   2.6351
     2.6394   2.6564   2.6684   2.7156   2.7326   2.7374   2.7455   2.8143
     2.8167   2.8257   2.8376   2.8566   2.8653   2.8716   2.8776   2.9499
     2.9620   2.9704   2.9853   2.9865   2.9951   2.9959   2.9999   3.0055
     3.0368   3.0714   3.0726   3.0862   3.0911   3.0997   3.1080   3.2424
     3.2533   3.2938   3.3235   3.3923   3.4507   3.4565   3.4626   3.4643
     3.4686   3.4871   3.4994   3.5032   3.5044   3.5156   3.5175   3.5705
     3.6002   3.6065   3.6191   3.6234   3.6238   3.6276   3.6340   3.6391
     3.6493   3.6670   3.6674   3.6736   3.6803   3.6866   3.6965   3.7688
     3.7886   3.7959   3.8420   3.8421   3.8487   3.8551   3.8629   3.8686
     3.8798   3.8931   3.8995   3.9584   3.9656   3.9780   3.9868   3.9963
     3.9977   4.0056   4.0109   4.0497   4.0727   4.0830   4.0954   4.0974
     4.1059   4.1085   4.1130   4.1241   4.1272   4.1371   4.1412   4.1894
     4.1931   4.2014   4.2065   4.2371   4.2469   4.3137   4.3526   4.3535
     4.3790   4.3832   4.3840   4.8829   5.0829   5.2238   5.3019   5.3058
     5.3214   5.3601   5.3881   5.6326   5.8443   5.8505   5.8543   5.8569
     6.1062   6.1994   6.3386   6.3472   6.3480   6.3578   6.5445   6.6601
     7.3206   7.3303   7.3401   7.3483   7.4233   7.4387   7.4576   7.4909
     7.7896   7.8114   8.1746   8.1901   8.2070   8.2532   8.2940   8.3111
     8.9594   8.9838   8.9867   8.9993   9.0949   9.2024   9.2158   9.2763
     9.2829   9.2991   9.4694   9.4728   9.7620   9.7810   9.7867   9.7896
     9.9374   9.9540  10.0306  10.0427  10.0583  10.0845  10.1675  10.2217
    10.2228  10.2336  10.2380  10.2723  10.3850  10.4057  10.4123  10.4148
    10.4266  10.4345  10.5821  10.6103  10.7801  10.7869  10.8684  10.8799
    11.1008  11.1929  11.2155  11.3044  11.3786  11.3886  11.4042  11.4238
    11.4310  11.4404  11.4609  11.4647  11.5361  11.6003  11.6891  11.7496

     occupation numbers 
     1.0000   1.0000   1.0000   1.0000   1.0000   1.0000   1.0000   1.0000
     1.0000   1.0000   1.0000   1.0000   1.0000   1.0000   1.0000   1.0000
     1.0000   1.0000   1.0000   1.0000   1.0000   1.0000   1.0000   1.0000
     1.0000   1.0000   1.0000   1.0000   1.0000   1.0000   1.0000   1.0000
     1.0000   1.0000   1.0000   1.0000   1.0000   1.0000   1.0000   1.0000
     1.0000   1.0000   1.0000   1.0000   1.0000   1.0000   1.0000   1.0000
     1.0000   1.0000   1.0000   1.0000   1.0000   1.0000   1.0000   1.0000
     1.0000   1.0000   1.0000   1.0000   1.0000   1.0000   1.0000   1.0000
     1.0000   1.0000   1.0000   1.0000   1.0000   1.0000   1.0000   1.0000
     1.0000   1.0000   1.0000   1.0000   1.0000   1.0000   1.0000   1.0000
     1.0000   1.0000   1.0000   1.0000   1.0000   1.0000   1.0000   1.0000
     1.0000   1.0000   1.0000   1.0000   1.0000   1.0000   1.0000   1.0000
     1.0000   1.0000   1.0000   1.0000   1.0000   1.0000   1.0000   1.0000
     1.0000   1.0000   1.0000   1.0000   1.0000   1.0000   1.0000   1.0000
     1.0000   1.0000   1.0000   1.0000   1.0000   1.0000   1.0000   1.0000
     1.0000   1.0000   1.0000   1.0000   1.0000   1.0000   1.0000   1.0000
     1.0000   1.0000   1.0000   1.0000   1.0000   1.0000   1.0000   1.0000
     1.0000   1.0000   1.0000   1.0000   1.0000   1.0000   1.0000   1.0000
     1.0000   1.0000   1.0000   1.0000   1.0000   1.0000   1.0000   1.0000
     1.0000   1.0000   1.0000   1.0000   1.0000   1.0000   1.0000   1.0000
     1.0000   1.0000   1.0000   1.0000   1.0000   1.0000   1.0000   1.0000
     1.0000   1.0000   1.0000   1.0000   1.0000   1.0000   1.0000   1.0000
     1.0000   1.0000   1.0000   1.0000   1.0000   1.0000   1.0000   1.0000
     1.0000   1.0000   1.0000   1.0000   1.0000   1.0000   1.0000   1.0000
     1.0000   1.0000   1.0000   1.0000   1.0000   1.0000   1.0000   1.0000
     1.0000   1.0000   1.0000   1.0000   1.0000   1.0000   1.0000   1.0000
     1.0000   1.0000   1.0000   1.0000   1.0000   1.0000   1.0000   1.0000
     1.0000   1.0000   1.0000   1.0000   1.0000   1.0000   1.0000   1.0000
     1.0000   1.0000   1.0000   1.0000   1.0000   1.0000   1.0000   1.0000
     1.0000   1.0000   1.0000   1.0000   1.0000   1.0000   1.0000   1.0000
     1.0000   1.0000   1.0000   1.0000   1.0000   1.0000   1.0000   1.0000
     1.0000   1.0000   1.0000   1.0000   1.0000   1.0000   1.0000   1.0000
     1.0000   1.0000   1.0000   1.0000   1.0000   1.0000   1.0000   1.0000
     1.0000   1.0000   1.0000   1.0000   1.0000   1.0000   1.0000   1.0000
     1.0000   1.0000   1.0000   1.0000   1.0000   1.0000   1.0000   1.0000
     1.0000   1.0000   1.0000   1.0000   1.0000   1.0000   1.0000   1.0000
     1.0000   1.0000   1.0000   1.0000   1.0000   1.0000   1.0000   1.0000
     1.0000   1.0000   1.0000   1.0000   1.0000   1.0000   1.0000   1.0000
     1.0000   1.0000   1.0000   1.0000   1.0000   1.0000   1.0000   1.0000
     1.0000   1.0000   1.0000   1.0000   1.0000   1.0000   1.0000   1.0000
     1.0000   1.0000   1.0000   1.0000   1.0000   1.0000   1.0000   1.0000
     1.0000   1.0000   1.0000   1.0000   1.0000   1.0000   1.0000   1.0000
     1.0000   1.0000   1.0000   1.0000   1.0000   1.0000   1.0000   1.0000
     1.0000   1.0000   1.0000   1.0000   1.0000   1.0000   1.0000   1.0000
     1.0000   1.0000   1.0000   1.0000   1.0000   1.0000   1.0000   1.0000
     1.0000   1.0000   1.0000   1.0000   1.0000   1.0000   1.0000   1.0000
     1.0000   1.0000   1.0000   1.0000   1.0000   1.0000   1.0000   1.0000
     1.0000   1.0000   1.0000   1.0000   1.0000   1.0000   1.0000   1.0000
     1.0000   1.0000   1.0000   1.0000   1.0000   1.0000   1.0000   1.0000
     1.0000   1.0000   1.0000   1.0000   1.0000   1.0000   1.0000   1.0000
     1.0000   1.0000   1.0000   1.0000   1.0000   1.0000   1.0000   1.0000
     1.0000   1.0000   1.0000   1.0000   1.0000   1.0000   1.0000   1.0000
     1.0000   1.0000   1.0000   1.0000   1.0000   1.0000   1.0000   1.0000
     1.0000   1.0000   1.0000   1.0000   1.0000   1.0000   1.0000   1.0000
     1.0000   1.0000   1.0000   1.0000   1.0000   1.0000   1.0000   1.0000
     1.0000   1.0000   1.0000   1.0000   1.0000   1.0000   1.0000   1.0000
     1.0000   1.0000   1.0000   1.0000   1.0000   1.0000   1.0000   1.0000
     1.0000   1.0000   1.0000   1.0000   1.0000   1.0000   1.0000   1.0000
     1.0000   1.0000   1.0000   1.0000   1.0000   1.0000   1.0000   1.0000
     1.0000   1.0000   1.0000   1.0000   1.0000   1.0000   1.0000   1.0000
     1.0000   1.0000   1.0000   1.0000   1.0000   1.0000   1.0000   1.0000
     1.0000   1.0000   1.0000   1.0000   1.0000   1.0000   1.0000   1.0000
     1.0000   1.0000   1.0000   1.0000   1.0000   1.0000   1.0000   1.0000
     1.0000   1.0000   1.0000   1.0000   1.0000   1.0000   1.0000   1.0000
     1.0000   1.0000   1.0000   1.0000   1.0000   1.0000   1.0000   1.0000
     1.0000   1.0000   1.0000   1.0000   1.0000   1.0000   1.0000   1.0000
     1.0000   1.0000   1.0000   1.0000   1.0000   1.0000   1.0000   1.0000
     1.0000   1.0000   1.0000   1.0000   1.0000   1.0000   1.0000   1.0000
     0.9999   0.9999   0.9999   0.9999   0.9999   0.9999   0.9999   0.9999
     0.9998   0.9998   0.9998   0.9997   0.9997   0.9997   0.9996   0.9983
     0.9974   0.9970   0.9926   0.9926   0.9915   0.9904   0.9888   0.9875
     0.9843   0.9797   0.9769   0.9289   0.9188   0.8982   0.8809   0.8595
     0.8560   0.8356   0.8206   0.6775   0.5705   0.5191   0.4575   0.4473
     0.4061   0.3934   0.3722   0.3219   0.3086   0.2679   0.2522   0.1139
     0.1066   0.0919   0.0837   0.0472   0.0392   0.0106   0.0049   0.0048
     0.0029   0.0027   0.0026   0.0000   0.0000   0.0000   0.0000   0.0000
     0.0000   0.0000   0.0000   0.0000   0.0000   0.0000   0.0000   0.0000
     0.0000   0.0000   0.0000   0.0000   0.0000   0.0000   0.0000   0.0000
     0.0000   0.0000   0.0000   0.0000   0.0000   0.0000   0.0000   0.0000
     0.0000   0.0000   0.0000   0.0000   0.0000   0.0000   0.0000   0.0000
     0.0000   0.0000   0.0000   0.0000   0.0000   0.0000   0.0000   0.0000
     0.0000   0.0000   0.0000   0.0000   0.0000   0.0000   0.0000   0.0000
     0.0000   0.0000   0.0000   0.0000   0.0000   0.0000   0.0000   0.0000
     0.0000   0.0000   0.0000   0.0000   0.0000   0.0000   0.0000   0.0000
     0.0000   0.0000   0.0000   0.0000   0.0000   0.0000   0.0000   0.0000
     0.0000   0.0000   0.0000   0.0000   0.0000   0.0000   0.0000   0.0000
     0.0000   0.0000   0.0000   0.0000   0.0000   0.0000   0.0000   0.0000

          k =-0.5000 0.5774 0.0000 (156796 PWs)   bands (ev):

   -94.3790 -94.3745 -94.3722 -94.3692 -94.3657 -94.3650 -94.3608 -94.3603
   -94.3600 -94.3580 -94.3545 -94.3533 -94.3527 -94.3507 -94.3498 -94.3468
   -94.3458 -94.3449 -94.3435 -94.3428 -94.3426 -94.3422 -94.3415 -94.3396
   -94.3389 -94.3385 -94.3274 -94.3269 -94.3262 -94.3201 -94.3129 -94.3127
   -93.9197 -93.9170 -93.9166 -93.9157 -93.9140 -93.9128 -93.9121 -93.9100
   -93.9094 -93.9085 -93.9083 -93.9080 -93.9072 -93.9062 -93.9054 -93.9042
   -93.9041 -93.9033 -93.9017 -93.9010 -93.8996 -93.8987 -93.8962 -93.8961
   -93.8949 -93.8933 -93.8921 -93.8912 -93.8894 -93.8889 -93.8888 -93.7709
   -48.6732 -48.6610 -48.6598 -48.6535 -48.6524 -48.6474 -48.6419 -48.6411
   -48.6382 -48.6345 -48.6324 -48.6313 -48.6280 -48.6228 -48.6221 -48.6206
   -48.6201 -48.6168 -48.6139 -48.6111 -48.6076 -48.6072 -48.6020 -48.5923
   -48.5857 -48.5825 -48.5768 -48.5731 -48.5470 -48.5433 -48.5333 -48.5247
   -48.5227 -48.5217 -48.5210 -48.5209 -48.5185 -48.5155 -48.5120 -48.5043
   -48.5012 -48.4994 -48.4972 -48.4958 -48.4919 -48.4870 -48.4720 -48.4698
   -48.4680 -48.4654 -48.4626 -48.4593 -48.4584 -48.4549 -48.4531 -48.4485
   -48.4468 -48.4448 -48.4435 -48.4412 -48.4402 -48.4386 -48.4380 -48.4359
   -48.4346 -48.4340 -48.4303 -48.4291 -48.4282 -48.4273 -48.4245 -48.4223
   -48.4193 -48.4188 -48.4176 -48.4156 -48.4143 -48.4118 -48.4074 -48.4065
   -48.4056 -48.3997 -48.3990 -48.3969 -48.3917 -48.3915 -48.3887 -48.3852
   -48.3829 -48.3794 -48.3769 -48.3728 -48.3638 -48.3554 -48.3504 -48.3410
   -48.2768 -48.2689 -48.2655 -48.2640 -48.2607 -48.2592 -48.2564 -48.2554
   -48.2527 -48.2469 -48.2450 -48.2434 -48.2383 -48.2303 -48.2286 -48.2276
   -48.2248 -48.2203 -48.2152 -48.2072 -48.1974 -48.1908 -48.1802 -48.1791
   -48.1630 -48.1626 -48.1539 -48.1479 -48.1339 -48.1333 -48.1235 -48.1158
   -48.1060 -48.0951 -48.0927 -48.0909 -48.0851 -48.0818 -48.0802 -48.0799
   -48.0794 -48.0771 -48.0766 -48.0744 -48.0735 -48.0721 -48.0693 -48.0682
   -48.0665 -48.0628 -48.0587 -48.0567 -48.0565 -48.0514 -48.0380 -48.0370
   -48.0320 -48.0252 -48.0246 -48.0216 -48.0140 -48.0097 -47.9546 -47.9526
   -47.8547 -47.8510 -47.8485 -47.8472 -47.8436 -47.8424 -47.8421 -47.8396
   -47.8368 -47.8366 -47.8361 -47.8354 -47.8349 -47.8336 -47.8314 -47.8313
   -47.8305 -47.8297 -47.8274 -47.8256 -47.8246 -47.8213 -47.8181 -47.8180
   -47.8146 -47.8140 -47.8109 -47.8107 -47.8048 -47.8045 -47.8041 -47.7425
    -7.2802  -4.6481  -4.1719  -4.1508  -3.3582  -2.9402  -2.9286  -2.9098
    -2.8921  -2.4079  -2.3937  -2.2927  -2.2474  -2.2357  -2.2341  -2.1843
    -2.0375  -2.0173  -1.9688  -1.9622  -1.9538  -1.9349  -1.9193  -1.8848
    -1.8726  -1.8278  -1.8087  -1.8001  -1.7610  -1.7387  -1.6914  -1.6737
    -1.5989  -1.5926  -1.5758  -1.5550  -1.5465  -1.5201  -1.5164  -1.4818
    -1.4139  -1.4046  -1.3544  -1.3479  -1.2998  -1.2849  -1.2362  -1.2257
    -1.1557  -1.1529  -1.1295  -1.1244  -1.1189  -1.1170  -1.0946  -1.0907
    -1.0781  -1.0595  -1.0277  -0.9773  -0.9610  -0.9426  -0.9349  -0.8559
    -0.8539  -0.8274  -0.7644  -0.7550  -0.7496  -0.7317  -0.6481  -0.5949
    -0.5899  -0.5870  -0.5811  -0.5740  -0.4826  -0.4790  -0.4715  -0.4636
    -0.4582  -0.4233  -0.3613  -0.3524  -0.3381  -0.3260  -0.3200  -0.2981
    -0.2902  -0.2645  -0.2633  -0.1863  -0.1505  -0.0971  -0.0926  -0.0742
    -0.0571  -0.0417  -0.0267  -0.0169   0.0322   0.1207   0.1295   0.1418
     0.2022   0.2226   0.2234   0.2372   0.2745   0.2858   0.3284   0.3354
     0.3807   0.3957   0.4029   0.4273   0.4388   0.4781   0.5667   0.5688
     0.5794   0.5935   0.6018   0.6105   0.6219   0.6238   0.6281   0.6413
     0.6681   0.6708   0.6766   0.6830   0.6899   0.7135   0.7334   0.7543
     0.7821   0.7835   0.8006   0.8116   0.8582   0.8675   0.8741   0.8824
     0.8975   0.9039   0.9454   0.9705   0.9725   0.9759   0.9884   0.9922
     0.9945   1.0069   1.0116   1.0198   1.0236   1.0506   1.0613   1.0867
     1.0917   1.1073   1.1189   1.1290   1.1568   1.1661   1.2207   1.2279
     1.2336   1.2624   1.2684   1.2827   1.2899   1.3081   1.3234   1.3345
     1.3482   1.3587   1.3777   1.3931   1.4069   1.4143   1.4296   1.4467
     1.4538   1.4625   1.4737   1.4929   1.5001   1.5154   1.5698   1.6621
     1.6707   1.6761   1.7074   1.7810   1.7867   1.8323   1.8443   1.9011
     1.9134   1.9555   1.9590   1.9957   2.0032   2.0111   2.0228   2.0315
     2.0463   2.0536   2.0602   2.0816   2.1273   2.1342   2.1406   2.1453
     2.1518   2.1581   2.1703   2.1900   2.1951   2.2356   2.2480   2.2538
     2.2661   2.2852   2.3113   2.3178   2.3294   2.3456   2.3633   2.3678
     2.3874   2.4115   2.4729   2.4827   2.4866   2.5793   2.5974   2.6068
     2.7284   2.7550   2.7709   2.7740   2.7934   2.8099   2.8163   2.8222
     2.8506   2.8543   2.8595   2.8803   2.9186   2.9446   2.9474   2.9552
     2.9801   2.9900   3.0063   3.0110   3.0169   3.0375   3.0461   3.0815
     3.0949   3.1174   3.1229   3.1278   3.1405   3.1471   3.1577   3.1905
     3.2066   3.2183   3.2345   3.2392   3.2536   3.2757   3.2815   3.2901
     3.3871   3.4095   3.4144   3.4536   3.4553   3.4620   3.4821   3.4989
     3.5076   3.5349   3.5530   3.5710   3.6148   3.6179   3.6239   3.6609
     3.6714   3.6953   3.6976   3.7052   3.7329   3.7727   3.7766   3.7886
     3.7994   3.8189   3.8286   3.8376   3.8532   3.8692   3.8811   3.8911
     3.9084   3.9238   3.9525   3.9573   3.9692   3.9718   3.9825   3.9887
     3.9949   4.0105   4.0164   4.0218   4.0323   4.0365   4.0564   4.0634
     4.0760   4.0779   4.0812   4.1482   4.1553   4.1887   4.2200   4.2552
     4.2586   4.2657   4.2763   4.3053   4.3094   4.3199   4.6544   4.6804
     4.6885   4.7331   4.8512   4.9139   4.9172   5.0274   5.0364   5.1420
     5.1764   5.1868   5.2650   5.2944   5.3953   5.5510   5.7581   6.0772
     6.0855   6.2192   6.2327   6.3434   6.6505   6.7298   6.7857   7.0787
     7.0849   7.2636   7.3196   7.3504   7.4235   7.5439   7.5608   7.7528
     7.7555   7.7588   7.9561   8.1421   8.3194   8.3385   8.3435   8.3481
     8.5252   8.5268   8.9407   8.9447   9.0607   9.1059   9.2095   9.2199
     9.2528   9.3294   9.3749   9.4571   9.5685   9.7536   9.7548   9.8178
     9.8866   9.8958   9.9523  10.0181  10.1629  10.1784  10.2042  10.2804
    10.3015  10.3511  10.3829  10.4648  10.4826  10.4932  10.5115  10.5282
    10.6169  10.7147  10.7789  10.8090  10.8165  10.8275  10.8475  10.9006
    10.9247  10.9769  10.9841  11.0918  11.1023  11.2271  11.4129  11.4836
    11.5794  11.5944  11.6072  11.6135  11.6615  11.6986  11.7483  11.7767

     occupation numbers 
     1.0000   1.0000   1.0000   1.0000   1.0000   1.0000   1.0000   1.0000
     1.0000   1.0000   1.0000   1.0000   1.0000   1.0000   1.0000   1.0000
     1.0000   1.0000   1.0000   1.0000   1.0000   1.0000   1.0000   1.0000
     1.0000   1.0000   1.0000   1.0000   1.0000   1.0000   1.0000   1.0000
     1.0000   1.0000   1.0000   1.0000   1.0000   1.0000   1.0000   1.0000
     1.0000   1.0000   1.0000   1.0000   1.0000   1.0000   1.0000   1.0000
     1.0000   1.0000   1.0000   1.0000   1.0000   1.0000   1.0000   1.0000
     1.0000   1.0000   1.0000   1.0000   1.0000   1.0000   1.0000   1.0000
     1.0000   1.0000   1.0000   1.0000   1.0000   1.0000   1.0000   1.0000
     1.0000   1.0000   1.0000   1.0000   1.0000   1.0000   1.0000   1.0000
     1.0000   1.0000   1.0000   1.0000   1.0000   1.0000   1.0000   1.0000
     1.0000   1.0000   1.0000   1.0000   1.0000   1.0000   1.0000   1.0000
     1.0000   1.0000   1.0000   1.0000   1.0000   1.0000   1.0000   1.0000
     1.0000   1.0000   1.0000   1.0000   1.0000   1.0000   1.0000   1.0000
     1.0000   1.0000   1.0000   1.0000   1.0000   1.0000   1.0000   1.0000
     1.0000   1.0000   1.0000   1.0000   1.0000   1.0000   1.0000   1.0000
     1.0000   1.0000   1.0000   1.0000   1.0000   1.0000   1.0000   1.0000
     1.0000   1.0000   1.0000   1.0000   1.0000   1.0000   1.0000   1.0000
     1.0000   1.0000   1.0000   1.0000   1.0000   1.0000   1.0000   1.0000
     1.0000   1.0000   1.0000   1.0000   1.0000   1.0000   1.0000   1.0000
     1.0000   1.0000   1.0000   1.0000   1.0000   1.0000   1.0000   1.0000
     1.0000   1.0000   1.0000   1.0000   1.0000   1.0000   1.0000   1.0000
     1.0000   1.0000   1.0000   1.0000   1.0000   1.0000   1.0000   1.0000
     1.0000   1.0000   1.0000   1.0000   1.0000   1.0000   1.0000   1.0000
     1.0000   1.0000   1.0000   1.0000   1.0000   1.0000   1.0000   1.0000
     1.0000   1.0000   1.0000   1.0000   1.0000   1.0000   1.0000   1.0000
     1.0000   1.0000   1.0000   1.0000   1.0000   1.0000   1.0000   1.0000
     1.0000   1.0000   1.0000   1.0000   1.0000   1.0000   1.0000   1.0000
     1.0000   1.0000   1.0000   1.0000   1.0000   1.0000   1.0000   1.0000
     1.0000   1.0000   1.0000   1.0000   1.0000   1.0000   1.0000   1.0000
     1.0000   1.0000   1.0000   1.0000   1.0000   1.0000   1.0000   1.0000
     1.0000   1.0000   1.0000   1.0000   1.0000   1.0000   1.0000   1.0000
     1.0000   1.0000   1.0000   1.0000   1.0000   1.0000   1.0000   1.0000
     1.0000   1.0000   1.0000   1.0000   1.0000   1.0000   1.0000   1.0000
     1.0000   1.0000   1.0000   1.0000   1.0000   1.0000   1.0000   1.0000
     1.0000   1.0000   1.0000   1.0000   1.0000   1.0000   1.0000   1.0000
     1.0000   1.0000   1.0000   1.0000   1.0000   1.0000   1.0000   1.0000
     1.0000   1.0000   1.0000   1.0000   1.0000   1.0000   1.0000   1.0000
     1.0000   1.0000   1.0000   1.0000   1.0000   1.0000   1.0000   1.0000
     1.0000   1.0000   1.0000   1.0000   1.0000   1.0000   1.0000   1.0000
     1.0000   1.0000   1.0000   1.0000   1.0000   1.0000   1.0000   1.0000
     1.0000   1.0000   1.0000   1.0000   1.0000   1.0000   1.0000   1.0000
     1.0000   1.0000   1.0000   1.0000   1.0000   1.0000   1.0000   1.0000
     1.0000   1.0000   1.0000   1.0000   1.0000   1.0000   1.0000   1.0000
     1.0000   1.0000   1.0000   1.0000   1.0000   1.0000   1.0000   1.0000
     1.0000   1.0000   1.0000   1.0000   1.0000   1.0000   1.0000   1.0000
     1.0000   1.0000   1.0000   1.0000   1.0000   1.0000   1.0000   1.0000
     1.0000   1.0000   1.0000   1.0000   1.0000   1.0000   1.0000   1.0000
     1.0000   1.0000   1.0000   1.0000   1.0000   1.0000   1.0000   1.0000
     1.0000   1.0000   1.0000   1.0000   1.0000   1.0000   1.0000   1.0000
     1.0000   1.0000   1.0000   1.0000   1.0000   1.0000   1.0000   1.0000
     1.0000   1.0000   1.0000   1.0000   1.0000   1.0000   1.0000   1.0000
     1.0000   1.0000   1.0000   1.0000   1.0000   1.0000   1.0000   1.0000
     1.0000   1.0000   1.0000   1.0000   1.0000   1.0000   1.0000   1.0000
     1.0000   1.0000   1.0000   1.0000   1.0000   1.0000   1.0000   1.0000
     1.0000   1.0000   1.0000   1.0000   1.0000   1.0000   1.0000   1.0000
     1.0000   1.0000   1.0000   1.0000   1.0000   1.0000   1.0000   1.0000
     1.0000   1.0000   1.0000   1.0000   1.0000   1.0000   1.0000   1.0000
     1.0000   1.0000   1.0000   1.0000   1.0000   1.0000   1.0000   1.0000
     1.0000   1.0000   1.0000   1.0000   1.0000   1.0000   1.0000   1.0000
     1.0000   1.0000   1.0000   1.0000   1.0000   1.0000   1.0000   1.0000
     1.0000   1.0000   1.0000   1.0000   1.0000   1.0000   1.0000   1.0000
     1.0000   1.0000   1.0000   1.0000   1.0000   1.0000   1.0000   1.0000
     1.0000   1.0000   1.0000   1.0000   1.0000   1.0000   1.0000   1.0000
     1.0000   1.0000   1.0000   1.0000   1.0000   1.0000   1.0000   1.0000
     1.0000   1.0000   1.0000   1.0000   1.0000   1.0000   1.0000   1.0000
     1.0000   1.0000   1.0000   1.0000   1.0000   1.0000   1.0000   1.0000
     1.0000   1.0000   1.0000   1.0000   1.0000   1.0000   1.0000   1.0000
     1.0000   1.0000   1.0000   1.0000   0.9999   0.9999   0.9999   0.9998
     0.9998   0.9996   0.9996   0.9995   0.9992   0.9981   0.9980   0.9974
     0.9968   0.9953   0.9943   0.9932   0.9907   0.9873   0.9839   0.9804
     0.9726   0.9631   0.9363   0.9302   0.9132   0.9090   0.8896   0.8768
     0.8629   0.8215   0.8036   0.7860   0.7486   0.7326   0.6479   0.6153
     0.5540   0.5447   0.5284   0.2268   0.2028   0.1154   0.0652   0.0333
     0.0313   0.0272   0.0221   0.0125   0.0115   0.0094   0.0000   0.0000
     0.0000   0.0000   0.0000   0.0000   0.0000   0.0000   0.0000   0.0000
     0.0000   0.0000   0.0000   0.0000   0.0000   0.0000   0.0000   0.0000
     0.0000   0.0000   0.0000   0.0000   0.0000   0.0000   0.0000   0.0000
     0.0000   0.0000   0.0000   0.0000   0.0000   0.0000   0.0000   0.0000
     0.0000   0.0000   0.0000   0.0000   0.0000   0.0000   0.0000   0.0000
     0.0000   0.0000   0.0000   0.0000   0.0000   0.0000   0.0000   0.0000
     0.0000   0.0000   0.0000   0.0000   0.0000   0.0000   0.0000   0.0000
     0.0000   0.0000   0.0000   0.0000   0.0000   0.0000   0.0000   0.0000
     0.0000   0.0000   0.0000   0.0000   0.0000   0.0000   0.0000   0.0000
     0.0000   0.0000   0.0000   0.0000   0.0000   0.0000   0.0000   0.0000
     0.0000   0.0000   0.0000   0.0000   0.0000   0.0000   0.0000   0.0000
     0.0000   0.0000   0.0000   0.0000   0.0000   0.0000   0.0000   0.0000

          k =-0.5000-0.2887 0.0000 (156724 PWs)   bands (ev):

   -94.3790 -94.3745 -94.3723 -94.3692 -94.3659 -94.3648 -94.3610 -94.3602
   -94.3600 -94.3580 -94.3544 -94.3538 -94.3521 -94.3511 -94.3495 -94.3471
   -94.3457 -94.3446 -94.3435 -94.3427 -94.3425 -94.3423 -94.3418 -94.3395
   -94.3388 -94.3387 -94.3274 -94.3269 -94.3262 -94.3201 -94.3129 -94.3127
   -93.9196 -93.9175 -93.9166 -93.9145 -93.9137 -93.9134 -93.9132 -93.9092
   -93.9088 -93.9088 -93.9085 -93.9081 -93.9071 -93.9066 -93.9053 -93.9042
   -93.9039 -93.9034 -93.9017 -93.9010 -93.8996 -93.8986 -93.8962 -93.8961
   -93.8949 -93.8930 -93.8924 -93.8911 -93.8894 -93.8889 -93.8887 -93.7709
   -48.6684 -48.6649 -48.6606 -48.6595 -48.6470 -48.6439 -48.6435 -48.6417
   -48.6401 -48.6392 -48.6318 -48.6311 -48.6307 -48.6277 -48.6230 -48.6201
   -48.6154 -48.6144 -48.6103 -48.6089 -48.6066 -48.5967 -48.5941 -48.5904
   -48.5894 -48.5874 -48.5842 -48.5750 -48.5570 -48.5541 -48.5242 -48.5225
   -48.5223 -48.5207 -48.5206 -48.5158 -48.5139 -48.5123 -48.5105 -48.5084
   -48.5049 -48.5003 -48.4993 -48.4957 -48.4844 -48.4837 -48.4803 -48.4773
   -48.4674 -48.4652 -48.4588 -48.4587 -48.4523 -48.4516 -48.4500 -48.4483
   -48.4467 -48.4449 -48.4432 -48.4416 -48.4411 -48.4404 -48.4397 -48.4384
   -48.4383 -48.4326 -48.4322 -48.4299 -48.4290 -48.4277 -48.4269 -48.4251
   -48.4249 -48.4226 -48.4216 -48.4139 -48.4095 -48.4062 -48.4046 -48.4040
   -48.4023 -48.3994 -48.3983 -48.3981 -48.3953 -48.3893 -48.3860 -48.3814
   -48.3812 -48.3794 -48.3775 -48.3731 -48.3703 -48.3569 -48.3500 -48.3400
   -48.2703 -48.2692 -48.2685 -48.2658 -48.2638 -48.2619 -48.2595 -48.2515
   -48.2491 -48.2488 -48.2439 -48.2425 -48.2408 -48.2373 -48.2370 -48.2219
   -48.2084 -48.2080 -48.2071 -48.2061 -48.2044 -48.1996 -48.1889 -48.1808
   -48.1682 -48.1681 -48.1617 -48.1497 -48.1173 -48.1173 -48.1114 -48.1038
   -48.1034 -48.1028 -48.1020 -48.1006 -48.0938 -48.0932 -48.0872 -48.0859
   -48.0769 -48.0766 -48.0761 -48.0752 -48.0743 -48.0697 -48.0692 -48.0674
   -48.0651 -48.0601 -48.0599 -48.0498 -48.0480 -48.0399 -48.0392 -48.0384
   -48.0338 -48.0323 -48.0321 -48.0177 -48.0153 -48.0072 -47.9557 -47.9517
   -47.8545 -47.8520 -47.8472 -47.8463 -47.8447 -47.8436 -47.8423 -47.8374
   -47.8370 -47.8364 -47.8361 -47.8358 -47.8353 -47.8344 -47.8312 -47.8307
   -47.8306 -47.8299 -47.8274 -47.8256 -47.8246 -47.8213 -47.8181 -47.8181
   -47.8146 -47.8141 -47.8109 -47.8107 -47.8047 -47.8046 -47.8040 -47.7425
    -7.2802  -4.5339  -4.5130  -3.6071  -3.5964  -3.2478  -3.2318  -2.4196
    -2.4071  -2.3952  -2.3778  -2.3456  -2.3307  -2.3295  -2.3231  -2.1391
    -2.1252  -2.0818  -2.0612  -2.0088  -1.9949  -1.9738  -1.9662  -1.9495
    -1.9484  -1.7975  -1.7891  -1.7765  -1.7743  -1.6882  -1.6815  -1.6685
    -1.6570  -1.5156  -1.5048  -1.4435  -1.4369  -1.4273  -1.4236  -1.4073
    -1.3849  -1.3336  -1.3311  -1.3192  -1.3039  -1.2926  -1.2863  -1.2171
    -1.2112  -1.1763  -1.1755  -1.1615  -1.1570  -1.1501  -1.1262  -1.1086
    -1.1068  -1.0835  -1.0793  -0.9789  -0.9718  -0.9706  -0.9544  -0.9298
    -0.9251  -0.9011  -0.8817  -0.7931  -0.7792  -0.5933  -0.5837  -0.5620
    -0.5598  -0.5452  -0.5448  -0.5334  -0.5264  -0.4896  -0.4819  -0.4557
    -0.4454  -0.4349  -0.4234  -0.4224  -0.4003  -0.2402  -0.2377  -0.2297
    -0.2246  -0.2026  -0.1925  -0.1675  -0.1671  -0.1246  -0.0963  -0.0877
    -0.0664  -0.0260   0.0028   0.0903   0.0942   0.1027   0.1175   0.1349
     0.1447   0.1462   0.1641   0.1676   0.1779   0.3199   0.3380   0.3422
     0.3456   0.3468   0.3627   0.4101   0.4131   0.4333   0.4404   0.4977
     0.5051   0.5313   0.5551   0.6281   0.6337   0.6467   0.6597   0.6981
     0.7038   0.7150   0.7423   0.7519   0.7550   0.7935   0.8014   0.8194
     0.8219   0.8301   0.8411   0.9178   0.9253   0.9426   0.9430   0.9453
     0.9478   0.9518   0.9688   0.9778   0.9840   0.9849   1.0078   1.0358
     1.0433   1.0557   1.0573   1.0650   1.0685   1.0774   1.0866   1.0938
     1.1142   1.1305   1.1323   1.1351   1.1399   1.1447   1.1532   1.1654
     1.1828   1.1858   1.1955   1.1977   1.2201   1.2587   1.2843   1.2918
     1.2993   1.3023   1.3153   1.3220   1.3549   1.3801   1.3994   1.4029
     1.4190   1.4209   1.4570   1.5097   1.5292   1.5862   1.5969   1.6064
     1.6277   1.6492   1.6816   1.7085   1.7201   1.7308   1.7328   1.7337
     1.7567   1.8019   1.8332   1.9790   1.9813   2.0176   2.0267   2.0624
     2.0646   2.0682   2.0770   2.1219   2.1230   2.1291   2.1314   2.1414
     2.1594   2.1672   2.1762   2.1872   2.2120   2.3143   2.3359   2.3904
     2.3955   2.4020   2.4069   2.4195   2.4318   2.4348   2.4419   2.5012
     2.5081   2.5239   2.5334   2.5544   2.5657   2.5901   2.5922   2.6354
     2.6401   2.6562   2.6686   2.7161   2.7324   2.7372   2.7459   2.8142
     2.8169   2.8257   2.8378   2.8568   2.8643   2.8707   2.8789   2.9488
     2.9600   2.9702   2.9846   2.9867   2.9954   2.9964   3.0005   3.0048
     3.0364   3.0713   3.0727   3.0866   3.0915   3.0998   3.1087   3.2423
     3.2537   3.2936   3.3228   3.3922   3.4514   3.4568   3.4628   3.4648
     3.4693   3.4872   3.4989   3.5029   3.5037   3.5150   3.5170   3.5700
     3.5997   3.6064   3.6189   3.6233   3.6238   3.6282   3.6346   3.6387
     3.6499   3.6673   3.6677   3.6734   3.6801   3.6861   3.6958   3.7668
     3.7874   3.7971   3.8423   3.8428   3.8496   3.8561   3.8630   3.8697
     3.8806   3.8917   3.8990   3.9582   3.9657   3.9788   3.9881   3.9973
     3.9987   4.0069   4.0114   4.0504   4.0733   4.0840   4.0978   4.0979
     4.1064   4.1091   4.1139   4.1237   4.1269   4.1372   4.1415   4.1901
     4.1932   4.2005   4.2067   4.2377   4.2471   4.3149   4.3519   4.3538
     4.3768   4.3817   4.3821   4.8822   5.0819   5.2234   5.3013   5.3047
     5.3206   5.3593   5.3873   5.6324   5.8446   5.8506   5.8542   5.8573
     6.1077   6.2004   6.3380   6.3464   6.3473   6.3570   6.5431   6.6587
     7.3205   7.3303   7.3398   7.3483   7.4230   7.4387   7.4575   7.4904
     7.7878   7.8098   8.1749   8.1911   8.2085   8.2549   8.2939   8.3113
     8.9589   8.9836   8.9854   8.9989   9.0952   9.2021   9.2166   9.2772
     9.2828   9.2985   9.4694   9.4727   9.7634   9.7829   9.7883   9.7892
     9.9379   9.9539  10.0314  10.0432  10.0587  10.0845  10.1680  10.2219
    10.2231  10.2351  10.2376  10.2726  10.3834  10.4056  10.4087  10.4141
    10.4269  10.4336  10.5818  10.6108  10.7811  10.7886  10.8686  10.8799
    11.1004  11.1920  11.2158  11.3030  11.3804  11.3891  11.4060  11.4245
    11.4327  11.4401  11.4613  11.4650  11.5365  11.6002  11.6877  11.7509

     occupation numbers 
     1.0000   1.0000   1.0000   1.0000   1.0000   1.0000   1.0000   1.0000
     1.0000   1.0000   1.0000   1.0000   1.0000   1.0000   1.0000   1.0000
     1.0000   1.0000   1.0000   1.0000   1.0000   1.0000   1.0000   1.0000
     1.0000   1.0000   1.0000   1.0000   1.0000   1.0000   1.0000   1.0000
     1.0000   1.0000   1.0000   1.0000   1.0000   1.0000   1.0000   1.0000
     1.0000   1.0000   1.0000   1.0000   1.0000   1.0000   1.0000   1.0000
     1.0000   1.0000   1.0000   1.0000   1.0000   1.0000   1.0000   1.0000
     1.0000   1.0000   1.0000   1.0000   1.0000   1.0000   1.0000   1.0000
     1.0000   1.0000   1.0000   1.0000   1.0000   1.0000   1.0000   1.0000
     1.0000   1.0000   1.0000   1.0000   1.0000   1.0000   1.0000   1.0000
     1.0000   1.0000   1.0000   1.0000   1.0000   1.0000   1.0000   1.0000
     1.0000   1.0000   1.0000   1.0000   1.0000   1.0000   1.0000   1.0000
     1.0000   1.0000   1.0000   1.0000   1.0000   1.0000   1.0000   1.0000
     1.0000   1.0000   1.0000   1.0000   1.0000   1.0000   1.0000   1.0000
     1.0000   1.0000   1.0000   1.0000   1.0000   1.0000   1.0000   1.0000
     1.0000   1.0000   1.0000   1.0000   1.0000   1.0000   1.0000   1.0000
     1.0000   1.0000   1.0000   1.0000   1.0000   1.0000   1.0000   1.0000
     1.0000   1.0000   1.0000   1.0000   1.0000   1.0000   1.0000   1.0000
     1.0000   1.0000   1.0000   1.0000   1.0000   1.0000   1.0000   1.0000
     1.0000   1.0000   1.0000   1.0000   1.0000   1.0000   1.0000   1.0000
     1.0000   1.0000   1.0000   1.0000   1.0000   1.0000   1.0000   1.0000
     1.0000   1.0000   1.0000   1.0000   1.0000   1.0000   1.0000   1.0000
     1.0000   1.0000   1.0000   1.0000   1.0000   1.0000   1.0000   1.0000
     1.0000   1.0000   1.0000   1.0000   1.0000   1.0000   1.0000   1.0000
     1.0000   1.0000   1.0000   1.0000   1.0000   1.0000   1.0000   1.0000
     1.0000   1.0000   1.0000   1.0000   1.0000   1.0000   1.0000   1.0000
     1.0000   1.0000   1.0000   1.0000   1.0000   1.0000   1.0000   1.0000
     1.0000   1.0000   1.0000   1.0000   1.0000   1.0000   1.0000   1.0000
     1.0000   1.0000   1.0000   1.0000   1.0000   1.0000   1.0000   1.0000
     1.0000   1.0000   1.0000   1.0000   1.0000   1.0000   1.0000   1.0000
     1.0000   1.0000   1.0000   1.0000   1.0000   1.0000   1.0000   1.0000
     1.0000   1.0000   1.0000   1.0000   1.0000   1.0000   1.0000   1.0000
     1.0000   1.0000   1.0000   1.0000   1.0000   1.0000   1.0000   1.0000
     1.0000   1.0000   1.0000   1.0000   1.0000   1.0000   1.0000   1.0000
     1.0000   1.0000   1.0000   1.0000   1.0000   1.0000   1.0000   1.0000
     1.0000   1.0000   1.0000   1.0000   1.0000   1.0000   1.0000   1.0000
     1.0000   1.0000   1.0000   1.0000   1.0000   1.0000   1.0000   1.0000
     1.0000   1.0000   1.0000   1.0000   1.0000   1.0000   1.0000   1.0000
     1.0000   1.0000   1.0000   1.0000   1.0000   1.0000   1.0000   1.0000
     1.0000   1.0000   1.0000   1.0000   1.0000   1.0000   1.0000   1.0000
     1.0000   1.0000   1.0000   1.0000   1.0000   1.0000   1.0000   1.0000
     1.0000   1.0000   1.0000   1.0000   1.0000   1.0000   1.0000   1.0000
     1.0000   1.0000   1.0000   1.0000   1.0000   1.0000   1.0000   1.0000
     1.0000   1.0000   1.0000   1.0000   1.0000   1.0000   1.0000   1.0000
     1.0000   1.0000   1.0000   1.0000   1.0000   1.0000   1.0000   1.0000
     1.0000   1.0000   1.0000   1.0000   1.0000   1.0000   1.0000   1.0000
     1.0000   1.0000   1.0000   1.0000   1.0000   1.0000   1.0000   1.0000
     1.0000   1.0000   1.0000   1.0000   1.0000   1.0000   1.0000   1.0000
     1.0000   1.0000   1.0000   1.0000   1.0000   1.0000   1.0000   1.0000
     1.0000   1.0000   1.0000   1.0000   1.0000   1.0000   1.0000   1.0000
     1.0000   1.0000   1.0000   1.0000   1.0000   1.0000   1.0000   1.0000
     1.0000   1.0000   1.0000   1.0000   1.0000   1.0000   1.0000   1.0000
     1.0000   1.0000   1.0000   1.0000   1.0000   1.0000   1.0000   1.0000
     1.0000   1.0000   1.0000   1.0000   1.0000   1.0000   1.0000   1.0000
     1.0000   1.0000   1.0000   1.0000   1.0000   1.0000   1.0000   1.0000
     1.0000   1.0000   1.0000   1.0000   1.0000   1.0000   1.0000   1.0000
     1.0000   1.0000   1.0000   1.0000   1.0000   1.0000   1.0000   1.0000
     1.0000   1.0000   1.0000   1.0000   1.0000   1.0000   1.0000   1.0000
     1.0000   1.0000   1.0000   1.0000   1.0000   1.0000   1.0000   1.0000
     1.0000   1.0000   1.0000   1.0000   1.0000   1.0000   1.0000   1.0000
     1.0000   1.0000   1.0000   1.0000   1.0000   1.0000   1.0000   1.0000
     1.0000   1.0000   1.0000   1.0000   1.0000   1.0000   1.0000   1.0000
     1.0000   1.0000   1.0000   1.0000   1.0000   1.0000   1.0000   1.0000
     1.0000   1.0000   1.0000   1.0000   1.0000   1.0000   1.0000   1.0000
     1.0000   1.0000   1.0000   1.0000   1.0000   1.0000   1.0000   1.0000
     1.0000   1.0000   1.0000   1.0000   1.0000   1.0000   1.0000   1.0000
     1.0000   1.0000   1.0000   1.0000   1.0000   1.0000   1.0000   1.0000
     1.0000   1.0000   1.0000   1.0000   1.0000   1.0000   1.0000   1.0000
     0.9999   0.9999   0.9999   0.9999   0.9999   0.9999   0.9999   0.9999
     0.9998   0.9998   0.9998   0.9997   0.9997   0.9997   0.9996   0.9983
     0.9975   0.9970   0.9925   0.9925   0.9914   0.9902   0.9888   0.9872
     0.9841   0.9802   0.9772   0.9292   0.9185   0.8967   0.8781   0.8572
     0.8537   0.8321   0.8191   0.6746   0.5672   0.5142   0.4457   0.4450
     0.4033   0.3908   0.3682   0.3236   0.3100   0.2675   0.2512   0.1125
     0.1065   0.0933   0.0834   0.0466   0.0390   0.0104   0.0050   0.0048
     0.0030   0.0027   0.0027   0.0000   0.0000   0.0000   0.0000   0.0000
     0.0000   0.0000   0.0000   0.0000   0.0000   0.0000   0.0000   0.0000
     0.0000   0.0000   0.0000   0.0000   0.0000   0.0000   0.0000   0.0000
     0.0000   0.0000   0.0000   0.0000   0.0000   0.0000   0.0000   0.0000
     0.0000   0.0000   0.0000   0.0000   0.0000   0.0000   0.0000   0.0000
     0.0000   0.0000   0.0000   0.0000   0.0000   0.0000   0.0000   0.0000
     0.0000   0.0000   0.0000   0.0000   0.0000   0.0000   0.0000   0.0000
     0.0000   0.0000   0.0000   0.0000   0.0000   0.0000   0.0000   0.0000
     0.0000   0.0000   0.0000   0.0000   0.0000   0.0000   0.0000   0.0000
     0.0000   0.0000   0.0000   0.0000   0.0000   0.0000   0.0000   0.0000
     0.0000   0.0000   0.0000   0.0000   0.0000   0.0000   0.0000   0.0000
     0.0000   0.0000   0.0000   0.0000   0.0000   0.0000   0.0000   0.0000

     the Fermi energy is     4.0869 ev

!    total energy              =  -58760.45326676 Ry
     total all-electron energy =  -2357102.375146 Ry
     estimated scf accuracy    <       0.00000542 Ry
     smearing contrib. (-TS)   =      -0.08675356 Ry
     internal energy E=F+TS    =  -58760.36651321 Ry

     The total energy is F=E-TS. E is the sum of the following terms:
     one-electron contribution = -161900.64239614 Ry
     hartree contribution      =   81078.68034802 Ry
     xc contribution           =   -2449.10822582 Ry
     ewald contribution        =   67436.24984413 Ry
     one-center paw contrib.   =  -42925.54608340 Ry
      -> PAW hartree energy AE =     701.28037674 Ry
      -> PAW hartree energy PS =    -697.91280528 Ry
      -> PAW xc energy AE      =   -2832.93580304 Ry
      -> PAW xc energy PS      =     147.11707001 Ry
      -> total E_H with PAW    =   81082.04791948 Ry
      -> total E_XC with PAW   =   -5134.92695885 Ry

     total magnetization       =    -0.18 Bohr mag/cell
     absolute magnetization    =     1.75 Bohr mag/cell

     convergence has been achieved in  19 iterations

     negative rho (up, down):  1.024E-03 1.056E-03

     Forces acting on atoms (cartesian axes, Ry/au):

     atom    1 type  1   force =     0.00144260   -0.00089999   -0.00600318
     atom    2 type  1   force =    -0.00156924   -0.00090585   -0.00599032
     atom    3 type  1   force =    -0.00054960    0.00006926   -0.00454411
     atom    4 type  1   force =     0.00054524    0.00005116   -0.00454134
     atom    5 type  1   force =    -0.00003339   -0.00058817   -0.00443490
     atom    6 type  1   force =    -0.00019382   -0.00049331   -0.00453085
     atom    7 type  1   force =    -0.00005197   -0.00000846   -0.00446926
     atom    8 type  1   force =     0.00012102   -0.00049119   -0.00455698
     atom    9 type  1   force =     0.00000647   -0.00003921   -0.00444071
     atom   10 type  1   force =     0.00031747    0.00040459   -0.00456074
     atom   11 type  1   force =    -0.00038256    0.00035241   -0.00454215
     atom   12 type  1   force =    -0.00007916   -0.00006402   -0.00445620
     atom   13 type  1   force =     0.00046557    0.00023296   -0.00442940
     atom   14 type  1   force =    -0.00004711    0.00164469   -0.00597966
     atom   15 type  1   force =    -0.00052153    0.00022784   -0.00442280
     atom   16 type  1   force =    -0.00003726   -0.00001937   -0.00448724
     atom   17 type  1   force =     0.00012750   -0.00004821    0.00404510
     atom   18 type  1   force =     0.00222628    0.00130860    0.00389416
     atom   19 type  1   force =    -0.00005242    0.00271062    0.00988051
     atom   20 type  1   force =    -0.00203757    0.00119042    0.00371812
     atom   21 type  1   force =     0.00055116    0.00032211    0.00309307
     atom   22 type  1   force =     0.00226105   -0.00131926    0.00982865
     atom   23 type  1   force =    -0.00215653   -0.00124638    0.00967137
     atom   24 type  1   force =    -0.00042411    0.00036185    0.00300435
     atom   25 type  1   force =     0.00004068   -0.00047355    0.00308651
     atom   26 type  1   force =    -0.00000718   -0.00226913    0.00359685
     atom   27 type  1   force =     0.00007425   -0.00050025    0.00297968
     atom   28 type  1   force =     0.00008111    0.00005675    0.00442245
     atom   29 type  1   force =     0.00012006    0.00010979    0.00410927
     atom   30 type  1   force =    -0.00002652    0.00018393    0.00406786
     atom   31 type  1   force =     0.00054544    0.00034578    0.00314727
     atom   32 type  1   force =    -0.00039800    0.00027954    0.00313238
     atom   33 type  1   force =     0.00024735    0.00002611    0.00043148
     atom   34 type  1   force =    -0.00021936    0.00001884    0.00039678
     atom   35 type  1   force =     0.00052395    0.00036567    0.00057972
     atom   36 type  1   force =    -0.00064009    0.00048102    0.00090176
     atom   37 type  1   force =     0.00001543   -0.00030137    0.00015917
     atom   38 type  1   force =    -0.00036433    0.00027880    0.00033309
     atom   39 type  1   force =     0.00006653   -0.00082127    0.00098145
     atom   40 type  1   force =     0.00041558    0.00026520    0.00031997
     atom   41 type  1   force =     0.00025908    0.00014555    0.00010941
     atom   42 type  1   force =    -0.00012240    0.00020404    0.00038670
     atom   43 type  1   force =     0.00011898    0.00019692    0.00040907
     atom   44 type  1   force =    -0.00023620    0.00013994    0.00014233
     atom   45 type  1   force =     0.00016195   -0.00022501    0.00037415
     atom   46 type  1   force =     0.00000501   -0.00000946    0.00065151
     atom   47 type  1   force =    -0.00014557   -0.00023088    0.00040860
     atom   48 type  1   force =     0.00005033   -0.00045833    0.00036068
     atom   49 type  1   force =    -0.00003135    0.00002739    0.00002710
     atom   50 type  1   force =     0.00001599    0.00003074    0.00005844
     atom   51 type  1   force =     0.00235846    0.00248485    0.00364282
     atom   52 type  1   force =    -0.00225716    0.00262508    0.00381545
     atom   53 type  1   force =     0.00003634   -0.00019253    0.00018929
     atom   54 type  1   force =     0.00338571    0.00086475    0.00374063
     atom   55 type  1   force =    -0.00020258   -0.00019846   -0.00024209
     atom   56 type  1   force =    -0.00365537    0.00088979    0.00410139
     atom   57 type  1   force =    -0.00025674    0.00017821    0.00019538
     atom   58 type  1   force =     0.00122267   -0.00335837    0.00395014
     atom   59 type  1   force =    -0.00116122   -0.00359635    0.00418905
     atom   60 type  1   force =     0.00026606    0.00016220    0.00014322
     atom   61 type  1   force =     0.00018206    0.00011205    0.00012195
     atom   62 type  1   force =     0.00003361   -0.00007500    0.00000955
     atom   63 type  1   force =    -0.00017404    0.00011957    0.00013589
     atom   64 type  1   force =     0.00003006   -0.00032689    0.00021093
     atom   65 type  2   force =     0.00118136    0.00125598    0.04681330
     atom   66 type  3   force =    -0.00054952    0.00548920   -0.02584621
     atom   67 type  3   force =     0.00463061   -0.00357927   -0.02579743
     atom   68 type  3   force =    -0.00554911   -0.00347465   -0.02569244
     The non-local contrib.  to forces
     atom    1 type  1   force =    -0.00145126    0.00087061   -0.08557198
     atom    2 type  1   force =     0.00149473    0.00088352   -0.08554370
     atom    3 type  1   force =     0.00057428   -0.00033423   -0.08635791
     atom    4 type  1   force =    -0.00059372   -0.00032529   -0.08629267
     atom    5 type  1   force =    -0.00000857   -0.00003434   -0.08610663
     atom    6 type  1   force =    -0.00001772    0.00068144   -0.08634565
     atom    7 type  1   force =    -0.00000382    0.00002881   -0.08635993
     atom    8 type  1   force =     0.00003108    0.00068957   -0.08632562
     atom    9 type  1   force =    -0.00003532    0.00000617   -0.08600338
     atom   10 type  1   force =    -0.00058654   -0.00035361   -0.08629106
     atom   11 type  1   force =     0.00058901   -0.00032734   -0.08629224
     atom   12 type  1   force =     0.00003579    0.00000728   -0.08603625
     atom   13 type  1   force =     0.00005012    0.00000576   -0.08610795
     atom   14 type  1   force =     0.00001018   -0.00169230   -0.08555918
     atom   15 type  1   force =    -0.00004126    0.00000245   -0.08609744
     atom   16 type  1   force =    -0.00001406   -0.00004974   -0.08604339
     atom   17 type  1   force =     0.00016335    0.00028173   -0.00454269
     atom   18 type  1   force =     0.00342960    0.00203698   -0.00017338
     atom   19 type  1   force =     0.00003046    0.00024557   -0.00023763
     atom   20 type  1   force =    -0.00318643    0.00197767   -0.00030348
     atom   21 type  1   force =    -0.00053413    0.00067097   -0.00495372
     atom   22 type  1   force =     0.00016217    0.00001066   -0.00028367
     atom   23 type  1   force =     0.00002130    0.00004759   -0.00041229
     atom   24 type  1   force =     0.00067208    0.00067317   -0.00498719
     atom   25 type  1   force =    -0.00072623    0.00025367   -0.00487009
     atom   26 type  1   force =     0.00006914   -0.00365271   -0.00039908
     atom   27 type  1   force =     0.00086990    0.00027697   -0.00497458
     atom   28 type  1   force =     0.00007271    0.00004735   -0.00392782
     atom   29 type  1   force =    -0.00005483    0.00002682   -0.00443154
     atom   30 type  1   force =     0.00025967    0.00008515   -0.00450909
     atom   31 type  1   force =     0.00030559   -0.00074853   -0.00489823
     atom   32 type  1   force =    -0.00016090   -0.00075065   -0.00484717
     atom   33 type  1   force =     0.00268199    0.00034853    0.00924084
     atom   34 type  1   force =    -0.00278401    0.00033311    0.00918893
     atom   35 type  1   force =    -0.00863202   -0.00488197    0.00418160
     atom   36 type  1   force =     0.00869473   -0.00476278    0.00478154
     atom   37 type  1   force =    -0.00001583    0.00066605    0.00778862
     atom   38 type  1   force =    -0.00218455    0.00143486    0.00717400
     atom   39 type  1   force =     0.00015425    0.00994549    0.00499588
     atom   40 type  1   force =     0.00224131    0.00135375    0.00715477
     atom   41 type  1   force =    -0.00055043   -0.00034414    0.00775316
     atom   42 type  1   force =    -0.00139659    0.00219287    0.00919638
     atom   43 type  1   force =     0.00153525    0.00212015    0.00922956
     atom   44 type  1   force =     0.00056606   -0.00037982    0.00777746
     atom   45 type  1   force =     0.00126837   -0.00236887    0.00917804
     atom   46 type  1   force =     0.00002090    0.00000461    0.00911016
     atom   47 type  1   force =    -0.00120194   -0.00256280    0.00918817
     atom   48 type  1   force =     0.00011123   -0.00261760    0.00719369
     atom   49 type  1   force =    -0.00081645    0.00056260    0.08278523
     atom   50 type  1   force =     0.00024939    0.00017200    0.08282236
     atom   51 type  1   force =     0.00477736   -0.00053115    0.08381547
     atom   52 type  1   force =    -0.00436577   -0.00007466    0.08372452
     atom   53 type  1   force =     0.00017450   -0.00089612    0.08258130
     atom   54 type  1   force =     0.00207559    0.00472904    0.08384092
     atom   55 type  1   force =    -0.00121209   -0.00129602    0.06021744
     atom   56 type  1   force =    -0.00275452    0.00491888    0.08375083
     atom   57 type  1   force =     0.00095883   -0.00063217    0.08381647
     atom   58 type  1   force =    -0.00212831   -0.00402622    0.08365686
     atom   59 type  1   force =     0.00256294   -0.00481074    0.08372840
     atom   60 type  1   force =    -0.00159163   -0.00092891    0.08392449
     atom   61 type  1   force =     0.00047119    0.00035280    0.08271995
     atom   62 type  1   force =     0.00007954   -0.00130605    0.08276998
     atom   63 type  1   force =    -0.00059279    0.00059398    0.08260093
     atom   64 type  1   force =    -0.00004552    0.00082106    0.08378277
     atom   65 type  2   force =    -0.00034143   -0.00036282   -0.07145419
     atom   66 type  3   force =    -0.00040156   -0.07183421   -0.02332785
     atom   67 type  3   force =    -0.06230597    0.03530884   -0.02403131
     atom   68 type  3   force =     0.06163450    0.03537680   -0.02569250
     The ionic contribution  to forces
     atom    1 type  1   force =    -0.04699546    0.02598255 -326.89569656
     atom    2 type  1   force =     0.05010060    0.02861296 -326.89228080
     atom    3 type  1   force =     0.04520116    0.10271196 -326.77874765
     atom    4 type  1   force =    -0.04828633    0.09984421 -326.78285091
     atom    5 type  1   force =     0.00328079   -0.00597470 -326.90477168
     atom    6 type  1   force =     0.11172730   -0.01375455 -326.78032885
     atom    7 type  1   force =    -0.00369588   -0.00395198 -326.65084466
     atom    8 type  1   force =    -0.11125388   -0.01326828 -326.78818763
     atom    9 type  1   force =     0.04381206   -0.02448762 -326.90368293
     atom   10 type  1   force =     0.06202741   -0.09169231 -326.78620915
     atom   11 type  1   force =    -0.06539589   -0.09028716 -326.78996430
     atom   12 type  1   force =    -0.04040921   -0.02310371 -326.90721780
     atom   13 type  1   force =     0.00244492    0.00304031 -326.90259158
     atom   14 type  1   force =    -0.00072543   -0.05195754 -326.89721424
     atom   15 type  1   force =    -0.00220466    0.00669007 -326.90416742
     atom   16 type  1   force =     0.00050274    0.05173401 -326.90217648
     atom   17 type  1   force =     0.02019041    0.05924750 -110.78889291
     atom   18 type  1   force =     0.61803917    0.35364603 -110.33928176
     atom   19 type  1   force =    -0.01953845    0.50769429 -110.13037899
     atom   20 type  1   force =    -0.60248693    0.33670912 -110.36856400
     atom   21 type  1   force =     0.19758717   -0.06636902 -110.80279406
     atom   22 type  1   force =     0.42676622   -0.27847054 -110.13806470
     atom   23 type  1   force =    -0.43859429   -0.26274375 -110.15630207
     atom   24 type  1   force =    -0.17689217   -0.05969961 -110.81595481
     atom   25 type  1   force =     0.14174268   -0.12617394 -110.79837832
     atom   26 type  1   force =    -0.00686217   -0.68110482 -110.38127329
     atom   27 type  1   force =    -0.13566437   -0.11996889 -110.81460650
     atom   28 type  1   force =     0.00983008    0.01055020 -110.76989531
     atom   29 type  1   force =    -0.05463691   -0.02145848 -110.78007835
     atom   30 type  1   force =     0.06522672   -0.00424651 -110.78661830
     atom   31 type  1   force =     0.04249607    0.20777684 -110.79578699
     atom   32 type  1   force =    -0.04026003    0.19487927 -110.79274143
     atom   33 type  1   force =     0.06718260   -0.07144260  106.45145392
     atom   34 type  1   force =    -0.03968849   -0.06595428  106.54039285
     atom   35 type  1   force =     0.64414018    0.36616599  110.54888669
     atom   36 type  1   force =    -0.67284428    0.36973227  110.38398372
     atom   37 type  1   force =     0.01275581    0.00754779  107.06806252
     atom   38 type  1   force =     0.22008356   -0.13911893  106.51664354
     atom   39 type  1   force =    -0.01123487   -0.77878512  110.31486837
     atom   40 type  1   force =    -0.22021846   -0.13081442  106.47446898
     atom   41 type  1   force =    -0.00680030    0.00243334  107.10260406
     atom   42 type  1   force =     0.01903600    0.09128552  106.50285639
     atom   43 type  1   force =    -0.02287945    0.10110281  106.43841259
     atom   44 type  1   force =     0.01489430    0.01252269  107.07887395
     atom   45 type  1   force =     0.08063212   -0.02013176  106.54144642
     atom   46 type  1   force =     0.00628622    0.00671809  106.93748540
     atom   47 type  1   force =    -0.07257906   -0.00072509  106.56590390
     atom   48 type  1   force =    -0.00732169    0.26215505  106.53453092
     atom   49 type  1   force =     0.53237497   -0.30575952  322.68392804
     atom   50 type  1   force =    -0.53900956   -0.31143064  322.70258249
     atom   51 type  1   force =    -0.45774899   -1.28843426  320.33361727
     atom   52 type  1   force =     0.45859176   -1.30072017  320.20756854
     atom   53 type  1   force =     0.03036539   -0.01815795  322.83429503
     atom   54 type  1   force =    -1.34711812    0.25262521  320.28353547
     atom   55 type  1   force =    -0.10740055   -0.11622235  331.73632369
     atom   56 type  1   force =     1.35841902    0.27161409  320.03062743
     atom   57 type  1   force =    -0.48916205    0.27440020  322.78605059
     atom   58 type  1   force =    -0.90465479    1.04892163  320.09947342
     atom   59 type  1   force =     0.91644604    1.04226287  319.97265846
     atom   60 type  1   force =     0.47421988    0.27187462  322.77198371
     atom   61 type  1   force =    -0.00789555    0.01089219  322.86634571
     atom   62 type  1   force =     0.00153821    0.61000010  322.67458350
     atom   63 type  1   force =     0.01110706    0.04407198  322.84302197
     atom   64 type  1   force =    -0.00534002   -0.56695267  322.79208357
     atom   65 type  2   force =    -0.01320705   -0.01413782   70.43112092
     atom   66 type  3   force =     0.01080187    2.10126867   17.63501303
     atom   67 type  3   force =     1.82185926   -1.03401564   17.62832662
     atom   68 type  3   force =    -1.80270438   -1.03519786   17.61253073
     The local contribution  to forces
     atom    1 type  1   force =     0.04996912   -0.02778196  326.96987630
     atom    2 type  1   force =    -0.05327773   -0.03044113  326.96643622
     atom    3 type  1   force =    -0.04658381   -0.10214024  326.85520648
     atom    4 type  1   force =     0.04967108   -0.09930824  326.85933322
     atom    5 type  1   force =    -0.00337043    0.00510344  326.98117190
     atom    6 type  1   force =    -0.11189381    0.01236865  326.85687877
     atom    7 type  1   force =     0.00363642    0.00401347  326.72740313
     atom    8 type  1   force =     0.11138578    0.01188127  326.86472330
     atom    9 type  1   force =    -0.04350781    0.02426895  326.98013647
     atom   10 type  1   force =    -0.06084483    0.09260680  326.86276588
     atom   11 type  1   force =     0.06413817    0.09109478  326.86651978
     atom   12 type  1   force =     0.04002381    0.02282551  326.98363143
     atom   13 type  1   force =    -0.00165259   -0.00272616  326.97902842
     atom   14 type  1   force =     0.00061657    0.05523923  326.97145611
     atom   15 type  1   force =     0.00136847   -0.00638550  326.98056840
     atom   16 type  1   force =    -0.00051529   -0.05150537  326.97852178
     atom   17 type  1   force =    -0.02030667   -0.05966864  110.80068072
     atom   18 type  1   force =    -0.61950801   -0.35443577  110.34617029
     atom   19 type  1   force =     0.01948416   -0.50513814  110.14365305
     atom   20 type  1   force =     0.60391209   -0.33759590  110.37542279
     atom   21 type  1   force =    -0.19663187    0.06598432  110.81397422
     atom   22 type  1   force =    -0.42466480    0.27730249  110.15131813
     atom   23 type  1   force =     0.43641151    0.26156154  110.16950530
     atom   24 type  1   force =     0.17588810    0.05929923  110.82706212
     atom   25 type  1   force =    -0.14085985    0.12558128  110.80951509
     atom   26 type  1   force =     0.00673679    0.68270936  110.38808944
     atom   27 type  1   force =     0.13473569    0.11925851  110.82571226
     atom   28 type  1   force =    -0.00979007   -0.01063464  110.78179030
     atom   29 type  1   force =     0.05490252    0.02146466  110.79188054
     atom   30 type  1   force =    -0.06571191    0.00424878  110.79843410
     atom   31 type  1   force =    -0.04245274   -0.20684642  110.80697310
     atom   32 type  1   force =     0.04029283   -0.19402473  110.80390524
     atom   33 type  1   force =    -0.06983772    0.07086478 -106.46075206
     atom   34 type  1   force =     0.04244226    0.06544877 -106.54964439
     atom   35 type  1   force =    -0.63451068   -0.36049634 -110.55208467
     atom   36 type  1   force =     0.66310363   -0.36414768 -110.38744623
     atom   37 type  1   force =    -0.01269175   -0.00828878 -107.07613280
     atom   38 type  1   force =    -0.21862716    0.13831983 -106.52387570
     atom   39 type  1   force =     0.01114647    0.76764675 -110.31847440
     atom   40 type  1   force =     0.21873268    0.13001555 -106.48168497
     atom   41 type  1   force =     0.00755404   -0.00211330 -107.11063658
     atom   42 type  1   force =    -0.01741440   -0.09339705 -106.51213713
     atom   43 type  1   force =     0.02101218   -0.10318293 -106.44770061
     atom   44 type  1   force =    -0.01554294   -0.01221202 -107.08692820
     atom   45 type  1   force =    -0.08157601    0.02249616 -106.55068850
     atom   46 type  1   force =    -0.00635481   -0.00683658 -106.94620723
     atom   47 type  1   force =     0.07344074    0.00331192 -106.57514999
     atom   48 type  1   force =     0.00736037   -0.26052727 -106.54171715
     atom   49 type  1   force =    -0.53147374    0.30510456 -322.75869690
     atom   50 type  1   force =     0.53863626    0.31122688 -322.77727962
     atom   51 type  1   force =     0.45512386    1.29102216 -320.40565927
     atom   52 type  1   force =    -0.45620300    1.30290270 -320.27936228
     atom   53 type  1   force =    -0.03048933    0.01888285 -322.90889764
     atom   54 type  1   force =     1.34790537   -0.25636169 -320.35554144
     atom   55 type  1   force =     0.10848072    0.11748087 -331.78960777
     atom   56 type  1   force =    -1.35876103   -0.27558018 -320.10226127
     atom   57 type  1   force =     0.48794518   -0.27348802 -322.86162797
     atom   58 type  1   force =     0.90772746   -1.04776984 -320.17122453
     atom   59 type  1   force =    -0.91990165   -1.04050740 -320.04418390
     atom   60 type  1   force =    -0.47229314   -0.27069397 -322.84769478
     atom   61 type  1   force =     0.00761303   -0.01118148 -322.94120596
     atom   62 type  1   force =    -0.00161481   -0.60870049 -322.74938780
     atom   63 type  1   force =    -0.01075651   -0.04466664 -322.91768314
     atom   64 type  1   force =     0.00552554    0.56568315 -322.86751757
     atom   65 type  2   force =     0.01464425    0.01567624  -70.31849713
     atom   66 type  3   force =    -0.01095079   -2.02398417  -17.63720500
     atom   67 type  3   force =    -1.75495605    0.99514365  -17.62976670
     atom   68 type  3   force =     1.73555410    0.99636391  -17.61220692
     The core correction contribution to forces
     atom    1 type  1   force =    -0.00001394    0.00001843    0.00719236
     atom    2 type  1   force =     0.00003414    0.00002387    0.00718637
     atom    3 type  1   force =     0.00004402    0.00000400    0.00699008
     atom    4 type  1   force =    -0.00002836    0.00000323    0.00699456
     atom    5 type  1   force =     0.00000782   -0.00001546    0.00702930
     atom    6 type  1   force =     0.00002253    0.00004021    0.00698911
     atom    7 type  1   force =     0.00000646    0.00000848    0.00694416
     atom    8 type  1   force =    -0.00000923    0.00003675    0.00699028
     atom    9 type  1   force =    -0.00003070    0.00002845    0.00700459
     atom   10 type  1   force =    -0.00001396   -0.00002196    0.00699357
     atom   11 type  1   force =     0.00002433   -0.00002060    0.00699324
     atom   12 type  1   force =     0.00004201    0.00002737    0.00700442
     atom   13 type  1   force =     0.00002404    0.00001739    0.00703855
     atom   14 type  1   force =     0.00000666   -0.00001183    0.00719583
     atom   15 type  1   force =    -0.00001164    0.00001833    0.00703295
     atom   16 type  1   force =     0.00000540   -0.00003675    0.00700277
     atom   17 type  1   force =     0.00001145   -0.00005973   -0.00196056
     atom   18 type  1   force =    -0.00002377   -0.00000970   -0.00175384
     atom   19 type  1   force =     0.00001123   -0.00009205   -0.00215533
     atom   20 type  1   force =     0.00003178   -0.00000534   -0.00173840
     atom   21 type  1   force =     0.00002176   -0.00001837   -0.00180282
     atom   22 type  1   force =    -0.00007497    0.00006536   -0.00215160
     atom   23 type  1   force =     0.00009266    0.00005929   -0.00214596
     atom   24 type  1   force =    -0.00000525   -0.00002044   -0.00179779
     atom   25 type  1   force =     0.00003412    0.00000418   -0.00179899
     atom   26 type  1   force =     0.00000808    0.00003314   -0.00173455
     atom   27 type  1   force =    -0.00002265    0.00001030   -0.00179841
     atom   28 type  1   force =     0.00000694    0.00000660   -0.00180839
     atom   29 type  1   force =     0.00006195    0.00004090   -0.00196327
     atom   30 type  1   force =    -0.00004960    0.00004546   -0.00196155
     atom   31 type  1   force =    -0.00000239    0.00003364   -0.00180225
     atom   32 type  1   force =     0.00001560    0.00003193   -0.00180077
     atom   33 type  1   force =     0.00037660    0.00006059    0.00179553
     atom   34 type  1   force =    -0.00039982    0.00004666    0.00179362
     atom   35 type  1   force =    -0.00092570   -0.00053506    0.00091781
     atom   36 type  1   force =     0.00091289   -0.00053099    0.00091164
     atom   37 type  1   force =    -0.00000341    0.00005651    0.00182144
     atom   38 type  1   force =     0.00002452   -0.00000519    0.00187518
     atom   39 type  1   force =    -0.00000182    0.00105116    0.00090546
     atom   40 type  1   force =    -0.00002338   -0.00001123    0.00186763
     atom   41 type  1   force =    -0.00005277   -0.00003097    0.00182020
     atom   42 type  1   force =    -0.00023788    0.00030203    0.00178880
     atom   43 type  1   force =     0.00023954    0.00028952    0.00179246
     atom   44 type  1   force =     0.00004925   -0.00003344    0.00182076
     atom   45 type  1   force =     0.00015478   -0.00036343    0.00178792
     atom   46 type  1   force =    -0.00001204   -0.00001371    0.00170730
     atom   47 type  1   force =    -0.00016573   -0.00037444    0.00179387
     atom   48 type  1   force =     0.00000594    0.00002136    0.00187928
     atom   49 type  1   force =    -0.00006728    0.00003648   -0.00684124
     atom   50 type  1   force =     0.00001350    0.00000740   -0.00683894
     atom   51 type  1   force =     0.00007667    0.00022521   -0.00670931
     atom   52 type  1   force =    -0.00008324    0.00025220   -0.00669240
     atom   53 type  1   force =     0.00000085   -0.00000886   -0.00664056
     atom   54 type  1   force =     0.00025271   -0.00004544   -0.00670606
     atom   55 type  1   force =    -0.00004524   -0.00004851   -0.00656139
     atom   56 type  1   force =    -0.00033029   -0.00004626   -0.00668445
     atom   57 type  1   force =    -0.00005326    0.00001645   -0.00688018
     atom   58 type  1   force =     0.00019568   -0.00022554   -0.00668313
     atom   59 type  1   force =    -0.00021574   -0.00027279   -0.00667677
     atom   60 type  1   force =     0.00000094   -0.00000365   -0.00688508
     atom   61 type  1   force =    -0.00001235   -0.00000685   -0.00664592
     atom   62 type  1   force =     0.00000084   -0.00010307   -0.00684295
     atom   63 type  1   force =    -0.00000190    0.00000184   -0.00664479
     atom   64 type  1   force =    -0.00000898   -0.00007942   -0.00688023
     atom   65 type  2   force =     0.00008674    0.00008302    0.00675729
     atom   66 type  3   force =     0.00000000    0.00000000    0.00000000
     atom   67 type  3   force =     0.00000000    0.00000000    0.00000000
     atom   68 type  3   force =     0.00000000    0.00000000    0.00000000
     The Hubbard contrib.    to forces
     atom    1 type  1   force =     0.00000000    0.00000000    0.00000000
     atom    2 type  1   force =     0.00000000    0.00000000    0.00000000
     atom    3 type  1   force =     0.00000000    0.00000000    0.00000000
     atom    4 type  1   force =     0.00000000    0.00000000    0.00000000
     atom    5 type  1   force =     0.00000000    0.00000000    0.00000000
     atom    6 type  1   force =     0.00000000    0.00000000    0.00000000
     atom    7 type  1   force =     0.00000000    0.00000000    0.00000000
     atom    8 type  1   force =     0.00000000    0.00000000    0.00000000
     atom    9 type  1   force =     0.00000000    0.00000000    0.00000000
     atom   10 type  1   force =     0.00000000    0.00000000    0.00000000
     atom   11 type  1   force =     0.00000000    0.00000000    0.00000000
     atom   12 type  1   force =     0.00000000    0.00000000    0.00000000
     atom   13 type  1   force =     0.00000000    0.00000000    0.00000000
     atom   14 type  1   force =     0.00000000    0.00000000    0.00000000
     atom   15 type  1   force =     0.00000000    0.00000000    0.00000000
     atom   16 type  1   force =     0.00000000    0.00000000    0.00000000
     atom   17 type  1   force =     0.00000000    0.00000000    0.00000000
     atom   18 type  1   force =     0.00000000    0.00000000    0.00000000
     atom   19 type  1   force =     0.00000000    0.00000000    0.00000000
     atom   20 type  1   force =     0.00000000    0.00000000    0.00000000
     atom   21 type  1   force =     0.00000000    0.00000000    0.00000000
     atom   22 type  1   force =     0.00000000    0.00000000    0.00000000
     atom   23 type  1   force =     0.00000000    0.00000000    0.00000000
     atom   24 type  1   force =     0.00000000    0.00000000    0.00000000
     atom   25 type  1   force =     0.00000000    0.00000000    0.00000000
     atom   26 type  1   force =     0.00000000    0.00000000    0.00000000
     atom   27 type  1   force =     0.00000000    0.00000000    0.00000000
     atom   28 type  1   force =     0.00000000    0.00000000    0.00000000
     atom   29 type  1   force =     0.00000000    0.00000000    0.00000000
     atom   30 type  1   force =     0.00000000    0.00000000    0.00000000
     atom   31 type  1   force =     0.00000000    0.00000000    0.00000000
     atom   32 type  1   force =     0.00000000    0.00000000    0.00000000
     atom   33 type  1   force =     0.00000000    0.00000000    0.00000000
     atom   34 type  1   force =     0.00000000    0.00000000    0.00000000
     atom   35 type  1   force =     0.00000000    0.00000000    0.00000000
     atom   36 type  1   force =     0.00000000    0.00000000    0.00000000
     atom   37 type  1   force =     0.00000000    0.00000000    0.00000000
     atom   38 type  1   force =     0.00000000    0.00000000    0.00000000
     atom   39 type  1   force =     0.00000000    0.00000000    0.00000000
     atom   40 type  1   force =     0.00000000    0.00000000    0.00000000
     atom   41 type  1   force =     0.00000000    0.00000000    0.00000000
     atom   42 type  1   force =     0.00000000    0.00000000    0.00000000
     atom   43 type  1   force =     0.00000000    0.00000000    0.00000000
     atom   44 type  1   force =     0.00000000    0.00000000    0.00000000
     atom   45 type  1   force =     0.00000000    0.00000000    0.00000000
     atom   46 type  1   force =     0.00000000    0.00000000    0.00000000
     atom   47 type  1   force =     0.00000000    0.00000000    0.00000000
     atom   48 type  1   force =     0.00000000    0.00000000    0.00000000
     atom   49 type  1   force =     0.00000000    0.00000000    0.00000000
     atom   50 type  1   force =     0.00000000    0.00000000    0.00000000
     atom   51 type  1   force =     0.00000000    0.00000000    0.00000000
     atom   52 type  1   force =     0.00000000    0.00000000    0.00000000
     atom   53 type  1   force =     0.00000000    0.00000000    0.00000000
     atom   54 type  1   force =     0.00000000    0.00000000    0.00000000
     atom   55 type  1   force =     0.00000000    0.00000000    0.00000000
     atom   56 type  1   force =     0.00000000    0.00000000    0.00000000
     atom   57 type  1   force =     0.00000000    0.00000000    0.00000000
     atom   58 type  1   force =     0.00000000    0.00000000    0.00000000
     atom   59 type  1   force =     0.00000000    0.00000000    0.00000000
     atom   60 type  1   force =     0.00000000    0.00000000    0.00000000
     atom   61 type  1   force =     0.00000000    0.00000000    0.00000000
     atom   62 type  1   force =     0.00000000    0.00000000    0.00000000
     atom   63 type  1   force =     0.00000000    0.00000000    0.00000000
     atom   64 type  1   force =     0.00000000    0.00000000    0.00000000
     atom   65 type  2   force =     0.00000000    0.00000000    0.00000000
     atom   66 type  3   force =     0.00000000    0.00000000    0.00000000
     atom   67 type  3   force =     0.00000000    0.00000000    0.00000000
     atom   68 type  3   force =     0.00000000    0.00000000    0.00000000
     The SCF correction term to forces
     atom    1 type  1   force =    -0.00000000    0.00000000   -0.00000000
     atom    2 type  1   force =     0.00000000    0.00000000   -0.00000000
     atom    3 type  1   force =     0.00000000   -0.00000000   -0.00000000
     atom    4 type  1   force =    -0.00000000   -0.00000000   -0.00000000
     atom    5 type  1   force =     0.00000000    0.00000000   -0.00000000
     atom    6 type  1   force =    -0.00000000    0.00000000   -0.00000000
     atom    7 type  1   force =     0.00000000   -0.00000000   -0.00000000
     atom    8 type  1   force =    -0.00000000    0.00000000   -0.00000000
     atom    9 type  1   force =    -0.00000000    0.00000000   -0.00000000
     atom   10 type  1   force =    -0.00000000   -0.00000000   -0.00000000
     atom   11 type  1   force =     0.00000000   -0.00000000   -0.00000000
     atom   12 type  1   force =     0.00000000    0.00000000   -0.00000000
     atom   13 type  1   force =    -0.00000000   -0.00000000   -0.00000000
     atom   14 type  1   force =     0.00000000    0.00000000   -0.00000000
     atom   15 type  1   force =     0.00000000   -0.00000000   -0.00000000
     atom   16 type  1   force =    -0.00000000   -0.00000000   -0.00000000
     atom   17 type  1   force =     0.00000000    0.00000000   -0.00000000
     atom   18 type  1   force =     0.00000000    0.00000000   -0.00000000
     atom   19 type  1   force =    -0.00000000   -0.00000000   -0.00000000
     atom   20 type  1   force =    -0.00000000    0.00000000   -0.00000000
     atom   21 type  1   force =     0.00000000    0.00000000   -0.00000000
     atom   22 type  1   force =     0.00000000   -0.00000000   -0.00000000
     atom   23 type  1   force =    -0.00000000   -0.00000000   -0.00000000
     atom   24 type  1   force =    -0.00000000    0.00000000   -0.00000000
     atom   25 type  1   force =    -0.00000000   -0.00000000   -0.00000000
     atom   26 type  1   force =     0.00000000   -0.00000000   -0.00000000
     atom   27 type  1   force =     0.00000000   -0.00000000   -0.00000000
     atom   28 type  1   force =    -0.00000000    0.00000000   -0.00000000
     atom   29 type  1   force =    -0.00000000    0.00000000   -0.00000000
     atom   30 type  1   force =     0.00000000    0.00000000   -0.00000000
     atom   31 type  1   force =     0.00000000    0.00000000   -0.00000000
     atom   32 type  1   force =    -0.00000000    0.00000000   -0.00000000
     atom   33 type  1   force =    -0.00015728    0.00019155   -0.00109508
     atom   34 type  1   force =     0.00020955    0.00014132   -0.00112255
     atom   35 type  1   force =     0.00045103    0.00010980   -0.00111004
     atom   36 type  1   force =    -0.00050821    0.00018693   -0.00111724
     atom   37 type  1   force =    -0.00003054   -0.00028620   -0.00116894
     atom   38 type  1   force =     0.00033815   -0.00035504   -0.00127227
     atom   39 type  1   force =     0.00000134   -0.00068281   -0.00110218
     atom   40 type  1   force =    -0.00031772   -0.00028172   -0.00127476
     atom   41 type  1   force =     0.00010739    0.00019736   -0.00121976
     atom   42 type  1   force =    -0.00011069   -0.00018259   -0.00110607
     atom   43 type  1   force =     0.00021031   -0.00013589   -0.00111326
     atom   44 type  1   force =    -0.00020402    0.00023926   -0.00118997
     atom   45 type  1   force =    -0.00031846    0.00013962   -0.00113806
     atom   46 type  1   force =     0.00006358    0.00011485   -0.00123246
     atom   47 type  1   force =     0.00035927    0.00011627   -0.00111568
     atom   48 type  1   force =    -0.00010668    0.00050687   -0.00131438
     atom   49 type  1   force =    -0.00004999    0.00008001   -0.00093636
     atom   50 type  1   force =     0.00012526    0.00005185   -0.00101617
     atom   51 type  1   force =     0.00012841    0.00019962   -0.00120968
     atom   52 type  1   force =    -0.00019807    0.00026174   -0.00121126
     atom   53 type  1   force =    -0.00001622   -0.00001571   -0.00093716
     atom   54 type  1   force =     0.00026901   -0.00008562   -0.00117658
     atom   55 type  1   force =    -0.00002657   -0.00011571   -0.00040239
     atom   56 type  1   force =    -0.00022970   -0.00002000   -0.00111948
     atom   57 type  1   force =     0.00005340   -0.00012151   -0.00095186
     atom   58 type  1   force =     0.00008149   -0.00026166   -0.00106082
     atom   59 type  1   force =    -0.00005396   -0.00027155   -0.00112546
     atom   60 type  1   force =    -0.00007115   -0.00008915   -0.00097345
     atom   61 type  1   force =     0.00000460    0.00005213   -0.00088017
     atom   62 type  1   force =     0.00002869    0.00003125   -0.00090150
     atom   63 type  1   force =     0.00006895    0.00011515   -0.00094741
     atom   64 type  1   force =    -0.00010211    0.00019774   -0.00104594
     atom   65 type  2   force =    -0.00000230   -0.00000591   -0.00090192
     atom   66 type  3   force =    -0.00000019    0.00003564   -0.00011472
     atom   67 type  3   force =     0.00003223   -0.00001938   -0.00011436
     atom   68 type  3   force =    -0.00003448   -0.00002076   -0.00011208

     Total force =     0.066875     Total SCF correction =     0.006490


     Computing stress (Cartesian axis) and pressure


     negative rho (up, down):  1.024E-03 1.056E-03
          total   stress  (Ry/bohr**3)                   (kbar)     P=      -25.48
  -0.00024632   0.00000000  -0.00000027          -36.23        0.00       -0.04
   0.00000000  -0.00024633  -0.00000029            0.00      -36.24       -0.04
  -0.00000027  -0.00000029  -0.00002705           -0.04       -0.04       -3.98

     kinetic stress (kbar)  30708.38      0.46      0.57
                                0.46  30707.39      0.62
                                0.57      0.62  31069.78

     local   stress (kbar)**********      4.83      4.40
                                4.83**********      4.73
                                4.40      4.731175347.27

     nonloc. stress (kbar)  -9882.66     -0.10     -0.12
                               -0.10  -9882.44     -0.13
                               -0.12     -0.13  -9971.06

     hartree stress (kbar) 584493.08     -1.72     -1.33
                               -1.72 584496.75     -1.44
                               -1.33     -1.44-571784.12

     exc-cor stress (kbar)   2257.31     -0.00     -0.01
                               -0.00   2257.32     -0.01
                               -0.01     -0.01   2248.11

     corecor stress (kbar)  -7109.65     -0.01     -0.01
                               -0.01  -7109.63     -0.01
                               -0.01     -0.01  -7114.36

     ewald   stress (kbar) 558255.57     -3.46     -3.54
                               -3.46 558262.94     -3.81
                               -3.54     -3.81-619799.60

     hubbard stress (kbar)      0.00      0.00      0.00
                                0.00      0.00      0.00
                                0.00      0.00      0.00

     DFT-D   stress (kbar)      0.00      0.00      0.00
                                0.00      0.00      0.00
                                0.00      0.00      0.00

     XDM     stress (kbar)      0.00      0.00      0.00
                                0.00      0.00      0.00
                                0.00      0.00      0.00

     dft-nl  stress (kbar)      0.00      0.00      0.00
                                0.00      0.00      0.00
                                0.00      0.00      0.00

     TS-vdW  stress (kbar)      0.00      0.00      0.00
                                0.00      0.00      0.00
                                0.00      0.00      0.00

     MDB     stress (kbar)      0.00      0.00      0.00
                                0.00      0.00      0.00
                                0.00      0.00      0.00

     3D-RISM stress (kbar)      0.00      0.00      0.00
                                0.00      0.00      0.00
                                0.00      0.00      0.00


     Writing all to output data dir ./output/pt-ch3-8.save/ :
     XML data file, charge density, pseudopotentials, collected wavefunctions

     init_run     :    854.17s CPU    860.52s WALL (       1 calls)
     electrons    :  62494.77s CPU  62748.62s WALL (       1 calls)
     forces       :    543.90s CPU    545.48s WALL (       1 calls)
     stress       :   1760.50s CPU   1764.80s WALL (       1 calls)

     Called by init_run:
     wfcinit      :    832.13s CPU    837.71s WALL (       1 calls)
     wfcinit:atom :      1.64s CPU      2.51s WALL (      20 calls)
     wfcinit:wfcr :    823.52s CPU    827.27s WALL (      20 calls)
     potinit      :      9.40s CPU      9.54s WALL (       1 calls)
     hinit0       :      2.48s CPU      2.53s WALL (       1 calls)

     Called by electrons:
     c_bands      :  57039.21s CPU  57252.63s WALL (      20 calls)
     sum_band     :   5084.85s CPU   5112.80s WALL (      20 calls)
     v_of_rho     :     71.00s CPU     72.28s WALL (      20 calls)
     v_h          :      2.46s CPU      2.48s WALL (      20 calls)
     v_xc         :     75.43s CPU     76.82s WALL (      22 calls)
     newd         :    134.69s CPU    144.50s WALL (      20 calls)
     PAW_pot      :    105.53s CPU    105.75s WALL (      20 calls)
     mix_rho      :     69.02s CPU     69.47s WALL (      20 calls)

     Called by c_bands:
     init_us_2    :    203.30s CPU    204.36s WALL (     860 calls)
     cegterg      :  56598.94s CPU  56810.38s WALL (     400 calls)

     Called by sum_band:
     sum_band:wei :      0.47s CPU      0.47s WALL (      20 calls)
     sum_band:loo :   4851.07s CPU   4866.49s WALL (      20 calls)
     sum_band:buf :     36.51s CPU     36.82s WALL (     400 calls)
     sum_band:ini :     94.46s CPU     94.86s WALL (     400 calls)
     sum_band:cal :   2460.20s CPU   2463.68s WALL (     400 calls)
     sum_band:bec :      7.95s CPU      7.98s WALL (     400 calls)
     addusdens    :    225.93s CPU    238.41s WALL (      20 calls)
                                        0.00s GPU  (      20 calls)
     addusd:skk   :      3.78s CPU      5.68s WALL (      60 calls)
                                        0.00s GPU  (      60 calls)

     Called by *egterg:
     cdiaghg      :   5044.83s CPU   5049.75s WALL (    4260 calls)
     cegterg:over :   6233.90s CPU   6244.55s WALL (    3880 calls)
     cegterg:upda :   3769.92s CPU   3795.58s WALL (    3880 calls)
     cegterg:last :  10780.09s CPU  10796.15s WALL (     795 calls)
     cdiaghg:chol :    286.47s CPU    286.79s WALL (    4260 calls)
     cdiaghg:inve :     88.08s CPU     88.18s WALL (    4260 calls)
     cdiaghg:para :   1003.78s CPU   1005.05s WALL (    8520 calls)
     h_psi        :  23620.40s CPU  23726.13s WALL (    4300 calls)
     s_psi        :   5656.68s CPU   5665.23s WALL (    4300 calls)
     g_psi        :     47.85s CPU     47.99s WALL (    3880 calls)

     Called by h_psi:
     h_psi:calbec :   5456.34s CPU   5464.91s WALL (    4300 calls)
     vloc_psi     :  12448.81s CPU  12509.70s WALL (    4300 calls)
     add_vuspsi   :   5655.49s CPU   5663.85s WALL (    4300 calls)

     General routines
     calbec       :  10012.45s CPU  10026.59s WALL (    5040 calls)
     fft          :     44.33s CPU     44.69s WALL (     540 calls)
     ffts         :     28.59s CPU     28.71s WALL (    2294 calls)
     fftw         :   8991.53s CPU   9029.58s WALL ( 1504784 calls)
     interpolate  :      3.95s CPU      3.97s WALL (      40 calls)

     Parallel routines

     PAW routines
     PAW_pot      :    105.53s CPU    105.75s WALL (      20 calls)

     PWSCF        :     18h14m CPU     18h20m WALL


   This run was terminated on:   5:48:18   4Jun2026            

=------------------------------------------------------------------------------=
   JOB DONE.
=------------------------------------------------------------------------------=
