16

Ag      0.000000000000000      0.000000000000000     20.000000000000000
Ag      2.892066735052980      0.000000000000000     20.000000000000000
Ag      1.446033367526490      2.504603261995799     20.000000000000000
Ag      4.338100102579469      2.504603261995799     20.000000000000000
Ag      1.446033367526490      0.834867753998600     22.361362600985569
Ag      4.338100102579469      0.834867753998600     22.361362600985569
Ag      2.892066735052980      3.339471015994399     22.361362600985569
Ag      5.784133470105959      3.339471015994399     22.361362600985569
Ag     -0.000000014863844      1.669735139141060     24.814276587684141
Ag      2.892066614124276      1.669735517708228     24.814276830317642
Ag      1.446033710923370      4.174338587170696     24.814276747504518
Ag      4.338099734308627      4.174338650444512     24.814276833574482
Ag     -0.000000050375302     -0.000000129829364     27.306367571541262
Ag      2.892066781444607     -0.000000269793979     27.306367750652985
Ag      1.446033662155428      2.504603161664808     27.306367684744039
Ag      4.338099970139740      2.504603086351411     27.306367680133761
