16

Au      0.000000000000000      0.000000000000000     20.000000000000000
Au      2.884995667241114      0.000000000000000     20.000000000000000
Au      1.442497833620557      2.498479537638842     20.000000000000000
Au      4.327493500861672      2.498479537638842     20.000000000000000
Au      1.442497833620557      0.832826512546280     22.355589098293674
Au      4.327493500861672      0.832826512546280     22.355589098293674
Au      2.884995667241114      3.331306050185122     22.355589098293674
Au      5.769991334482229      3.331306050185122     22.355589098293674
Au     -0.000000118933627      1.665653037983374     24.828969064930678
Au      2.884995612198215      1.665652925988482     24.828968956289703
Au      1.442498021550909      4.164132719145844     24.828968704419434
Au      4.327493567284247      4.164132768788242     24.828968559208128
Au      0.000000330130766      0.000000146941795     27.399200055548906
Au      2.884995399925491      0.000000189310828     27.399201168579761
Au      1.442497899770724      2.498479581376341     27.399200734751002
Au      4.327493664025115      2.498479711257979     27.399200193182860
