22
Lattice="5.5961570545186 0.0 0.0 2.7980785272593 4.846414172780604 0.0 0.0 0.0 47.23223814013615" Properties=species:S:1:pos:R:3:tags:I:1:forces:R:3 energy=-113.09518656094713 pbc="T T T"
Pt       0.00000000       0.00000000      20.00000000        4       0.00000000       0.00000000       0.00000000
Pt       2.77185858       0.00000000      20.00000000        4       0.00000000       0.00000000       0.00000000
Pt       1.38592929       2.40049995      20.00000000        4       0.00000000       0.00000000       0.00000000
Pt       4.15778787       2.40049995      20.00000000        4       0.00000000       0.00000000       0.00000000
Pt       1.38592929       0.80016665      22.26321306        3       0.00000000       0.00000000       0.00000000
Pt       4.15778787       0.80016665      22.26321306        3       0.00000000       0.00000000       0.00000000
Pt       2.77185858       3.20066660      22.26321306        3       0.00000000       0.00000000       0.00000000
Pt       5.54371716       3.20066660      22.26321306        3       0.00000000       0.00000000       0.00000000
Pt      -0.03878991       1.55209528      24.56802444        2      -0.02809522      -0.00074167      -0.00008324
Pt       2.75803629       1.55346569      24.57710923        2      -0.00172043       0.00416607      -0.00979450
Pt       1.35759796       3.97861231      24.55848132        2      -0.00715881      -0.02733959       0.01003208
Pt       4.15730964       3.98150906      24.56908413        2      -0.02450942      -0.04114593       0.00240766
Pt      -0.06549153      -0.14011192      26.90603677        1       0.00911388       0.01913390       0.01619868
Pt       2.73745998      -0.13932938      26.91283071        1      -0.01056115      -0.00544964      -0.00829423
Pt       1.33372453       2.28299441      26.90604345        1      -0.00856022       0.03250867       0.02305776
Pt       4.12923926       2.28577211      26.91140389        1       0.04440651       0.01805182      -0.00706892
C        3.12590834       1.77243651      31.24002283        0      -0.01000430       0.01649745       0.01028461
H        3.87954139       1.07906938      31.64767538        0      -0.00585463       0.00840841      -0.01262734
H        2.23701067       1.74433964      31.89820433        0      -0.01851605      -0.01280031       0.00816833
H        2.83432600       1.42994665      30.22647322        0       0.01478572      -0.00502497       0.03237868
O        3.73565823       3.07737761      31.21436560        0       0.03062875      -0.01970682      -0.00059532
H        3.05817636       3.71274022      30.92274708        0      -0.01252297       0.01334199      -0.01651328
