16
Lattice="5.02 0.0 0.0 2.51 4.347447526997882 0.0 0.0 0.0 46.10683" Properties=species:S:1:pos:R:3:move_mask:L:1:forces:R:3 charge=0 spin=0 energy=-93.91402968319561 pbc="T T T"
Co      -0.00000000       1.44914918      20.00000000  F       0.00000000       0.00000000       0.00000000
Co       2.51000000       1.44914918      20.00000000  F       0.00000000       0.00000000       0.00000000
Co       1.25500000       3.62287294      20.00000000  F       0.00000000       0.00000000       0.00000000
Co       3.76500000       3.62287294      20.00000000  F       0.00000000       0.00000000       0.00000000
Co       0.00000000       0.00000000      22.03561000  F       0.00000000       0.00000000       0.00000000
Co       2.51000000       0.00000000      22.03561000  F       0.00000000       0.00000000       0.00000000
Co       1.25500000       2.17372376      22.03561000  F       0.00000000       0.00000000       0.00000000
Co       3.76500000       2.17372376      22.03561000  F       0.00000000       0.00000000       0.00000000
Co       0.00000016       1.44914902      23.99421238  T       0.00000011      -0.00000067       0.01265009
Co       2.51000007       1.44914930      23.99421261  T      -0.00000006       0.00000047       0.01264856
Co       1.25499980       3.62287295      23.99421263  T       0.00000295      -0.00000097       0.01265037
Co       3.76499998       3.62287273      23.99421250  T      -0.00000091       0.00000039       0.01265000
Co       0.00000019       0.00000014      25.92707732  T      -0.00000046      -0.00000036      -0.01275272
Co       2.51000008      -0.00000002      25.92707722  T      -0.00000080       0.00000051      -0.01274432
Co       1.25499985       2.17372370      25.92707724  T       0.00000048       0.00000007      -0.01274583
Co       3.76499989       2.17372375      25.92707700  T      -0.00000011      -0.00000022      -0.01274530
