18
Lattice="5.105310960166873 0.0 0.0 2.5526554800834367 4.421328985723636 0.0 0.0 0.0 46.25270341532365" Properties=species:S:1:pos:R:3:move_mask:L:1 charge=0 spin=0 pbc="T T T"
Cu       0.00000000       0.00000000      20.00000000  F
Cu       2.55265548       0.00000000      20.00000000  F
Cu       1.27632774       2.21066449      20.00000000  F
Cu       3.82898322       2.21066449      20.00000000  F
Cu       1.27632774       0.73688816      22.08423447  F
Cu       3.82898322       0.73688816      22.08423447  F
Cu       2.55265548       2.94755266      22.08423447  F
Cu       5.10531096       2.94755266      22.08423447  F
Cu       0.00000014       1.47377676      24.20561535  T
Cu       2.55265561       1.47377603      24.20561547  T
Cu       1.27632761       3.68444068      24.20561524  T
Cu       3.82898331       3.68444070      24.20561521  T
Cu      -0.00000007       0.00000023      26.33765743  T
Cu       2.55265551      -0.00000018      26.33765712  T
Cu       1.27632767       2.21066451      26.33765708  T
Cu       3.82898325       2.21066450      26.33765696  T
O        3.95636972       2.22518268      29.22812729  T
C        3.95636972       2.22518268      28.07778729  T
