18
Lattice="5.02 0.0 0.0 2.51 4.347447526997882 0.0 0.0 0.0 46.10683" Properties=species:S:1:pos:R:3:move_mask:L:1 charge=0 spin=0 pbc="T T T"
Co      -0.00000000       1.44914918      20.00000000  F
Co       2.51000000       1.44914918      20.00000000  F
Co       1.25500000       3.62287294      20.00000000  F
Co       3.76500000       3.62287294      20.00000000  F
Co       0.00000000       0.00000000      22.03561000  F
Co       2.51000000       0.00000000      22.03561000  F
Co       1.25500000       2.17372376      22.03561000  F
Co       3.76500000       2.17372376      22.03561000  F
Co       0.00000016       1.44914902      23.99421238  T
Co       2.51000007       1.44914930      23.99421261  T
Co       1.25499980       3.62287295      23.99421263  T
Co       3.76499998       3.62287273      23.99421250  T
Co       0.00000019       0.00000014      25.92707732  T
Co       2.51000008      -0.00000002      25.92707722  T
Co       1.25499985       2.17372370      25.92707724  T
Co       3.76499989       2.17372375      25.92707700  T
O        3.81667702       2.34108859      28.72474890  T
C        3.81667702       2.34108859      27.57440890  T
