18
Lattice="5.430580079512685 0.0 0.0 2.7152900397563426 4.703020306143701 0.0 0.0 0.0 46.65107510106449" Properties=species:S:1:pos:R:3:move_mask:L:1 charge=0 spin=0 pbc="T T T"
Ir       0.00000000       0.00000000      20.00000000  F
Ir       2.71529004       0.00000000      20.00000000  F
Ir       1.35764502       2.35151015      20.00000000  F
Ir       4.07293506       2.35151015      20.00000000  F
Ir       1.35764502       0.78383672      22.21702503  F
Ir       4.07293506       0.78383672      22.21702503  F
Ir       2.71529004       3.13534687      22.21702503  F
Ir       5.43058008       3.13534687      22.21702503  F
Ir      -0.00000002       1.56767330      24.44933261  T
Ir       2.71529006       1.56767326      24.44933261  T
Ir       1.35764502       3.91918328      24.44933251  T
Ir       4.07293507       3.91918326      24.44933254  T
Ir      -0.00000002       0.00000028      26.66637020  T
Ir       2.71528999       0.00000028      26.66637020  T
Ir       1.35764501       2.35151002      26.66637020  T
Ir       4.07293504       2.35151000      26.66637016  T
O        4.07024481       2.37297348      29.65552863  T
C        4.07024481       2.37297348      28.50518863  T
