18
Lattice="5.50129075763134 0.0 0.0 0.0 5.50129075763134 0.0 0.0 0.0 45.835" Properties=species:S:1:pos:R:3:move_mask:L:1 charge=0 spin=0 pbc="T T T"
Pd       1.37532269       1.37532269      20.00000000  F
Pd       4.12596807       1.37532269      20.00000000  F
Pd       1.37532269       4.12596807      20.00000000  F
Pd       4.12596807       4.12596807      20.00000000  F
Pd       0.00000000       0.00000000      21.94500000  F
Pd       2.75064538       0.00000000      21.94500000  F
Pd       0.00000000       2.75064538      21.94500000  F
Pd       2.75064538       2.75064538      21.94500000  F
Pd       1.37342440       1.38077633      23.98704397  T
Pd       4.12437181       1.39118072      24.01726975  T
Pd       1.37472251       4.12285233      23.98709617  T
Pd       4.12556721       4.11421529      24.01452091  T
Pd       0.00055234       0.00243856      26.01502235  T
Pd       2.74805682       0.00282558      26.01582446  T
Pd      -0.00137470       2.75556560      26.13223167  T
Pd       2.74169550       2.75214296      26.13385656  T
O        1.28311429       1.01796906      28.78733746  T
C        1.28406879       0.98976866      27.60498930  T
