18
Lattice="5.4 0.0 0.0 2.7 4.676537180435969 0.0 0.0 0.0 46.4152" Properties=species:S:1:pos:R:3:move_mask:L:1 charge=0 spin=0 pbc="T T T"
Ru      -0.00000000       1.55884573      20.00000000  F
Ru       2.70000000       1.55884573      20.00000000  F
Ru       1.35000000       3.89711432      20.00000000  F
Ru       4.05000000       3.89711432      20.00000000  F
Ru       0.00000000       0.00000000      22.13840000  F
Ru       2.70000000       0.00000000      22.13840000  F
Ru       1.35000000       2.33826859      22.13840000  F
Ru       4.05000000       2.33826859      22.13840000  F
Ru      -0.00000000       1.55884570      24.30804199  T
Ru       2.70000007       1.55884570      24.30804193  T
Ru       1.35000010       3.89711438      24.30804193  T
Ru       4.04999991       3.89711433      24.30804191  T
Ru      -0.00000003      -0.00000001      26.39009210  T
Ru       2.70000001       0.00000003      26.39009216  T
Ru       1.35000002       2.33826861      26.39009214  T
Ru       4.04999997       2.33826858      26.39009215  T
O        4.11510812       2.39671265      29.30129621  T
C        4.11510812       2.39671265      28.15095621  T
