16
Lattice="5.105310960166873 0.0 0.0 2.5526554800834367 4.421328985723636 0.0 0.0 0.0 46.25270341532365" Properties=species:S:1:pos:R:3:move_mask:L:1:forces:R:3 energy=-48.99893416772526 pbc="T T T"
Cu       0.00000000       0.00000000      20.00000000  F       0.00000000       0.00000000       0.00000000
Cu       2.55265548       0.00000000      20.00000000  F       0.00000000       0.00000000       0.00000000
Cu       1.27632774       2.21066449      20.00000000  F       0.00000000       0.00000000       0.00000000
Cu       3.82898322       2.21066449      20.00000000  F       0.00000000       0.00000000       0.00000000
Cu       1.27632774       0.73688816      22.08423447  F       0.00000000       0.00000000       0.00000000
Cu       3.82898322       0.73688816      22.08423447  F       0.00000000       0.00000000       0.00000000
Cu       2.55265548       2.94755266      22.08423447  F       0.00000000       0.00000000       0.00000000
Cu       5.10531096       2.94755266      22.08423447  F       0.00000000       0.00000000       0.00000000
Cu       0.00000014       1.47377676      24.20561535  T       0.00000199      -0.00000569       0.02468995
Cu       2.55265561       1.47377603      24.20561547  T      -0.00000288       0.00000192       0.02469023
Cu       1.27632761       3.68444068      24.20561524  T       0.00000316       0.00000120       0.02469213
Cu       3.82898331       3.68444070      24.20561521  T      -0.00000244       0.00000353       0.02469014
Cu      -0.00000007       0.00000023      26.33765743  T       0.00000006      -0.00000126      -0.02157389
Cu       2.55265551      -0.00000018      26.33765712  T      -0.00000001      -0.00000038      -0.02157335
Cu       1.27632767       2.21066451      26.33765708  T       0.00000135       0.00000025      -0.02157369
Cu       3.82898325       2.21066450      26.33765696  T      -0.00000134       0.00000068      -0.02156764
