16
Lattice="5.105310960166873 0.0 0.0 0.0 5.105310960166873 0.0 0.0 0.0 45.415" Properties=species:S:1:pos:R:3:move_mask:L:1:forces:R:3 energy=-48.09862097474027 pbc="T T T"
Cu       1.27632774       1.27632774      20.00000000  F       0.00000000       0.00000000       0.00000000
Cu       3.82898322       1.27632774      20.00000000  F       0.00000000       0.00000000       0.00000000
Cu       1.27632774       3.82898322      20.00000000  F       0.00000000       0.00000000       0.00000000
Cu       3.82898322       3.82898322      20.00000000  F       0.00000000       0.00000000       0.00000000
Cu       0.00000000       0.00000000      21.80500000  F       0.00000000       0.00000000       0.00000000
Cu       2.55265548       0.00000000      21.80500000  F       0.00000000       0.00000000       0.00000000
Cu       0.00000000       2.55265548      21.80500000  F       0.00000000       0.00000000       0.00000000
Cu       2.55265548       2.55265548      21.80500000  F       0.00000000       0.00000000       0.00000000
Cu       1.27632742       1.27632744      23.70694699  T       0.00000404       0.00000377      -0.02699035
Cu       3.82898352       1.27632732      23.70694711  T      -0.00000365       0.00000304      -0.02699040
Cu       1.27632739       3.82898343      23.70694720  T       0.00000297      -0.00000380      -0.02699035
Cu       3.82898335       3.82898336      23.70694707  T      -0.00000252      -0.00000251      -0.02699004
Cu       0.00000014       0.00000014      25.53494161  T      -0.00000093      -0.00000091       0.01402450
Cu       2.55265543      -0.00000005      25.53494177  T       0.00000043       0.00000008       0.01401804
Cu      -0.00000004       2.55265543      25.53494176  T      -0.00000009       0.00000054       0.01401824
Cu       2.55265545       2.55265555      25.53494184  T       0.00000005       0.00000004       0.01401720
