36

Cu      0.000000000000000      0.000000000000000     20.000000000000000
Cu      2.552655480083437      0.000000000000000     20.000000000000000
Cu      5.105310960166873      0.000000000000000     20.000000000000000
Cu      1.276327740041718      2.210664492861818     20.000000000000000
Cu      3.828983220125155      2.210664492861818     20.000000000000000
Cu      6.381638700208592      2.210664492861818     20.000000000000000
Cu      2.552655480083437      4.421328985723635     20.000000000000000
Cu      5.105310960166873      4.421328985723635     20.000000000000000
Cu      7.657966440250310      4.421328985723635     20.000000000000000
Cu      1.276327740041718      0.736888164287272     22.084234471774550
Cu      3.828983220125155      0.736888164287272     22.084234471774550
Cu      6.381638700208591      0.736888164287272     22.084234471774550
Cu      2.552655480083437      2.947552657149090     22.084234471774550
Cu      5.105310960166873      2.947552657149090     22.084234471774550
Cu      7.657966440250310      2.947552657149090     22.084234471774550
Cu      3.828983220125155      5.158217150010908     22.084234471774550
Cu      6.381638700208592      5.158217150010908     22.084234471774550
Cu      8.934294180292028      5.158217150010908     22.084234471774550
Cu      0.000000062088961      1.473775884106237     24.205613765193934
Cu      2.552655147408525      1.473776414262230     24.205613786962449
Cu      5.105310937965478      1.473776276144309     24.205613906416591
Cu      1.276329032389419      3.684440769115506     24.205614290802750
Cu      3.828982736423208      3.684440604841070     24.205613928072253
Cu      6.381638221515082      3.684440766621289     24.205613924301566
Cu      2.552655218149624      5.895104782161051     24.205613808575301
Cu      5.105311066008964      5.895105379823807     24.205613879963053
Cu      7.657966515900356      5.895105352814552     24.205614138608414
Cu     -0.000000022187430      0.000000024759480     26.337658090889125
Cu      2.552655433384913     -0.000000010682671     26.337658251470661
Cu      5.105311135224238     -0.000000037912515     26.337658122681717
Cu      1.276327858368843      2.210664427925046     26.337658205908589
Cu      3.828983187837816      2.210664662542706     26.337658146598621
Cu      6.381638685702244      2.210664495693842     26.337658162050907
Cu      2.552655307459679      4.421328998310352     26.337658127032441
Cu      5.105311137227608      4.421328861286458     26.337658284189509
Cu      7.657966186104056      4.421329118950096     26.337658069866709
