17
Lattice="5.374011537017761 0.0 0.0 2.6870057685088806 4.654030511288037 0.0 0.0 0.0 46.58179306876173" Properties=species:S:1:pos:R:3:move_mask:L:1 charge=0 spin=0 pbc="T T T"
Rh       0.00000000       0.00000000      20.00000000  F
Rh       2.68700577       0.00000000      20.00000000  F
Rh       1.34350288       2.32701526      20.00000000  F
Rh       4.03050865       2.32701526      20.00000000  F
Rh       1.34350288       0.77567175      22.19393102  F
Rh       4.03050865       0.77567175      22.19393102  F
Rh       2.68700577       3.10268701      22.19393102  F
Rh       5.37401154       3.10268701      22.19393102  F
Rh       0.00000000       1.55134364      24.38497497  T
Rh       2.68700578       1.55134349      24.38497489  T
Rh       1.34350268       3.87835869      24.38497494  T
Rh       4.03050878       3.87835861      24.38497487  T
Rh       0.00000001       0.00000003      26.58775795  T
Rh       2.68700580       0.00000001      26.58775794  T
Rh       1.34350277       2.32701529      26.58775792  T
Rh       4.03050877       2.32701526      26.58775793  T
H        1.32163550       0.79343331      27.81023950  T
