20
Lattice="5.105310960166873 0.0 0.0 0.0 5.105310960166873 0.0 0.0 0.0 45.415" Properties=species:S:1:pos:R:3:move_mask:L:1 pbc="T T T"
Cu       1.27632774       1.27632774      20.00000000  F
Cu       3.82898322       1.27632774      20.00000000  F
Cu       1.27632774       3.82898322      20.00000000  F
Cu       3.82898322       3.82898322      20.00000000  F
Cu       0.00000000       0.00000000      21.80500000  F
Cu       2.55265548       0.00000000      21.80500000  F
Cu       0.00000000       2.55265548      21.80500000  F
Cu       2.55265548       2.55265548      21.80500000  F
Cu       1.27632742       1.27632744      23.70694699  T
Cu       3.82898352       1.27632732      23.70694711  T
Cu       1.27632739       3.82898343      23.70694720  T
Cu       3.82898335       3.82898336      23.70694707  T
Cu       0.00000014       0.00000014      25.53494161  T
Cu       2.55265543      -0.00000005      25.53494177  T
Cu      -0.00000004       2.55265543      25.53494176  T
Cu       2.55265545       2.55265555      25.53494184  T
N        2.52716198       2.59866583      27.20921650  T
H        2.36834793       1.64351900      27.51960584  T
H        3.41223283       2.88852913      27.61725746  T
H        1.80881021       3.16627654      27.65154828  T
