16
Lattice="4.978031739553295 0.0 0.0 2.4890158697766473 4.311101947298393 0.0 0.0 0.0 46.09681884264245" Properties=species:S:1:pos:R:3:move_mask:L:1:forces:R:3 charge=0 spin=0 energy=-73.62173097068448 pbc="T T T"
Ni       0.00000000       0.00000000      20.00000000  F       0.00000000       0.00000000       0.00000000
Ni       2.48901587       0.00000000      20.00000000  F       0.00000000       0.00000000       0.00000000
Ni       1.24450793       2.15555097      20.00000000  F       0.00000000       0.00000000       0.00000000
Ni       3.73352380       2.15555097      20.00000000  F       0.00000000       0.00000000       0.00000000
Ni       1.24450793       0.71851699      22.03227295  F       0.00000000       0.00000000       0.00000000
Ni       3.73352380       0.71851699      22.03227295  F       0.00000000       0.00000000       0.00000000
Ni       2.48901587       2.87406796      22.03227295  F       0.00000000       0.00000000       0.00000000
Ni       4.97803174       2.87406796      22.03227295  F       0.00000000       0.00000000       0.00000000
Ni       0.00000006       1.43703414      24.07816801  T       0.00000041       0.00000297      -0.00186392
Ni       2.48901589       1.43703383      24.07816761  T       0.00000035       0.00000112      -0.00185071
Ni       1.24450860       3.59258515      24.07816782  T      -0.00000820      -0.00000182      -0.00185023
Ni       3.73352308       3.59258512      24.07816781  T       0.00000745      -0.00000156      -0.00184969
Ni       0.00000004      -0.00000009      26.11789785  T       0.00000048       0.00000034       0.00183918
Ni       2.48901589      -0.00000024      26.11789794  T      -0.00000049      -0.00000094       0.00183517
Ni       1.24450838       2.15555110      26.11789786  T      -0.00000214      -0.00000077       0.00183837
Ni       3.73352331       2.15555107      26.11789783  T       0.00000214       0.00000087       0.00183812
