16
Lattice="4.978031739553295 0.0 0.0 0.0 4.978031739553295 0.0 0.0 0.0 45.28" Properties=species:S:1:pos:R:3:move_mask:L:1:forces:R:3 energy=-72.13741366274553 pbc="T T T"
Ni       1.24450793       1.24450793      20.00000000  F       0.00000000       0.00000000       0.00000000
Ni       3.73352380       1.24450793      20.00000000  F       0.00000000       0.00000000       0.00000000
Ni       1.24450793       3.73352380      20.00000000  F       0.00000000       0.00000000       0.00000000
Ni       3.73352380       3.73352380      20.00000000  F       0.00000000       0.00000000       0.00000000
Ni       0.00000000       0.00000000      21.76000000  F       0.00000000       0.00000000       0.00000000
Ni       2.48901587       0.00000000      21.76000000  F       0.00000000       0.00000000       0.00000000
Ni       0.00000000       2.48901587      21.76000000  F       0.00000000       0.00000000       0.00000000
Ni       2.48901587       2.48901587      21.76000000  F       0.00000000       0.00000000       0.00000000
Ni       1.24450747       1.24450750      23.55697719  T       0.00000652       0.00000621      -0.01943252
Ni       3.73352415       1.24450737      23.55697722  T      -0.00000543       0.00000917      -0.01943253
Ni       1.24450744       3.73352410      23.55697716  T       0.00000689      -0.00000594      -0.01943303
Ni       3.73352415       3.73352424      23.55697721  T      -0.00000582      -0.00000884      -0.01943291
Ni       0.00000002       0.00000002      25.28387629  T      -0.00000021       0.00000058       0.01567952
Ni       2.48901589       0.00000004      25.28387605  T      -0.00000042      -0.00000002       0.01567710
Ni       0.00000006       2.48901594      25.28387599  T      -0.00000041      -0.00000103       0.01567621
Ni       2.48901592       2.48901592      25.28387819  T      -0.00000012      -0.00000016       0.01566510
