18
Lattice="5.50129075763134 0.0 0.0 2.75064537881567 4.764257549713281 0.0 0.0 0.0 46.737677641442936" Properties=species:S:1:pos:R:3:move_mask:L:1:initial_magmoms:R:1 pbc="T T T"
Pd       0.00000000       0.00000000      20.00000000  F       0.00000000
Pd       2.75064538       0.00000000      20.00000000  F       0.00000000
Pd       1.37532269       2.38212877      20.00000000  F       0.00000000
Pd       4.12596807       2.38212877      20.00000000  F       0.00000000
Pd       1.37532269       0.79404292      22.24589255  F       0.00000000
Pd       4.12596807       0.79404292      22.24589255  F       0.00000000
Pd       2.75064538       3.17617170      22.24589255  F       0.00000000
Pd       5.50129076       3.17617170      22.24589255  F       0.00000000
Pd      -0.00000008       1.58808572      24.57366881  T       0.00000000
Pd       2.75064532       1.58808598      24.57366896  T       0.00000000
Pd       1.37532308       3.97021461      24.57366889  T       0.00000000
Pd       4.12596777       3.97021454      24.57366907  T       0.00000000
Pd       0.00000000      -0.00000002      26.92573783  T       0.00000000
Pd       2.75064536       0.00000009      26.92573789  T       0.00000000
Pd       1.37532273       2.38212875      26.92573782  T       0.00000000
Pd       4.12596815       2.38212876      26.92573783  T       0.00000000
N        2.65003519       1.63560770      28.24079907  T       0.60000000
O        2.65003519       1.63560770      29.38350207  T       0.40000000
