17
Lattice="4.978031739553295 0.0 0.0 0.0 4.978031739553295 0.0 0.0 0.0 45.28" Properties=species:S:1:pos:R:3:move_mask:L:1:initial_magmoms:R:1 charge=0 spin=0 pbc="T T T"
Ni       1.24450793       1.24450793      20.00000000  F       0.00000000
Ni       3.73352380       1.24450793      20.00000000  F       0.00000000
Ni       1.24450793       3.73352380      20.00000000  F       0.00000000
Ni       3.73352380       3.73352380      20.00000000  F       0.00000000
Ni       0.00000000       0.00000000      21.76000000  F       0.00000000
Ni       2.48901587       0.00000000      21.76000000  F       0.00000000
Ni       0.00000000       2.48901587      21.76000000  F       0.00000000
Ni       2.48901587       2.48901587      21.76000000  F       0.00000000
Ni       1.24450747       1.24450750      23.55697719  T       0.00000000
Ni       3.73352415       1.24450737      23.55697722  T       0.00000000
Ni       1.24450744       3.73352410      23.55697716  T       0.00000000
Ni       3.73352415       3.73352424      23.55697721  T       0.00000000
Ni       0.00000002       0.00000002      25.28387629  T       0.00000000
Ni       2.48901589       0.00000004      25.28387605  T       0.00000000
Ni       0.00000006       2.48901594      25.28387599  T       0.00000000
Ni       2.48901592       2.48901592      25.28387819  T       0.00000000
O        1.19422124       1.30775080      26.13971481  T       1.00000000
