17
Lattice="5.374011537017761 0.0 0.0 0.0 5.374011537017761 0.0 0.0 0.0 45.7" Properties=species:S:1:pos:R:3:move_mask:L:1:initial_magmoms:R:1 charge=0 spin=0 pbc="T T T"
Rh       1.34350288       1.34350288      20.00000000  F       0.00000000
Rh       4.03050865       1.34350288      20.00000000  F       0.00000000
Rh       1.34350288       4.03050865      20.00000000  F       0.00000000
Rh       4.03050865       4.03050865      20.00000000  F       0.00000000
Rh       0.00000000       0.00000000      21.90000000  F       0.00000000
Rh       2.68700577       0.00000000      21.90000000  F       0.00000000
Rh       0.00000000       2.68700577      21.90000000  F       0.00000000
Rh       2.68700577       2.68700577      21.90000000  F       0.00000000
Rh       1.34350338       1.34350286      23.85198995  T       0.00000000
Rh       4.03050891       1.34350259      23.85199042  T       0.00000000
Rh       1.34350256       4.03050902      23.85199024  T       0.00000000
Rh       4.03050856       4.03050866      23.85199042  T       0.00000000
Rh       0.00000013       0.00000013      25.73084016  T       0.00000000
Rh       2.68700545      -0.00000007      25.73084013  T       0.00000000
Rh       0.00000003       2.68700577      25.73083996  T       0.00000000
Rh       2.68700536       2.68700542      25.73083928  T       0.00000000
O        1.36730192       1.42024642      26.91005735  T       1.00000000
