16
Lattice="5.50129075763134 0.0 0.0 0.0 5.50129075763134 0.0 0.0 0.0 45.835" Properties=species:S:1:pos:R:3:move_mask:L:1:forces:R:3 energy=-69.07987199642669 pbc="T T T"
Pd       1.37532269       1.37532269      20.00000000  F       0.00000000       0.00000000       0.00000000
Pd       4.12596807       1.37532269      20.00000000  F       0.00000000       0.00000000       0.00000000
Pd       1.37532269       4.12596807      20.00000000  F       0.00000000       0.00000000       0.00000000
Pd       4.12596807       4.12596807      20.00000000  F       0.00000000       0.00000000       0.00000000
Pd       0.00000000       0.00000000      21.94500000  F       0.00000000       0.00000000       0.00000000
Pd       2.75064538       0.00000000      21.94500000  F       0.00000000       0.00000000       0.00000000
Pd       0.00000000       2.75064538      21.94500000  F       0.00000000       0.00000000       0.00000000
Pd       2.75064538       2.75064538      21.94500000  F       0.00000000       0.00000000       0.00000000
Pd       1.37532320       1.37532306      23.99196347  T      -0.00000743      -0.00000322       0.02466277
Pd       4.12596762       1.37532291      23.99196429  T       0.00000765      -0.00000198       0.02466304
Pd       1.37532296       4.12596778      23.99196434  T      -0.00000196       0.00000242       0.02466301
Pd       4.12596801       4.12596811      23.99196433  T       0.00000168       0.00000146       0.02466329
Pd      -0.00000017      -0.00000018      26.02815826  T       0.00000001       0.00000033      -0.02758724
Pd       2.75064547      -0.00000013      26.02815840  T      -0.00000002      -0.00000030      -0.02758565
Pd      -0.00000007       2.75064546      26.02815825  T      -0.00000020      -0.00000019      -0.02758671
Pd       2.75064549       2.75064549      26.02815817  T       0.00000009       0.00000041      -0.02758455
