16
Lattice="5.50129075763134 0.0 0.0 0.0 5.50129075763134 0.0 0.0 0.0 45.835" Properties=species:S:1:pos:R:3:move_mask:L:1:forces:R:3 charge=0 spin=0 energy=-69.07987195401799 pbc="T T T"
Pd       1.37532269       1.37532269      20.00000000  F       0.00000000       0.00000000       0.00000000
Pd       4.12596807       1.37532269      20.00000000  F       0.00000000       0.00000000       0.00000000
Pd       1.37532269       4.12596807      20.00000000  F       0.00000000       0.00000000       0.00000000
Pd       4.12596807       4.12596807      20.00000000  F       0.00000000       0.00000000       0.00000000
Pd       0.00000000       0.00000000      21.94500000  F       0.00000000       0.00000000       0.00000000
Pd       2.75064538       0.00000000      21.94500000  F       0.00000000       0.00000000       0.00000000
Pd       0.00000000       2.75064538      21.94500000  F       0.00000000       0.00000000       0.00000000
Pd       2.75064538       2.75064538      21.94500000  F       0.00000000       0.00000000       0.00000000
Pd       1.37532320       1.37532306      23.99196347  T      -0.00000740      -0.00000307       0.02466284
Pd       4.12596762       1.37532291      23.99196429  T       0.00000755      -0.00000206       0.02466311
Pd       1.37532296       4.12596778      23.99196434  T      -0.00000197       0.00000229       0.02466300
Pd       4.12596801       4.12596811      23.99196433  T       0.00000170       0.00000151       0.02466331
Pd      -0.00000017      -0.00000018      26.02815826  T      -0.00000003       0.00000042      -0.02758718
Pd       2.75064547      -0.00000013      26.02815840  T       0.00000006      -0.00000039      -0.02758584
Pd      -0.00000007       2.75064546      26.02815825  T      -0.00000013      -0.00000015      -0.02758680
Pd       2.75064549       2.75064549      26.02815817  T       0.00000003       0.00000047      -0.02758459
