18
Lattice="5.50129075763134 0.0 0.0 0.0 5.50129075763134 0.0 0.0 0.0 45.835" Properties=species:S:1:pos:R:3:move_mask:L:1:initial_magmoms:R:1:forces:R:3 energy=-82.81960133466077 pbc="T T T"
Pd       1.37532269       1.37532269      20.00000000  F       0.00000000       0.00000000       0.00000000       0.00000000
Pd       4.12596807       1.37532269      20.00000000  F       0.00000000       0.00000000       0.00000000       0.00000000
Pd       1.37532269       4.12596807      20.00000000  F       0.00000000       0.00000000       0.00000000       0.00000000
Pd       4.12596807       4.12596807      20.00000000  F       0.00000000       0.00000000       0.00000000       0.00000000
Pd       0.00000000       0.00000000      21.94500000  F       0.00000000       0.00000000       0.00000000       0.00000000
Pd       2.75064538       0.00000000      21.94500000  F       0.00000000       0.00000000       0.00000000       0.00000000
Pd       0.00000000       2.75064538      21.94500000  F       0.00000000       0.00000000       0.00000000       0.00000000
Pd       2.75064538       2.75064538      21.94500000  F       0.00000000       0.00000000       0.00000000       0.00000000
Pd       1.37685119       1.38399642      23.97027872  T       0.00000000       0.00200984       0.01735171       0.01089893
Pd       4.12780261       1.39222961      23.99114549  T       0.00000000      -0.00610242      -0.01034292       0.02231099
Pd       1.37836552       4.14275275      23.99117695  T       0.00000000      -0.00531587      -0.02067598       0.02094432
Pd       4.12714319       4.14489613      24.07205549  T       0.00000000       0.00363634       0.00044333       0.02259186
Pd      -0.00353196       0.02152328      26.10113020  T       0.00000000       0.02271528       0.01029495      -0.03240035
Pd       2.73216001       0.05417580      26.11486010  T       0.00000000      -0.00196408      -0.00151418      -0.04673258
Pd       0.02219657       2.75591567      26.09670881  T       0.00000000       0.00331232      -0.00468209      -0.01663640
Pd       2.75957544       2.79136661      26.09780704  T       0.00000000      -0.01692088      -0.02896885      -0.01145965
N        1.40700599       1.45815811      27.15338801  T       0.60000000      -0.01170192      -0.02289899      -0.00074148
O        1.40859311       1.47741411      28.38442184  T       0.40000000      -0.00154444      -0.02599422       0.01499587
