64
Lattice="11.193844179367707 0.0 0.0 5.596922089683853 9.694153425337005 0.0 0.0 0.0 47.238695128880174" Properties=species:S:1:pos:R:3:tags:I:1:forces:R:3 energy=-332.73670211839277 pbc="T T T"
Pt      -0.05984820      -0.03548164      19.90383493        4      -0.01087026      -0.00190675       0.00312709
Pt       2.73714519      -0.03313760      19.90250975        4       0.00553288      -0.02195692       0.00257735
Pt       5.53587275      -0.04171498      19.90208375        4      -0.01858876       0.01625899      -0.00626938
Pt       8.33387267      -0.03862354      19.90354447        4       0.00513084      -0.00674212      -0.00646349
Pt       1.34044241       2.38783813      19.90373908        4      -0.01677557       0.00810099      -0.00196047
Pt       4.13719837       2.38999568      19.90176907        4       0.00052896      -0.01062413       0.00057555
Pt       6.93589448       2.38146420      19.90098940        4      -0.02343749       0.02770910      -0.00751493
Pt       9.73402207       2.38403306      19.90301222        4      -0.00074075       0.00733205      -0.01045551
Pt       2.73186988       4.81429119      19.90088195        4       0.00256052      -0.01204121       0.00290773
Pt       5.52878747       4.81640312      19.89895803        4       0.01895107      -0.03111189       0.00501388
Pt       8.32755684       4.80789693      19.89803484        4      -0.00610512       0.00687412      -0.00170472
Pt      11.12538308       4.81028135      19.90032825        4       0.01851005      -0.01182545      -0.00601345
Pt       4.13292242       7.23681445      19.90085456        4      -0.00452203      -0.00171494       0.01094666
Pt       6.92951008       7.23952246      19.89940805        4       0.01388181      -0.02422681       0.01055105
Pt       9.72809767       7.23081406      19.89887272        4      -0.00961226       0.01513626       0.00306467
Pt      12.52643731       7.23350427      19.90086833        4       0.01207554      -0.00542309       0.00094215
Pt       1.34067581       0.76868685      22.24421275        3      -0.01852534      -0.00535466       0.00156400
Pt       4.13587085       0.76776520      22.24201406        3      -0.00007949      -0.01396567       0.00184941
Pt       6.93127209       0.76415001      22.23892763        3       0.00075626       0.00082391       0.02100370
Pt       9.73247379       0.76847099      22.24339046        3       0.00224122      -0.02280641      -0.00560681
Pt       2.74096182       3.19077999      22.24368765        3      -0.02714448       0.00531811      -0.00062062
Pt       5.53607441       3.18964220      22.24134812        3      -0.00820171      -0.00139082      -0.00001024
Pt       8.33159993       3.18610188      22.23814599        3      -0.01075225       0.01446578       0.01792885
Pt      11.13271320       3.19049178      22.24277845        3      -0.00795962      -0.01123954      -0.00827006
Pt       4.13139441       5.61160169      22.24209761        3      -0.00079393       0.01618499      -0.00357498
Pt       6.92630844       5.61084183      22.23952808        3       0.02064671       0.00541098      -0.00114377
Pt       9.72212223       5.60725566      22.23641089        3       0.01474208       0.02299230       0.01754508
Pt      12.52319245       5.61123388      22.24107068        3       0.01846576       0.00184184      -0.00988380
Pt       5.53296237       8.03524386      22.24550371        3      -0.01075442       0.01733901      -0.02721888
Pt       8.32780526       8.03459104      22.24326068        3       0.01057877       0.00558405      -0.02564795
Pt      11.12359085       8.03092658      22.24019121        3       0.00749606       0.02087374      -0.00734170
Pt      13.92492830       8.03511118      22.24460159        3       0.00856367      -0.00071830      -0.03411558
Pt      -0.06129629       1.57262155      24.54890795        2      -0.00631704       0.01485567      -0.00026643
Pt       2.73978949       1.57658975      24.55342394        2      -0.00341298      -0.00682730      -0.02674804
Pt       5.53536565       1.57278020      24.55061950        2      -0.00619362       0.00974287      -0.00769944
Pt       8.33020788       1.57212015      24.54829554        2       0.01554667      -0.00091495      -0.00810633
Pt       1.33657310       3.99644187      24.54764307        2      -0.00568370      -0.00354747       0.01841857
Pt       4.13767457       4.00019573      24.55242327        2      -0.00199328      -0.02413504      -0.00846331
Pt       6.93339765       3.99629379      24.54938081        2      -0.00790923      -0.00609557       0.01046642
Pt       9.72819308       3.99569813      24.54671025        2       0.01425824      -0.01633308       0.01181263
Pt       2.73026207       6.41647395      24.54581786        2       0.00730062       0.02722378       0.01013542
Pt       5.53139103       6.42053487      24.55045158        2       0.01044223       0.00202403      -0.01541395
Pt       8.32680460       6.41677937      24.54752276        2       0.00801915       0.01927341       0.00106287
Pt      11.12177611       6.41592729      24.54522862        2       0.02820857       0.01239220       0.00125538
Pt       4.13311426       8.84222266      24.54378308        2      -0.00819099       0.01132680       0.03046259
Pt       6.93425582       8.84631268      24.54842716        2      -0.00500614      -0.01175784       0.00245651
Pt       9.72988569       8.84263532      24.54527407        2      -0.00769564       0.00295804       0.02204731
Pt      12.52471197       8.84175091      24.54311857        2       0.01457812      -0.00474683       0.02210114
Pt      -0.06078023      -0.03929030      26.88587815        1      -0.00538692       0.00190705       0.00777114
Pt       2.73756631      -0.03635519      26.88772740        1       0.01705826      -0.01944703       0.00675738
Pt       5.53625792      -0.04470027      26.88728221        1      -0.00680804       0.01826588      -0.00110114
Pt       8.33287162      -0.04215255      26.88589185        1       0.01108041      -0.00369883      -0.00244022
Pt       1.34382965       2.38469146      26.88848447        1      -0.02196101       0.01662448       0.00502751
Pt       4.14174960       2.38755129      26.89076463        1       0.00193266      -0.00447387       0.00253623
Pt       6.94050147       2.37939451      26.89043158        1      -0.02254518       0.03242913      -0.00536578
Pt       9.73738599       2.38129200      26.88821370        1      -0.00549161       0.01434474      -0.00396958
Pt       2.73950838       4.81361645      26.88955275        1      -0.00879384      -0.02861436       0.00126123
Pt       5.53749760       4.81595094      26.89241943        1       0.01502886      -0.04669382      -0.00468207
Pt       8.33644659       4.80778884      26.89137163        1      -0.01091807      -0.00976626      -0.01081081
Pt      11.13321974       4.80985808      26.88907993        1       0.00625440      -0.02912264      -0.00777966
Pt       4.13684172       7.23283049      26.88610814        1      -0.01067694       0.00937246       0.00861518
Pt       6.93465418       7.23597945      26.88811646        1       0.01368930      -0.01489842       0.00665490
Pt       9.73329362       7.22768170      26.88753423        1      -0.00985961       0.02347976      -0.00138386
Pt      12.53044292       7.22968325      26.88570993        1       0.00564766       0.00565545      -0.00039258
