16

Pt      0.000000000000000      0.000000000000000     20.000000000000000
Pt      2.771858582251266      0.000000000000000     20.000000000000000
Pt      1.385929291125633      2.400499947927514     20.000000000000000
Pt      4.157787873376900      2.400499947927514     20.000000000000000
Pt      1.385929291125633      0.800166649309171     22.263213055223332
Pt      4.157787873376900      0.800166649309171     22.263213055223332
Pt      2.771858582251266      3.200666597236685     22.263213055223332
Pt      5.543717164502532      3.200666597236685     22.263213055223332
Pt      0.000000155729389      1.600333169815449     24.599297453144786
Pt      2.771858570141540      1.600333136297993     24.599297455074446
Pt      1.385929551223767      4.000833603943916     24.599297463102058
Pt      4.157787980916409      4.000833618394016     24.599297518492840
Pt      0.000000120406766     -0.000000070381534     26.966559642475794
Pt      2.771858607229631      0.000000079898158     26.966559752591753
Pt      1.385929159624854      2.400499833797663     26.966559708464629
Pt      4.157787687770229      2.400499927720570     26.966559836465109
