16
Lattice="5.5961570545186 0.0 0.0 2.7980785272593 4.846414172780604 0.0 0.0 0.0 47.23223814013615" Properties=species:S:1:pos:R:3:tags:I:1:forces:R:3 energy=-83.18776182186504 pbc="T T T"
Pt      -0.02516966      -0.01423940      19.90300191        4       0.00775145       0.00111099      -0.01205652
Pt       2.77432643      -0.01248141      19.90310578        4       0.00035993      -0.00585749      -0.01538079
Pt       1.37585371       2.40980305      19.90255383        4      -0.00142661      -0.00032608      -0.00992096
Pt       4.17542171       2.41162273      19.90275450        4      -0.00932625      -0.00764489      -0.01376684
Pt       1.37340662       0.78727053      22.23969102        3      -0.00086403       0.00381746       0.02313795
Pt       4.17159647       0.79018332      22.23969046        3       0.00960016      -0.02277512       0.02774612
Pt       2.77454802       3.20862901      22.24226182        3      -0.01092843       0.03078490       0.00097720
Pt       5.57278090       3.21154336      22.24240447        3      -0.00087874       0.00428845       0.00449257
Pt      -0.02591693       1.59439182      24.54915336        2       0.00687394       0.00634532      -0.01926296
Pt       2.77217046       1.59715857      24.54931299        2       0.01816010      -0.01946341      -0.01614639
Pt       1.37570040       4.01727857      24.54789896        2      -0.01085195       0.02216021      -0.01157261
Pt       4.17372833       4.02010310      24.54804122        2       0.00113832      -0.00383341      -0.00847522
Pt      -0.02128721      -0.01700855      26.88692001        1       0.00896468       0.00820142       0.01196358
Pt       2.77812115      -0.01521149      26.88725909        1       0.00263017       0.00072592       0.00755038
Pt       1.38064759       2.40760185      26.88649281        1      -0.00730418      -0.00515081       0.01702644
Pt       4.18009217       2.40935435      26.88657110        1      -0.01389857      -0.01238339       0.01368798
