36
Lattice="8.394417164447733 0.0 0.0 4.197208582223866 7.2697785143758695 0.0 0.0 0.0 47.23325985984131" Properties=species:S:1:pos:R:3:tags:I:1:forces:R:3 energy=-187.17109462287797 pbc="T T T"
Pt      -0.04354507      -0.02537163      19.90232493        4       0.00225981      -0.00154006       0.00167754
Pt       2.75494910      -0.02584684      19.90351802        4      -0.00317240       0.00289796      -0.01292450
Pt       5.55439921      -0.02604776      19.90232122        4      -0.00512313       0.00382282      -0.00862476
Pt       1.35521504       2.39959599      19.90342593        4       0.00392719      -0.00728769      -0.01173006
Pt       4.15359799       2.39904908      19.90423764        4      -0.00166870      -0.00229117      -0.02511743
Pt       6.95325171       2.39838680      19.90323426        4      -0.00490126       0.00120200      -0.02157454
Pt       2.75408207       4.82369945      19.90074925        4       0.00449417      -0.01078933       0.00465643
Pt       5.55227550       4.82366925      19.90186028        4       0.00027667      -0.00902386      -0.00959425
Pt       8.35193944       4.82292428      19.90108855        4      -0.00321493      -0.00471702      -0.00677382
Pt       1.35555748       0.77730286      22.24212575        3      -0.01236972      -0.00731590       0.01504261
Pt       4.15215238       0.77808505      22.23862640        3       0.00281398      -0.01620241       0.03394091
Pt       6.95081695       0.78065214      22.24094728        3       0.00596954      -0.03529809       0.01997910
Pt       2.75450631       3.19803207      22.24175031        3      -0.01127513       0.01883660       0.00850292
Pt       5.55105519       3.19888657      22.23791423        3       0.00390826       0.01003644       0.02837771
Pt       8.34980156       3.20137667      22.24024516        3       0.00609321      -0.00862021       0.01540107
Pt       4.15379623       5.61963752      22.24478916        3      -0.01050061       0.03664981      -0.02072183
Pt       6.95023990       5.62060467      22.24125057        3       0.00563481       0.02703645      -0.00188900
Pt       9.74917515       5.62305001      22.24335781        3       0.00663707       0.00884469      -0.01437775
Pt      -0.04480798       1.58336191      24.55012440        2       0.00139519       0.00187122      -0.02075168
Pt       2.75394043       1.58585979      24.55268364        2       0.00342981      -0.01750961      -0.03427201
Pt       5.55039217       1.58662747      24.54905726        2       0.01960463      -0.02524160      -0.01552468
Pt       1.35423100       4.00487739      24.54732757        2       0.00085039       0.01928441      -0.00151900
Pt       4.15305877       4.00720771      24.54986062        2       0.00251945       0.00074962      -0.01486366
Pt       6.94953672       4.00806508      24.54609177        2       0.01824101      -0.00794215       0.00459056
Pt       2.75544898       6.42837726      24.54634456        2      -0.01244187       0.02954010       0.00347623
Pt       5.55413090       6.43095096      24.54883040        2      -0.00965791       0.01034889      -0.01120603
Pt       8.35070059       6.43167800      24.54531075        2       0.00621983       0.00252616       0.00704261
Pt      -0.04186219      -0.02884678      26.88765447        1       0.00913356       0.01162426       0.00805331
Pt       2.75779804      -0.02948360      26.88679680        1       0.00598188       0.01514923       0.01179681
Pt       5.55595232      -0.02951820      26.88800292        1       0.00247683       0.01671617      -0.00328661
Pt       1.35989683       2.39819152      26.88724975        1      -0.00239893      -0.01364529       0.01613431
Pt       4.15951944       2.39745989      26.88688336        1      -0.00523523      -0.00970217       0.01785445
Pt       6.95798985       2.39686495      26.88745591        1      -0.01122882      -0.00446713       0.00475474
Pt       2.75908277       4.82137600      26.88699129        1      -0.00325435      -0.01367940       0.01339108
Pt       5.55849700       4.82115129      26.88605841        1      -0.00491930      -0.01358879       0.01695612
Pt       8.35695528       4.82061088      26.88701447        1      -0.01050500      -0.00827481       0.00312270
