21
Lattice="5.5961570545186 0.0 0.0 2.7980785272593 4.846414172780604 0.0 0.0 0.0 47.23223814013615" Properties=species:S:1:pos:R:3:tags:I:1 pbc="T T T"
Pt      -0.02516966      -0.01423940      19.90300191        4
Pt       2.77432643      -0.01248141      19.90310578        4
Pt       1.37585371       2.40980305      19.90255383        4
Pt       4.17542171       2.41162273      19.90275450        4
Pt       1.37340662       0.78727053      22.23969102        3
Pt       4.17159647       0.79018332      22.23969046        3
Pt       2.77454802       3.20862901      22.24226182        3
Pt       5.57278090       3.21154336      22.24240447        3
Pt      -0.02591693       1.59439182      24.54915336        2
Pt       2.77217046       1.59715857      24.54931299        2
Pt       1.37570040       4.01727857      24.54789896        2
Pt       4.17372833       4.02010310      24.54804122        2
Pt      -0.02128721      -0.01700855      26.88692001        1
Pt       2.77812115      -0.01521149      26.88725909        1
Pt       1.38064759       2.40760185      26.88649281        1
Pt       4.18009217       2.40935435      26.88657110        1
C        4.24648623       2.56349968      29.96791297        0
H        4.65593401       1.60939543      30.29867871        0
H        4.24940992       2.60205937      28.87893502        0
H        4.85592195       3.37640936      30.36178394        0
H        3.22467905       2.66613457      30.33225421        0
