68
Lattice="11.193844179367707 0.0 0.0 5.596922089683853 9.694153425337005 0.0 0.0 0.0 47.238695128880174" Properties=species:S:1:pos:R:3:tags:I:1:initial_magmoms:R:1 pbc="T T T"
Pt      -0.05984820      -0.03548164      19.90383493        4       0.00000000
Pt       2.73714519      -0.03313760      19.90250975        4       0.00000000
Pt       5.53587275      -0.04171498      19.90208375        4       0.00000000
Pt       8.33387267      -0.03862354      19.90354447        4       0.00000000
Pt       1.34044241       2.38783813      19.90373908        4       0.00000000
Pt       4.13719837       2.38999568      19.90176907        4       0.00000000
Pt       6.93589448       2.38146420      19.90098940        4       0.00000000
Pt       9.73402207       2.38403306      19.90301222        4       0.00000000
Pt       2.73186988       4.81429119      19.90088195        4       0.00000000
Pt       5.52878747       4.81640312      19.89895803        4       0.00000000
Pt       8.32755684       4.80789693      19.89803484        4       0.00000000
Pt      11.12538308       4.81028135      19.90032825        4       0.00000000
Pt       4.13292242       7.23681445      19.90085456        4       0.00000000
Pt       6.92951008       7.23952246      19.89940805        4       0.00000000
Pt       9.72809767       7.23081406      19.89887272        4       0.00000000
Pt      12.52643731       7.23350427      19.90086833        4       0.00000000
Pt       1.34067581       0.76868685      22.24421275        3       0.00000000
Pt       4.13587085       0.76776520      22.24201406        3       0.00000000
Pt       6.93127209       0.76415001      22.23892763        3       0.00000000
Pt       9.73247379       0.76847099      22.24339046        3       0.00000000
Pt       2.74096182       3.19077999      22.24368765        3       0.00000000
Pt       5.53607441       3.18964220      22.24134812        3       0.00000000
Pt       8.33159993       3.18610188      22.23814599        3       0.00000000
Pt      11.13271320       3.19049178      22.24277845        3       0.00000000
Pt       4.13139441       5.61160169      22.24209761        3       0.00000000
Pt       6.92630844       5.61084183      22.23952808        3       0.00000000
Pt       9.72212223       5.60725566      22.23641089        3       0.00000000
Pt      12.52319245       5.61123388      22.24107068        3       0.00000000
Pt       5.53296237       8.03524386      22.24550371        3       0.00000000
Pt       8.32780526       8.03459104      22.24326068        3       0.00000000
Pt      11.12359085       8.03092658      22.24019121        3       0.00000000
Pt      13.92492830       8.03511118      22.24460159        3       0.00000000
Pt      -0.06129629       1.57262155      24.54890795        2       0.00000000
Pt       2.73978949       1.57658975      24.55342394        2       0.00000000
Pt       5.53536565       1.57278020      24.55061950        2       0.00000000
Pt       8.33020788       1.57212015      24.54829554        2       0.00000000
Pt       1.33657310       3.99644187      24.54764307        2       0.00000000
Pt       4.13767457       4.00019573      24.55242327        2       0.00000000
Pt       6.93339765       3.99629379      24.54938081        2       0.00000000
Pt       9.72819308       3.99569813      24.54671025        2       0.00000000
Pt       2.73026207       6.41647395      24.54581786        2       0.00000000
Pt       5.53139103       6.42053487      24.55045158        2       0.00000000
Pt       8.32680460       6.41677937      24.54752276        2       0.00000000
Pt      11.12177611       6.41592729      24.54522862        2       0.00000000
Pt       4.13311426       8.84222266      24.54378308        2       0.00000000
Pt       6.93425582       8.84631268      24.54842716        2       0.00000000
Pt       9.72988569       8.84263532      24.54527407        2       0.00000000
Pt      12.52471197       8.84175091      24.54311857        2       0.00000000
Pt      -0.06078023      -0.03929030      26.88587815        1       0.00000000
Pt       2.73756631      -0.03635519      26.88772740        1       0.00000000
Pt       5.53625792      -0.04470027      26.88728221        1       0.00000000
Pt       8.33287162      -0.04215255      26.88589185        1       0.00000000
Pt       1.34382965       2.38469146      26.88848447        1       0.00000000
Pt       4.14174960       2.38755129      26.89076463        1       0.00000000
Pt       6.94050147       2.37939451      26.89043158        1       0.00000000
Pt       9.73738599       2.38129200      26.88821370        1       0.00000000
Pt       2.73950838       4.81361645      26.88955275        1       0.00000000
Pt       5.53749760       4.81595094      26.89241943        1       0.00000000
Pt       8.33644659       4.80778884      26.89137163        1       0.00000000
Pt      11.13321974       4.80985808      26.88907993        1       0.00000000
Pt       4.13684172       7.23283049      26.88610814        1       0.00000000
Pt       6.93465418       7.23597945      26.88811646        1       0.00000000
Pt       9.73329362       7.22768170      26.88753423        1       0.00000000
Pt      12.53044292       7.22968325      26.88570993        1       0.00000000
C        8.39493483       5.07829589      29.08933547        0       1.00000000
H        8.39493483       6.15670589      29.08933547        0       0.00000000
H        9.32886483       4.53909089      29.08933547        0       0.00000000
H        7.46100483       4.53909089      29.08933547        0       0.00000000
