66   
Lattice="11.193844179367707 0.0 0.0 5.596922089683853
Pt -0.05984820 -0.03548164 19.90383493
Pt 2.73714519 -0.03313760 19.90250975
Pt 5.53587275 -0.04171498 19.90208375
Pt 8.33387267 -0.03862354 19.90354447
Pt 1.34044241 2.38783813 19.90373908
Pt 4.13719837 2.38999568 19.90176907
Pt 6.93589448 2.38146420 19.90098940
Pt 9.73402207 2.38403306 19.90301222
Pt 2.73186988 4.81429119 19.90088195
Pt 5.52878747 4.81640312 19.89895803
Pt 8.32755684 4.80789693 19.89803484
Pt 11.12538308 4.81028135 19.90032825
Pt 4.13292242 7.23681445 19.90085456
Pt 6.92951008 7.23952246 19.89940805
Pt 9.72809767 7.23081406 19.89887272
Pt 12.52643731 7.23350427 19.90086833
Pt 1.34067581 0.76868685 22.24421275
Pt 4.13587085 0.76776520 22.24201406
Pt 6.93127209 0.76415001 22.23892763
Pt 9.73247379 0.76847099 22.24339046
Pt 2.74096182 3.19077999 22.24368765
Pt 5.53607441 3.18964220 22.24134812
Pt 8.33159993 3.18610188 22.23814599
Pt 11.13271320 3.19049178 22.24277845
Pt 4.13139441 5.61160169 22.24209761
Pt 6.92630844 5.61084183 22.23952808
Pt 9.72212223 5.60725566 22.23641089
Pt 12.52319245 5.61123388 22.24107068
Pt 5.53296237 8.03524386 22.24550371
Pt 8.32780526 8.03459104 22.24326068
Pt 11.12359085 8.03092658 22.24019121
Pt 13.92492830 8.03511118 22.24460159
Pt -0.06965443 1.57115108 24.53293783
Pt 2.73977016 1.57111425 24.53405630
Pt 5.54611580 1.57770096 24.57696416
Pt 8.31586903 1.57755305 24.57576061
Pt 1.33481215 3.99354038 24.54633153
Pt 4.14959359 3.99706342 24.57908414
Pt 6.93103660 3.99062759 24.57215168
Pt 9.71266023 3.99704214 24.57496271
Pt 2.73260583 6.41263423 24.54580372
Pt 5.53180742 6.39675411 24.57722237
Pt 8.32590632 6.39669504 24.57465218
Pt 11.12376603 6.41388379 24.54347273
Pt 4.12920616 8.83732276 24.54655569
Pt 6.92974922 8.83398173 24.53329559
Pt 9.72960813 8.83692387 24.54505421
Pt 12.52604736 8.83966129 24.54468476
Pt -0.07149645 -0.05464730 26.88420788
Pt 2.73505966 -0.05494565 26.88399521
Pt 5.53021751 -0.05452061 26.89446943
Pt 8.32608189 -0.05440363 26.89658526
Pt 1.33201408 2.37533786 26.88390714
Pt 4.08234015 2.34105842 26.87652630
Pt 6.92895776 2.33651342 27.04359947
Pt 9.77675485 2.34271446 26.87428402
Pt 2.73210384 4.79744925 26.89644402
Pt 5.50300407 4.81158223 27.04337126
Pt 8.35616493 4.81006535 27.04025658
Pt 11.12691997 4.79596269 26.89275309
Pt 4.12868047 7.21761635 26.89531070
Pt 6.92800897 7.27455450 26.87446517
Pt 9.73006469 7.21616510 26.89447045
Pt 12.52596627 7.21766478 26.87671799
C 6.92995177 3.98566652 28.16819983
H 6.93154059 3.98539073 29.27140439
