50
Lattice="8.394417164447733 0.0 0.0 4.197208582223866 7.2697785143758695 0.0 0.0 0.0 47.23325985984131" Properties=species:S:1:pos:R:3:tags:I:1 pbc="T T T"
Pt      -0.04354507      -0.02537163      19.90232493        4
Pt       2.75494910      -0.02584684      19.90351802        4
Pt       5.55439921      -0.02604776      19.90232122        4
Pt       1.35521504       2.39959599      19.90342593        4
Pt       4.15359799       2.39904908      19.90423764        4
Pt       6.95325171       2.39838680      19.90323426        4
Pt       2.75408207       4.82369945      19.90074925        4
Pt       5.55227550       4.82366925      19.90186028        4
Pt       8.35193944       4.82292428      19.90108855        4
Pt       1.35555748       0.77730286      22.24212575        3
Pt       4.15215238       0.77808505      22.23862640        3
Pt       6.95081695       0.78065214      22.24094728        3
Pt       2.75450631       3.19803207      22.24175031        3
Pt       5.55105519       3.19888657      22.23791423        3
Pt       8.34980156       3.20137667      22.24024516        3
Pt       4.15379623       5.61963752      22.24478916        3
Pt       6.95023990       5.62060467      22.24125057        3
Pt       9.74917515       5.62305001      22.24335781        3
Pt      -0.04480798       1.58336191      24.55012440        2
Pt       2.75394043       1.58585979      24.55268364        2
Pt       5.55039217       1.58662747      24.54905726        2
Pt       1.35423100       4.00487739      24.54732757        2
Pt       4.15305877       4.00720771      24.54986062        2
Pt       6.94953672       4.00806508      24.54609177        2
Pt       2.75544898       6.42837726      24.54634456        2
Pt       5.55413090       6.43095096      24.54883040        2
Pt       8.35070059       6.43167800      24.54531075        2
Pt      -0.04186219      -0.02884678      26.88765447        1
Pt       2.75779804      -0.02948360      26.88679680        1
Pt       5.55595232      -0.02951820      26.88800292        1
Pt       1.35989683       2.39819152      26.88724975        1
Pt       4.15951944       2.39745989      26.88688336        1
Pt       6.95798985       2.39686495      26.88745591        1
Pt       2.75908277       4.82137600      26.88699129        1
Pt       5.55849700       4.82115129      26.88605841        1
Pt       8.35695528       4.82061088      26.88701447        1
C        4.60029944       3.03327682      29.62224828        0
H        3.57953401       3.44494599      29.54034300        0
H        4.73642633       2.30433122      28.80371806        0
H        4.66372411       2.47376083      30.57364114        0
C        5.66177380       4.14069284      29.56484192        0
C        7.09919164       3.61382749      29.68301337        0
C        8.16490528       4.71775830      29.66205593        0
H        5.47671485       4.86974302      30.37692366        0
H        5.55840399       4.71354233      28.62331214        0
H        7.28968847       2.89252144      28.86463762        0
H        7.19045778       3.03185485      30.61974258        0
H        9.17751353       4.30568314      29.80914236        0
H        8.16127199       5.25949823      28.70046490        0
H        7.98721288       5.45819009      30.46301938        0
