18
Lattice="5.5961570545186 0.0 0.0 2.7980785272593 4.846414172780604 0.0 0.0 0.0 47.23223814013615" Properties=species:S:1:pos:R:3:tags:I:1:initial_magmoms:R:1 pbc="T T T"
Pt       0.00000000       0.00000000      20.00000000        4       0.00000000
Pt       2.77185858       0.00000000      20.00000000        4       0.00000000
Pt       1.38592929       2.40049995      20.00000000        4       0.00000000
Pt       4.15778787       2.40049995      20.00000000        4       0.00000000
Pt       1.38592929       0.80016665      22.26321306        3       0.00000000
Pt       4.15778787       0.80016665      22.26321306        3       0.00000000
Pt       2.77185858       3.20066660      22.26321306        3       0.00000000
Pt       5.54371716       3.20066660      22.26321306        3       0.00000000
Pt      -0.00000000       1.60033330      24.52642611        2       0.00000000
Pt       2.77185858       1.60033330      24.52642611        2       0.00000000
Pt       1.38592929       4.00083325      24.52642611        2       0.00000000
Pt       4.15778787       4.00083325      24.52642611        2       0.00000000
Pt       0.00000000       0.00000000      26.78963917        1       0.00000000
Pt       2.77185858       0.00000000      26.78963917        1       0.00000000
Pt       1.38592929       2.40049995      26.78963917        1       0.00000000
Pt       4.15778787       2.40049995      26.78963917        1       0.00000000
N        2.79707788       1.55043410      28.07851348        0       0.60000000
O        2.79707788       1.55043410      29.22121648        0       0.40000000
