37
Lattice="8.394417164447733 0.0 0.0 4.197208582223866 7.2697785143758695 0.0 0.0 0.0 47.23325985984131" Properties=species:S:1:pos:R:3:move_mask:L:1:tags:I:1:forces:R:3 energy=-192.86287756920916 pbc="T T T"
Pt      -0.04354507      -0.02537163      19.90232493  F        4       0.00000000       0.00000000       0.00000000
Pt       2.75494910      -0.02584684      19.90351802  F        4       0.00000000       0.00000000       0.00000000
Pt       5.55439921      -0.02604776      19.90232122  F        4       0.00000000       0.00000000       0.00000000
Pt       1.35521504       2.39959599      19.90342593  F        4       0.00000000       0.00000000       0.00000000
Pt       4.15359799       2.39904908      19.90423764  F        4       0.00000000       0.00000000       0.00000000
Pt       6.95325171       2.39838680      19.90323426  F        4       0.00000000       0.00000000       0.00000000
Pt       2.75408207       4.82369945      19.90074925  F        4       0.00000000       0.00000000       0.00000000
Pt       5.55227550       4.82366925      19.90186028  F        4       0.00000000       0.00000000       0.00000000
Pt       8.35193944       4.82292428      19.90108855  F        4       0.00000000       0.00000000       0.00000000
Pt       1.35555748       0.77730286      22.24212575  F        3       0.00000000       0.00000000       0.00000000
Pt       4.15215238       0.77808505      22.23862640  F        3       0.00000000       0.00000000       0.00000000
Pt       6.95081695       0.78065214      22.24094728  F        3       0.00000000       0.00000000       0.00000000
Pt       2.75450631       3.19803207      22.24175031  F        3       0.00000000       0.00000000       0.00000000
Pt       5.55105519       3.19888657      22.23791423  F        3       0.00000000       0.00000000       0.00000000
Pt       8.34980156       3.20137667      22.24024516  F        3       0.00000000       0.00000000       0.00000000
Pt       4.15379623       5.61963752      22.24478916  F        3       0.00000000       0.00000000       0.00000000
Pt       6.95023990       5.62060467      22.24125057  F        3       0.00000000       0.00000000       0.00000000
Pt       9.74917515       5.62305001      22.24335781  F        3       0.00000000       0.00000000       0.00000000
Pt      -0.04873072       1.59488474      24.59065543  T        2      -0.00292346      -0.00082647       0.00530317
Pt       2.77192522       1.59331444      24.59241675  T        2      -0.00091656      -0.00136398      -0.00358553
Pt       5.55677597       1.59492694      24.55305637  T        2       0.00213576      -0.00131274       0.00333348
Pt       1.36221322       4.00509209      24.52975752  T        2      -0.00298366       0.00109561      -0.00100823
Pt       4.16625863       4.00669538      24.55484263  T        2       0.00068231       0.00115202       0.00354941
Pt       6.95131697       4.00578867      24.55350325  T        2      -0.00218043      -0.00205929       0.00400438
Pt       2.76464646       6.43760730      24.52942997  T        2      -0.00277478      -0.00183240      -0.00069185
Pt       5.55830768       6.42069843      24.59135559  T        2      -0.00194839      -0.00228645       0.00483762
Pt       8.35127446       6.43677489      24.52876944  T        2      -0.00015688      -0.00301102      -0.00143851
Pt      -0.03170937      -0.02716799      26.91328476  T        1      -0.00129709      -0.00073009       0.00399151
Pt       2.77052559      -0.02368127      26.91490733  T        1      -0.00068379      -0.00148943       0.00205453
Pt       5.57001438      -0.04385245      26.85716487  T        1      -0.00287363      -0.00510123       0.00048832
Pt       1.36395461       2.40288635      26.91474433  T        1      -0.00144727      -0.00077205       0.00247487
Pt       4.07002289       2.34410374      26.94786075  T        1       0.00693378       0.00296702       0.00244882
Pt       7.05779428       2.34550129      26.94885565  T        1      -0.00022142      -0.00185242      -0.00414867
Pt       2.74766894       4.83095239      26.85806445  T        1      -0.00491727      -0.00117267       0.00069251
Pt       5.56469962       4.93124939      26.94878601  T        1      -0.00162095      -0.00166245      -0.00304499
Pt       8.38110295       4.83774046      26.85537438  T        1      -0.00079480      -0.00135141       0.00273606
O        5.56465814       3.20733804      28.06212263  T        0      -0.00678637      -0.00389342       0.00071791
