36
Lattice="8.453015870860508 0.0 0.0 4.226507935430254 7.320523069561972 0.0 0.0 0.0 26.901858257267502" Properties=species:S:1:pos:R:3:forces:R:3 energy=-449536.05487787694 pbc="T T T"
Pt       0.00000000       0.00000000       2.00000000       0.00003471       0.00002083      -0.07883619
Pt       2.81767486       0.00000000       2.00000000       0.00000437       0.00002982      -0.07881717
Pt       5.63534972       0.00000000       2.00000000      -0.00001928       0.00003831      -0.07882642
Pt       1.40883743       2.44017801       2.00000000       0.00002751      -0.00000900      -0.07881511
Pt       4.22651229       2.44017801       2.00000000      -0.00000051       0.00000129      -0.07879711
Pt       7.04418715       2.44017801       2.00000000      -0.00002211       0.00001106      -0.07880508
Pt       2.81767486       4.88035602       2.00000000       0.00002263      -0.00003934      -0.07882488
Pt       5.63534972       4.88035602       2.00000000      -0.00000334      -0.00002751      -0.07880534
Pt       8.45302458       4.88035602       2.00000000      -0.00002957      -0.00002057      -0.07881357
Pt       1.40883743       0.81339267       4.30062189       0.00003600       0.00002674       0.10711036
Pt       4.22651229       0.81339267       4.30062189       0.00000206       0.00003831       0.10710599
Pt       7.04418715       0.81339267       4.30062189      -0.00002982       0.00005168       0.10712398
Pt       2.81767486       3.25357068       4.30062189       0.00002905      -0.00001183       0.10710522
Pt       5.63534972       3.25357068       4.30062189      -0.00000077       0.00000231       0.10710110
Pt       8.45302458       3.25357068       4.30062189      -0.00003728       0.00001311       0.10711730
Pt       4.22651229       5.69374868       4.30062189       0.00002674      -0.00005142       0.10712398
Pt       7.04418715       5.69374868       4.30062189      -0.00000797      -0.00004011       0.10711756
Pt       9.86186201       5.69374868       4.30062189      -0.00004422      -0.00002931       0.10713530
Pt       0.00000390       1.62678720       6.58424022       0.00000437       0.00000360      -0.00409063
Pt       2.81767588       1.62678720       6.58423943       0.00000077      -0.00000000      -0.00409448
Pt       5.63534850       1.62678776       6.58423953       0.00000334      -0.00000103      -0.00409551
Pt       1.40884059       4.06696282       6.58423985       0.00000077       0.00000000      -0.00409088
Pt       4.22651260       4.06696291       6.58423917       0.00000180      -0.00000154      -0.00409474
Pt       7.04418516       4.06696338       6.58423858       0.00000103      -0.00000386      -0.00409294
Pt       2.81767702       6.50713819       6.58424158       0.00000231       0.00000026      -0.00408728
Pt       5.63534900       6.50713822       6.58424033      -0.00000000      -0.00000309      -0.00408960
Pt       8.45302153       6.50713870       6.58424023      -0.00000154      -0.00000617      -0.00409011
Pt       0.00000341       0.00000219       8.90540838       0.00000489       0.00000231      -0.02420745
Pt       2.81767585       0.00000263       8.90540781       0.00000026       0.00000103      -0.02420719
Pt       5.63534801       0.00000319       8.90540885       0.00000051       0.00000026      -0.02421002
Pt       1.40883964       2.44017778       8.90540735       0.00000206       0.00000360      -0.02420668
Pt       4.22651218       2.44017830       8.90540702       0.00000051       0.00000386      -0.02420616
Pt       7.04418457       2.44017897       8.90540765      -0.00000231       0.00000129      -0.02421002
Pt       2.81767623       4.88035317       8.90540789       0.00000129      -0.00000026      -0.02420771
Pt       5.63534898       4.88035376       8.90540708      -0.00000309      -0.00000103      -0.02420822
Pt       8.45302100       4.88035427       8.90540786      -0.00000566      -0.00000360      -0.02421079
