64
Lattice="11.270688180598817 0.0 0.0 5.635344090299409 9.760697731603091 0.0 0.0 0.0 26.901859099324973" Properties=species:S:1:pos:R:3:forces:R:3 energy=-799174.8178041225 pbc="T T T"
Pt       0.00000000       0.00000000       2.00000000      -0.00000257      -0.00000283      -0.09168245
Pt       2.81767203       0.00000000       2.00000000       0.00000360       0.00000129      -0.09168322
Pt       5.63534406       0.00000000       2.00000000       0.00000257       0.00000514      -0.09168528
Pt       8.45301609       0.00000000       2.00000000      -0.00000283      -0.00000026      -0.09168168
Pt       1.40883602       2.44017556       2.00000000       0.00000411      -0.00000077      -0.09168400
Pt       4.22650805       2.44017556       2.00000000       0.00000540       0.00000077      -0.09168502
Pt       7.04418008       2.44017556       2.00000000      -0.00000437      -0.00000154      -0.09168554
Pt       9.86185211       2.44017556       2.00000000      -0.00000514      -0.00000309      -0.09168040
Pt       2.81767203       4.88035112       2.00000000       0.00000643       0.00000077      -0.09168451
Pt       5.63534406       4.88035112       2.00000000      -0.00000129      -0.00000257      -0.09168400
Pt       8.45301609       4.88035112       2.00000000      -0.00000643      -0.00000231      -0.09168322
Pt      11.27068812       4.88035112       2.00000000       0.00000180       0.00000103      -0.09168194
Pt       4.22650805       7.32052667       2.00000000      -0.00000026      -0.00000154      -0.09168580
Pt       7.04418008       7.32052667       2.00000000      -0.00000309      -0.00000206      -0.09168374
Pt       9.86185211       7.32052667       2.00000000       0.00000026       0.00000386      -0.09168605
Pt      12.67952414       7.32052667       2.00000000       0.00000360       0.00000386      -0.09168348
Pt       1.40883602       0.81339185       4.30061958      -0.00000874       0.00000129       0.10957245
Pt       4.22650805       0.81339185       4.30061958       0.00000746       0.00000540       0.10957502
Pt       7.04418008       0.81339185       4.30061958       0.00000668       0.00000591       0.10961641
Pt       9.86185211       0.81339185       4.30061958      -0.00000720       0.00000026       0.10961513
Pt       2.81767203       3.25356741       4.30061958       0.00000386       0.00000077       0.10956833
Pt       5.63534406       3.25356741       4.30061958       0.00000771      -0.00000180       0.10960381
Pt       8.45301609       3.25356741       4.30061958      -0.00000514      -0.00000823       0.10961024
Pt      11.27068812       3.25356741       4.30061958      -0.00000643      -0.00000720       0.10957682
Pt       4.22650805       5.69374297       4.30061958       0.00000283       0.00000386       0.10958942
Pt       7.04418008       5.69374297       4.30061958      -0.00000540      -0.00000566       0.10958916
Pt       9.86185211       5.69374297       4.30061958      -0.00000489      -0.00000591       0.10956628
Pt      12.67952414       5.69374297       4.30061958       0.00000489       0.00000257       0.10956576
Pt       5.63534406       8.13391853       4.30061958      -0.00000951       0.00000103       0.10958967
Pt       8.45301609       8.13391853       4.30061958      -0.00000514      -0.00000103       0.10955959
Pt      11.27068812       8.13391853       4.30061958       0.00000694       0.00000540       0.10956910
Pt      14.08836015       8.13391853       4.30061958       0.00000540       0.00000720       0.10960253
Pt       0.00000507       1.62678573       6.58609860      -0.00005091      -0.00001928      -0.00584952
Pt       2.81766945       1.62678260       6.58609614       0.00002160       0.00000926      -0.00582663
Pt       5.63533836       1.62678184       6.58609993       0.00005296       0.00001671      -0.00584772
Pt       8.45301809       1.62678487       6.58610240      -0.00001877      -0.00001054      -0.00586700
Pt       1.40883486       4.06695986       6.58609499       0.00000591      -0.00000617      -0.00582226
Pt       4.22650322       4.06695927       6.58609827       0.00004397      -0.00000000      -0.00583486
Pt       7.04418126       4.06696325       6.58610051      -0.00000874      -0.00003805      -0.00585594
Pt       9.86185699       4.06696356       6.58609814      -0.00004397      -0.00004319      -0.00584103
Pt       2.81766833       6.50713220       6.58609771       0.00003214       0.00002828      -0.00583692
Pt       5.63534550       6.50713660       6.58609973      -0.00001440      -0.00001363      -0.00585157
Pt       8.45301939       6.50713808       6.58609644      -0.00003214      -0.00002982      -0.00583435
Pt      11.27068607       6.50713330       6.58609546       0.00001723       0.00001157      -0.00582226
Pt       4.22651083       8.94730934       6.58610133      -0.00002828       0.00001697      -0.00586160
Pt       7.04418368       8.94731124       6.58609770      -0.00003702      -0.00000360      -0.00583718
Pt       9.86184889       8.94730741       6.58609580       0.00002828       0.00002777      -0.00582509
Pt      12.67951999       8.94730557       6.58609987       0.00003857       0.00004808      -0.00584412
Pt       0.00000553       0.00000019       8.90860126      -0.00003162       0.00000103      -0.01206593
Pt       2.81767298      -0.00000103       8.90860226      -0.00000103       0.00001131      -0.01205359
Pt       5.63533794      -0.00000420       8.90860181       0.00003702       0.00002417      -0.01206542
Pt       8.45301587      -0.00000308       8.90860087      -0.00000720       0.00001671      -0.01207647
Pt       1.40883789       2.44017664       8.90860018      -0.00000617      -0.00000077      -0.01204845
Pt       4.22650258       2.44017418       8.90860171       0.00003034       0.00001131      -0.01206259
Pt       7.04417784       2.44017641       8.90860039       0.00000874      -0.00000720      -0.01207904
Pt       9.86185783       2.44017828       8.90859926      -0.00003368      -0.00001260      -0.01206413
Pt       2.81766770       4.88035016       8.90860049       0.00002417       0.00000309      -0.01204999
Pt       5.63534255       4.88035271       8.90860040       0.00000103      -0.00001543      -0.01206516
Pt       8.45301970       4.88035724       8.90859954      -0.00001774      -0.00003934      -0.01205873
Pt      11.27069032       4.88035329       8.90860140      -0.00000874      -0.00001311      -0.01204973
Pt       4.22650737       7.32052459       8.90860118      -0.00000411       0.00000746      -0.01206722
Pt       7.04418381       7.32052870       8.90860118      -0.00002288      -0.00001131      -0.01205796
Pt       9.86185193       7.32052668       8.90860210       0.00000823       0.00000026      -0.01205076
Pt      12.67952022       7.32052181       8.90860154       0.00002108       0.00002700      -0.01205565
