16
Lattice="5.374011537017761 0.0 0.0 2.6870057685088806 4.654030511288037 0.0 0.0 0.0 46.58179306876173" Properties=species:S:1:pos:R:3:move_mask:L:1:forces:R:3 charge=0 spin=0 energy=-100.3514514073104 pbc="T T T"
Rh       0.00000000       0.00000000      20.00000000  F       0.00000000       0.00000000       0.00000000
Rh       2.68700577       0.00000000      20.00000000  F       0.00000000       0.00000000       0.00000000
Rh       1.34350288       2.32701526      20.00000000  F       0.00000000       0.00000000       0.00000000
Rh       4.03050865       2.32701526      20.00000000  F       0.00000000       0.00000000       0.00000000
Rh       1.34350288       0.77567175      22.19393102  F       0.00000000       0.00000000       0.00000000
Rh       4.03050865       0.77567175      22.19393102  F       0.00000000       0.00000000       0.00000000
Rh       2.68700577       3.10268701      22.19393102  F       0.00000000       0.00000000       0.00000000
Rh       5.37401154       3.10268701      22.19393102  F       0.00000000       0.00000000       0.00000000
Rh       0.00000000       1.55134364      24.38497497  T       0.00000006      -0.00000185       0.01834579
Rh       2.68700578       1.55134349      24.38497489  T      -0.00000058       0.00000167       0.01834612
Rh       1.34350268       3.87835869      24.38497494  T       0.00000472      -0.00000000       0.01834546
Rh       4.03050878       3.87835861      24.38497487  T      -0.00000355       0.00000122       0.01834599
Rh       0.00000001       0.00000003      26.58775795  T       0.00000052       0.00000022       0.01484453
Rh       2.68700580       0.00000001      26.58775794  T       0.00000005       0.00000023       0.01484555
Rh       1.34350277       2.32701529      26.58775792  T      -0.00000002      -0.00000082       0.01484470
Rh       4.03050877       2.32701526      26.58775793  T      -0.00000151       0.00000012       0.01484470
