16
Lattice="5.4 0.0 0.0 2.7 4.676537180435969 0.0 0.0 0.0 46.4152" Properties=species:S:1:pos:R:3:move_mask:L:1:forces:R:3 charge=0 spin=0 energy=-129.97249504873142 pbc="T T T"
Ru      -0.00000000       1.55884573      20.00000000  F       0.00000000       0.00000000       0.00000000
Ru       2.70000000       1.55884573      20.00000000  F       0.00000000       0.00000000       0.00000000
Ru       1.35000000       3.89711432      20.00000000  F       0.00000000       0.00000000       0.00000000
Ru       4.05000000       3.89711432      20.00000000  F       0.00000000       0.00000000       0.00000000
Ru       0.00000000       0.00000000      22.13840000  F       0.00000000       0.00000000       0.00000000
Ru       2.70000000       0.00000000      22.13840000  F       0.00000000       0.00000000       0.00000000
Ru       1.35000000       2.33826859      22.13840000  F       0.00000000       0.00000000       0.00000000
Ru       4.05000000       2.33826859      22.13840000  F       0.00000000       0.00000000       0.00000000
Ru      -0.00000000       1.55884570      24.30804199  T      -0.00000026       0.00000129      -0.01205436
Ru       2.70000007       1.55884570      24.30804193  T      -0.00000013      -0.00000142      -0.01205529
Ru       1.35000010       3.89711438      24.30804193  T      -0.00000019      -0.00000002      -0.01205529
Ru       4.04999991       3.89711433      24.30804191  T       0.00000309      -0.00000040      -0.01205483
Ru      -0.00000003      -0.00000001      26.39009210  T      -0.00000132      -0.00000006      -0.00907915
Ru       2.70000001       0.00000003      26.39009216  T      -0.00000016      -0.00000001      -0.00907936
Ru       1.35000002       2.33826861      26.39009214  T       0.00000002       0.00000024      -0.00907860
Ru       4.04999997       2.33826858      26.39009215  T      -0.00000006      -0.00000003      -0.00907860
