
     Program PWSCF v.7.4.1 starts on  8Jun2026 at 23: 3:16 

     This program is part of the open-source Quantum ESPRESSO suite
     for quantum simulation of materials; please cite
         "P. Giannozzi et al., J. Phys.:Condens. Matter 21 395502 (2009);
         "P. Giannozzi et al., J. Phys.:Condens. Matter 29 465901 (2017);
         "P. Giannozzi et al., J. Chem. Phys. 152 154105 (2020);
          URL http://www.quantum-espresso.org", 
     in publications or presentations arising from this work. More details at
     http://www.quantum-espresso.org/quote

     Parallel version (MPI), running on    20 processors

     MPI processes distributed on     1 nodes
     434948 MiB available memory on the printing compute node when the environment starts

     Reading input from pt-o-1.6A.in

     Current dimensions of program PWSCF are:
     Max number of different atomic species (ntypx) = 10
     Max number of k-points (npk) =  40000
     Max angular momentum in pseudopotentials (lmaxx) =  4
     Presently stress not available with electric field and gates

     file Pt.pbe-spn-kjpaw_psl.1.0.0.UPF: wavefunction(s)  5P 5D renormalized
     file O.pbe-n-kjpaw_psl.1.0.0.UPF: wavefunction(s)  2S 2P renormalized

     IMPORTANT: XC functional enforced from input :
     Exchange-correlation= RPBE
                           (   1   4  44   4   0   0   0)
     Any further DFT definition will be discarded
     Please, verify this is what you really want


     R & G space division:  proc/nbgrp/npool/nimage =      20
     Subspace diagonalization in iterative solution of the eigenvalue problem:
     one sub-group per band group will be used
     custom distributed-memory algorithm (size of sub-group:  4*  4 procs)


     Parallelization info
     --------------------
     sticks:   dense  smooth     PW     G-vecs:    dense   smooth      PW
     Min         528     211     57               139422    35261    4999
     Max         529     212     59               139436    35272    5008
     Sum       10561    4231   1159              2788561   705305  100061

     Using Slab Decomposition



     bravais-lattice index     =            0
     lattice parameter (alat)  =      15.9739  a.u.
     unit-cell volume          =   11233.9610 (a.u.)^3
     number of atoms/cell      =           37
     number of atomic types    =            2
     number of electrons       =       654.00
     number of Kohn-Sham states=          392
     kinetic-energy cutoff     =      60.0000  Ry
     charge density cutoff     =     600.0000  Ry
     scf convergence threshold =      1.0E-06
     mixing beta               =       0.7000
     number of iterations used =           12  local-TF  mixing
     Exchange-correlation= RPBE
                           (   1   4  44   4   0   0   0)

     celldm(1)=  15.973885  celldm(2)=   0.000000  celldm(3)=   0.000000
     celldm(4)=   0.000000  celldm(5)=   0.000000  celldm(6)=   0.000000

     crystal axes: (cart. coord. in units of alat)
               a(1) = (   1.000000   0.000000   0.000000 )  
               a(2) = (   0.500000   0.866025   0.000000 )  
               a(3) = (   0.000000   0.000000   3.182516 )  

     reciprocal axes: (cart. coord. in units 2 pi/alat)
               b(1) = (  1.000000 -0.577350  0.000000 )  
               b(2) = (  0.000000  1.154701  0.000000 )  
               b(3) = (  0.000000  0.000000  0.314217 )  


     PseudoPot. # 1 for Pt read from file:
     ./pseudo/Pt.pbe-spn-kjpaw_psl.1.0.0.UPF
     MD5 check sum: f62f2ab5688b80eb25add38ff45b0645
     Pseudo is Projector augmented-wave + core cor, Zval = 18.0
     Generated using &quot;atomic&quot; code by A. Dal Corso  v.6.3
     Shape of augmentation charge: PSQ
     Using radial grid of 1277 points,  6 beta functions with: 
                l(1) =   0
                l(2) =   0
                l(3) =   1
                l(4) =   1
                l(5) =   2
                l(6) =   2
     Q(r) pseudized with 0 coefficients 


     PseudoPot. # 2 for O  read from file:
     ./pseudo/O.pbe-n-kjpaw_psl.1.0.0.UPF
     MD5 check sum: 9aa21d4642c1c2a0b5c883e051f79e44
     Pseudo is Projector augmented-wave + core cor, Zval =  6.0
     Generated using &quot;atomic&quot; code by A. Dal Corso  v.6.3
     Shape of augmentation charge: PSQ
     Using radial grid of 1095 points,  4 beta functions with: 
                l(1) =   0
                l(2) =   0
                l(3) =   1
                l(4) =   1
     Q(r) pseudized with 0 coefficients 


     atomic species   valence    mass     pseudopotential
     Pt               18.00   195.08000     Pt( 1.00)
     O                 6.00    15.99900     O ( 1.00)

     Starting magnetic structure 
     atomic species   magnetization
     Pt              0.000
     O               0.167

     No symmetry found


                                    s                        frac. trans.

      isym =  1     identity                                     

 cryst.   s( 1) = (     1          0          0      )
                  (     0          1          0      )
                  (     0          0          1      )

 cart.    s( 1) = (  1.0000000  0.0000000  0.0000000 )
                  (  0.0000000  1.0000000  0.0000000 )
                  (  0.0000000  0.0000000  1.0000000 )


   Cartesian axes

     site n.     atom                  positions (alat units)
         1        Pt     tau(   1) = (   0.0000000   0.0000000   0.2366019  )
         2        Pt     tau(   2) = (   0.3333333   0.0000000   0.2366019  )
         3        Pt     tau(   3) = (   0.6666667   0.0000000   0.2366019  )
         4        Pt     tau(   4) = (   0.1666667   0.2886751   0.2366019  )
         5        Pt     tau(   5) = (   0.5000000   0.2886751   0.2366019  )
         6        Pt     tau(   6) = (   0.8333333   0.2886751   0.2366019  )
         7        Pt     tau(   7) = (   0.3333333   0.5773503   0.2366019  )
         8        Pt     tau(   8) = (   0.6666667   0.5773503   0.2366019  )
         9        Pt     tau(   9) = (   1.0000000   0.5773503   0.2366019  )
        10        Pt     tau(  10) = (   0.1666667   0.0962250   0.5087675  )
        11        Pt     tau(  11) = (   0.5000000   0.0962250   0.5087675  )
        12        Pt     tau(  12) = (   0.8333333   0.0962250   0.5087675  )
        13        Pt     tau(  13) = (   0.3333333   0.3849002   0.5087675  )
        14        Pt     tau(  14) = (   0.6666667   0.3849002   0.5087675  )
        15        Pt     tau(  15) = (   1.0000000   0.3849002   0.5087675  )
        16        Pt     tau(  16) = (   0.5000000   0.6735753   0.5087675  )
        17        Pt     tau(  17) = (   0.8333333   0.6735753   0.5087675  )
        18        Pt     tau(  18) = (   1.1666667   0.6735753   0.5087675  )
        19        Pt     tau(  19) = (  -0.0009359   0.1939773   0.7797341  )
        20        Pt     tau(  20) = (   0.3342811   0.1939797   0.7797400  )
        21        Pt     tau(  21) = (   0.6666698   0.1927223   0.7818215  )
        22        Pt     tau(  22) = (   0.1666723   0.4815496   0.7765130  )
        23        Pt     tau(  23) = (   0.4995880   0.4800739   0.7796991  )
        24        Pt     tau(  24) = (   0.8337578   0.4800763   0.7796924  )
        25        Pt     tau(  25) = (   0.3318220   0.7704796   0.7799570  )
        26        Pt     tau(  26) = (   0.6666729   0.7701750   0.7746330  )
        27        Pt     tau(  27) = (   1.0015233   0.7704771   0.7799565  )
        28        Pt     tau(  28) = (   0.0025323  -0.0008167   1.0509928  )
        29        Pt     tau(  29) = (   0.3308207  -0.0008161   1.0509913  )
        30        Pt     tau(  30) = (   0.6666770  -0.0089227   1.0664244  )
        31        Pt     tau(  31) = (   0.1666822   0.2891436   1.0515803  )
        32        Pt     tau(  32) = (   0.4916503   0.2940997   1.0660716  )
        33        Pt     tau(  33) = (   0.8417051   0.2941009   1.0660670  )
        34        Pt     tau(  34) = (   0.3335135   0.5781048   1.0514827  )
        35        Pt     tau(  35) = (   0.6666759   0.5811172   1.0510875  )
        36        Pt     tau(  36) = (   0.9998420   0.5781091   1.0514850  )
        37        O      tau(  37) = (   0.6666775   0.1930926   1.2554692  )

     Fixed atoms
     site n.  direction
         1    0   0   0
         2    0   0   0
         3    0   0   0
         4    0   0   0
         5    0   0   0
         6    0   0   0
         7    0   0   0
         8    0   0   0
         9    0   0   0
        10    0   0   0
        11    0   0   0
        12    0   0   0
        13    0   0   0
        14    0   0   0
        15    0   0   0
        16    0   0   0
        17    0   0   0
        18    0   0   0
        19    1   1   1
        20    1   1   1
        21    1   1   1
        22    1   1   1
        23    1   1   1
        24    1   1   1
        25    1   1   1
        26    1   1   1
        27    1   1   1
        28    1   1   1
        29    1   1   1
        30    1   1   1
        31    1   1   1
        32    1   1   1
        33    1   1   1
        34    1   1   1
        35    1   1   1
        36    1   1   1
        37    1   1   1

   Crystallographic axes

     site n.     atom                  positions (cryst. coord.)
         1        Pt     tau(   1) = (  0.0000000  0.0000000  0.0743443  )
         2        Pt     tau(   2) = (  0.3333333  0.0000000  0.0743443  )
         3        Pt     tau(   3) = (  0.6666667  0.0000000  0.0743443  )
         4        Pt     tau(   4) = (  0.0000000  0.3333333  0.0743443  )
         5        Pt     tau(   5) = (  0.3333333  0.3333333  0.0743443  )
         6        Pt     tau(   6) = (  0.6666667  0.3333333  0.0743443  )
         7        Pt     tau(   7) = ( -0.0000000  0.6666667  0.0743443  )
         8        Pt     tau(   8) = (  0.3333333  0.6666667  0.0743443  )
         9        Pt     tau(   9) = (  0.6666667  0.6666667  0.0743443  )
        10        Pt     tau(  10) = (  0.1111111  0.1111111  0.1598633  )
        11        Pt     tau(  11) = (  0.4444444  0.1111111  0.1598633  )
        12        Pt     tau(  12) = (  0.7777778  0.1111111  0.1598633  )
        13        Pt     tau(  13) = (  0.1111111  0.4444444  0.1598633  )
        14        Pt     tau(  14) = (  0.4444444  0.4444444  0.1598633  )
        15        Pt     tau(  15) = (  0.7777778  0.4444444  0.1598633  )
        16        Pt     tau(  16) = (  0.1111111  0.7777778  0.1598633  )
        17        Pt     tau(  17) = (  0.4444444  0.7777778  0.1598633  )
        18        Pt     tau(  18) = (  0.7777778  0.7777778  0.1598633  )
        19        Pt     tau(  19) = ( -0.1129288  0.2239857  0.2450056  )
        20        Pt     tau(  20) = (  0.2222869  0.2239884  0.2450074  )
        21        Pt     tau(  21) = (  0.5554015  0.2225365  0.2456615  )
        22        Pt     tau(  22) = ( -0.1113505  0.5560455  0.2439934  )
        23        Pt     tau(  23) = (  0.2224172  0.5543415  0.2449946  )
        24        Pt     tau(  24) = (  0.5565855  0.5543444  0.2449925  )
        25        Pt     tau(  25) = ( -0.1130146  0.8896732  0.2450756  )
        26        Pt     tau(  26) = (  0.2220122  0.8893215  0.2434027  )
        27        Pt     tau(  27) = (  0.5566882  0.8896703  0.2450754  )
        28        Pt     tau(  28) = (  0.0030038 -0.0009431  0.3302396  )
        29        Pt     tau(  29) = (  0.3312919 -0.0009424  0.3302391  )
        30        Pt     tau(  30) = (  0.6718285 -0.0103030  0.3350885  )
        31        Pt     tau(  31) = ( -0.0002549  0.3338743  0.3304242  )
        32        Pt     tau(  32) = (  0.3218517  0.3395971  0.3349776  )
        33        Pt     tau(  33) = (  0.6719059  0.3395984  0.3349762  )
        34        Pt     tau(  34) = ( -0.0002555  0.6675379  0.3303935  )
        35        Pt     tau(  35) = (  0.3311678  0.6710163  0.3302694  )
        36        Pt     tau(  36) = (  0.6660705  0.6675429  0.3303943  )
        37        O      tau(  37) = (  0.5551954  0.2229642  0.3944895  )

     number of k points=    20  Fermi-Dirac smearing, width (Ry)=  0.0037
                       cart. coord. in units 2pi/alat
        k(    1) = (   0.0000000   0.0000000   0.0000000), wk =   0.0277778
        k(    2) = (   0.0000000   0.1924501   0.0000000), wk =   0.0555556
        k(    3) = (   0.0000000   0.3849002   0.0000000), wk =   0.0555556
        k(    4) = (   0.0000000  -0.5773503   0.0000000), wk =   0.0277778
        k(    5) = (   0.1666667  -0.0962250   0.0000000), wk =   0.0555556
        k(    6) = (   0.1666667   0.0962250   0.0000000), wk =   0.0555556
        k(    7) = (   0.1666667   0.2886751   0.0000000), wk =   0.0555556
        k(    8) = (   0.1666667  -0.6735753   0.0000000), wk =   0.0555556
        k(    9) = (   0.1666667  -0.4811252   0.0000000), wk =   0.0555556
        k(   10) = (   0.1666667  -0.2886751   0.0000000), wk =   0.0555556
        k(   11) = (   0.3333333  -0.1924501   0.0000000), wk =   0.0555556
        k(   12) = (   0.3333333   0.0000000   0.0000000), wk =   0.0555556
        k(   13) = (   0.3333333   0.1924501   0.0000000), wk =   0.0555556
        k(   14) = (   0.3333333  -0.7698004   0.0000000), wk =   0.0555556
        k(   15) = (   0.3333333  -0.5773503   0.0000000), wk =   0.0555556
        k(   16) = (   0.3333333  -0.3849002   0.0000000), wk =   0.0555556
        k(   17) = (  -0.5000000   0.2886751   0.0000000), wk =   0.0277778
        k(   18) = (  -0.5000000   0.4811252   0.0000000), wk =   0.0555556
        k(   19) = (  -0.5000000   0.6735753   0.0000000), wk =   0.0555556
        k(   20) = (  -0.5000000  -0.2886751   0.0000000), wk =   0.0277778

                       cryst. coord.
        k(    1) = (   0.0000000   0.0000000   0.0000000), wk =   0.0277778
        k(    2) = (   0.0000000   0.1666667   0.0000000), wk =   0.0555556
        k(    3) = (   0.0000000   0.3333333   0.0000000), wk =   0.0555556
        k(    4) = (   0.0000000  -0.5000000   0.0000000), wk =   0.0277778
        k(    5) = (   0.1666667  -0.0000000   0.0000000), wk =   0.0555556
        k(    6) = (   0.1666667   0.1666667   0.0000000), wk =   0.0555556
        k(    7) = (   0.1666667   0.3333333   0.0000000), wk =   0.0555556
        k(    8) = (   0.1666667  -0.5000000   0.0000000), wk =   0.0555556
        k(    9) = (   0.1666667  -0.3333333   0.0000000), wk =   0.0555556
        k(   10) = (   0.1666667  -0.1666667   0.0000000), wk =   0.0555556
        k(   11) = (   0.3333333  -0.0000000   0.0000000), wk =   0.0555556
        k(   12) = (   0.3333333   0.1666667   0.0000000), wk =   0.0555556
        k(   13) = (   0.3333333   0.3333333   0.0000000), wk =   0.0555556
        k(   14) = (   0.3333333  -0.5000000   0.0000000), wk =   0.0555556
        k(   15) = (   0.3333333  -0.3333333   0.0000000), wk =   0.0555556
        k(   16) = (   0.3333333  -0.1666667   0.0000000), wk =   0.0555556
        k(   17) = (  -0.5000000   0.0000000   0.0000000), wk =   0.0277778
        k(   18) = (  -0.5000000   0.1666667   0.0000000), wk =   0.0555556
        k(   19) = (  -0.5000000   0.3333333   0.0000000), wk =   0.0555556
        k(   20) = (  -0.5000000  -0.5000000   0.0000000), wk =   0.0277778

     Dense  grid:  2788561 G-vectors     FFT dimensions: ( 125, 125, 400)

     Smooth grid:   705305 G-vectors     FFT dimensions: (  80,  80, 256)

     Dynamical RAM for                 wfc:      26.37 MB

     Dynamical RAM for     wfc (w. buffer):    1081.01 MB

     Dynamical RAM for           str. fact:       4.25 MB

     Dynamical RAM for           local pot:       0.00 MB

     Dynamical RAM for          nlocal pot:      44.12 MB

     Dynamical RAM for                qrad:       3.93 MB

     Dynamical RAM for          rho,v,vnew:      27.07 MB

     Dynamical RAM for               rhoin:       9.02 MB

     Dynamical RAM for            rho*nmix:     102.12 MB

     Dynamical RAM for           G-vectors:       8.25 MB

     Dynamical RAM for          h,s,v(r/c):       1.76 MB

     Dynamical RAM for          <psi|beta>:       3.92 MB

     Dynamical RAM for                 psi:      52.73 MB

     Dynamical RAM for                hpsi:      52.73 MB

     Dynamical RAM for                spsi:      52.73 MB

     Dynamical RAM for      wfcinit/wfcrot:      56.25 MB

     Dynamical RAM for           addusdens:     474.41 MB

     Dynamical RAM for          addusforce:     623.61 MB

     Estimated static dynamical RAM per process >       1.17 GB

     Estimated max dynamical RAM per process >       1.88 GB

     Estimated total dynamical RAM >      37.58 GB
     Generating pointlists ...
     new r_m :   0.1141 (alat units)  1.8231 (a.u.) for type    1
     new r_m :   0.1141 (alat units)  1.8231 (a.u.) for type    2

     Initial potential from superposition of free atoms

     starting charge     653.9952, renormalised to     654.0000

     negative rho (up, down):  2.841E-04 2.809E-04

     Adding external electric field

     Computed dipole along edir(3) : 
        Elec. dipole        -10.0560 Ry au,        -25.5599 Debye
        Ion. dipole         -10.0607 Ry au,        -25.5718 Debye
        Dipole               -4.1980 Ry au,        -10.6702 Debye
        Dipole field         -0.0047 Ry au, 

        Potential amp.        0.4536 Ry
        Total length         48.2953 bohr


     Adding external electric field

     Computed dipole along edir(3) : 
        Elec. dipole        -10.0560 Ry au,        -25.5599 Debye
        Ion. dipole         -10.0607 Ry au,        -25.5718 Debye
        Dipole               -4.1980 Ry au,        -10.6702 Debye
        Dipole field         -0.0047 Ry au, 

        Potential amp.        0.4536 Ry
        Total length         48.2953 bohr

     Starting wfcs are  364 randomized atomic wfcs +   28 random wfcs
     Checking if some PAW data can be deallocated... 
       PAW data deallocated on    1 nodes for type:  1
       PAW data deallocated on   19 nodes for type:  2

     total cpu time spent up to now is      341.1 secs

     per-process dynamical memory:  1260.3 Mb

     Self-consistent Calculation

     iteration #  1     ecut=    60.00 Ry     beta= 0.70
     Davidson diagonalization with overlap

---- Real-time Memory Report at c_bands before calling an iterative solver
          1276 MiB given to the printing process from OS
          1236 MiB allocation reported by mallinfo(arena+hblkhd)
        410816 MiB available memory on the node where the printing process lives
------------------
     ethr =  1.00E-02,  avg # of iterations =  4.1

     negative rho (up, down):  6.828E-05 6.800E-05

     Adding external electric field

     Computed dipole along edir(3) : 
        Elec. dipole        -10.0564 Ry au,        -25.5609 Debye
        Ion. dipole         -10.0607 Ry au,        -25.5718 Debye
        Dipole               -3.8383 Ry au,         -9.7560 Debye
        Dipole field         -0.0043 Ry au, 

        Potential amp.        0.4147 Ry
        Total length         48.2953 bohr


     Adding external electric field

     Computed dipole along edir(3) : 
        Elec. dipole        -10.0564 Ry au,        -25.5609 Debye
        Ion. dipole         -10.0607 Ry au,        -25.5718 Debye
        Dipole               -3.8383 Ry au,         -9.7560 Debye
        Dipole field         -0.0043 Ry au, 

        Potential amp.        0.4147 Ry
        Total length         48.2953 bohr


     total cpu time spent up to now is     1701.1 secs

     total energy              =  -33080.45713621 Ry
     estimated scf accuracy    <      76.73218309 Ry

     total magnetization       =     0.38 Bohr mag/cell
     absolute magnetization    =     0.82 Bohr mag/cell

     iteration #  2     ecut=    60.00 Ry     beta= 0.70
     Davidson diagonalization with overlap

---- Real-time Memory Report at c_bands before calling an iterative solver
          1769 MiB given to the printing process from OS
          1313 MiB allocation reported by mallinfo(arena+hblkhd)
        409115 MiB available memory on the node where the printing process lives
------------------
     ethr =  1.00E-02,  avg # of iterations =  1.0

     negative rho (up, down):  6.623E-06 6.563E-06

     Adding external electric field

     Computed dipole along edir(3) : 
        Elec. dipole        -10.0560 Ry au,        -25.5599 Debye
        Ion. dipole         -10.0607 Ry au,        -25.5718 Debye
        Dipole               -4.2001 Ry au,        -10.6756 Debye
        Dipole field         -0.0047 Ry au, 

        Potential amp.        0.4538 Ry
        Total length         48.2953 bohr


     Adding external electric field

     Computed dipole along edir(3) : 
        Elec. dipole        -10.0560 Ry au,        -25.5599 Debye
        Ion. dipole         -10.0607 Ry au,        -25.5718 Debye
        Dipole               -4.2001 Ry au,        -10.6756 Debye
        Dipole field         -0.0047 Ry au, 

        Potential amp.        0.4538 Ry
        Total length         48.2953 bohr


     total cpu time spent up to now is     2609.7 secs

     total energy              =  -33081.25122461 Ry
     estimated scf accuracy    <      51.00177820 Ry

     total magnetization       =     0.51 Bohr mag/cell
     absolute magnetization    =     0.73 Bohr mag/cell

     iteration #  3     ecut=    60.00 Ry     beta= 0.70
     Davidson diagonalization with overlap

---- Real-time Memory Report at c_bands before calling an iterative solver
          1772 MiB given to the printing process from OS
          1315 MiB allocation reported by mallinfo(arena+hblkhd)
        409079 MiB available memory on the node where the printing process lives
------------------
     ethr =  7.80E-03,  avg # of iterations =  1.0

     negative rho (up, down):  3.759E-06 3.700E-06

     Adding external electric field

     Computed dipole along edir(3) : 
        Elec. dipole        -10.0562 Ry au,        -25.5602 Debye
        Ion. dipole         -10.0607 Ry au,        -25.5718 Debye
        Dipole               -4.0775 Ry au,        -10.3641 Debye
        Dipole field         -0.0046 Ry au, 

        Potential amp.        0.4406 Ry
        Total length         48.2953 bohr


     Adding external electric field

     Computed dipole along edir(3) : 
        Elec. dipole        -10.0562 Ry au,        -25.5602 Debye
        Ion. dipole         -10.0607 Ry au,        -25.5718 Debye
        Dipole               -4.0775 Ry au,        -10.3641 Debye
        Dipole field         -0.0046 Ry au, 

        Potential amp.        0.4406 Ry
        Total length         48.2953 bohr


     total cpu time spent up to now is     3517.3 secs

     total energy              =  -33082.03389003 Ry
     estimated scf accuracy    <      13.05024588 Ry

     total magnetization       =     0.34 Bohr mag/cell
     absolute magnetization    =     0.73 Bohr mag/cell

     iteration #  4     ecut=    60.00 Ry     beta= 0.70
     Davidson diagonalization with overlap

---- Real-time Memory Report at c_bands before calling an iterative solver
          1773 MiB given to the printing process from OS
          1318 MiB allocation reported by mallinfo(arena+hblkhd)
        409089 MiB available memory on the node where the printing process lives
------------------
     ethr =  2.00E-03,  avg # of iterations =  1.1

     negative rho (up, down):  1.127E-06 1.131E-06

     Adding external electric field

     Computed dipole along edir(3) : 
        Elec. dipole        -10.0565 Ry au,        -25.5610 Debye
        Ion. dipole         -10.0607 Ry au,        -25.5718 Debye
        Dipole               -3.8168 Ry au,         -9.7013 Debye
        Dipole field         -0.0043 Ry au, 

        Potential amp.        0.4124 Ry
        Total length         48.2953 bohr


     Adding external electric field

     Computed dipole along edir(3) : 
        Elec. dipole        -10.0565 Ry au,        -25.5610 Debye
        Ion. dipole         -10.0607 Ry au,        -25.5718 Debye
        Dipole               -3.8168 Ry au,         -9.7013 Debye
        Dipole field         -0.0043 Ry au, 

        Potential amp.        0.4124 Ry
        Total length         48.2953 bohr


     total cpu time spent up to now is     4426.5 secs

     total energy              =  -33081.99538974 Ry
     estimated scf accuracy    <       4.86561758 Ry

     total magnetization       =     0.40 Bohr mag/cell
     absolute magnetization    =     0.68 Bohr mag/cell

     iteration #  5     ecut=    60.00 Ry     beta= 0.70
     Davidson diagonalization with overlap

---- Real-time Memory Report at c_bands before calling an iterative solver
          1776 MiB given to the printing process from OS
          1320 MiB allocation reported by mallinfo(arena+hblkhd)
        409042 MiB available memory on the node where the printing process lives
------------------
     ethr =  7.44E-04,  avg # of iterations =  2.2

     negative rho (up, down):  1.115E-06 1.114E-06

     Adding external electric field

     Computed dipole along edir(3) : 
        Elec. dipole        -10.0565 Ry au,        -25.5610 Debye
        Ion. dipole         -10.0607 Ry au,        -25.5718 Debye
        Dipole               -3.7893 Ry au,         -9.6314 Debye
        Dipole field         -0.0042 Ry au, 

        Potential amp.        0.4094 Ry
        Total length         48.2953 bohr


     Adding external electric field

     Computed dipole along edir(3) : 
        Elec. dipole        -10.0565 Ry au,        -25.5610 Debye
        Ion. dipole         -10.0607 Ry au,        -25.5718 Debye
        Dipole               -3.7893 Ry au,         -9.6314 Debye
        Dipole field         -0.0042 Ry au, 

        Potential amp.        0.4094 Ry
        Total length         48.2953 bohr


     total cpu time spent up to now is     5429.2 secs

     total energy              =  -33082.04066456 Ry
     estimated scf accuracy    <       0.32571350 Ry

     total magnetization       =     0.37 Bohr mag/cell
     absolute magnetization    =     0.63 Bohr mag/cell

     iteration #  6     ecut=    60.00 Ry     beta= 0.70
     Davidson diagonalization with overlap

---- Real-time Memory Report at c_bands before calling an iterative solver
          1778 MiB given to the printing process from OS
          1322 MiB allocation reported by mallinfo(arena+hblkhd)
        408931 MiB available memory on the node where the printing process lives
------------------
     ethr =  4.98E-05,  avg # of iterations = 10.0

     negative rho (up, down):  6.421E-07 6.420E-07

     Adding external electric field

     Computed dipole along edir(3) : 
        Elec. dipole        -10.0565 Ry au,        -25.5611 Debye
        Ion. dipole         -10.0607 Ry au,        -25.5718 Debye
        Dipole               -3.7637 Ry au,         -9.5664 Debye
        Dipole field         -0.0042 Ry au, 

        Potential amp.        0.4067 Ry
        Total length         48.2953 bohr


     Adding external electric field

     Computed dipole along edir(3) : 
        Elec. dipole        -10.0565 Ry au,        -25.5611 Debye
        Ion. dipole         -10.0607 Ry au,        -25.5718 Debye
        Dipole               -3.7637 Ry au,         -9.5664 Debye
        Dipole field         -0.0042 Ry au, 

        Potential amp.        0.4067 Ry
        Total length         48.2953 bohr


     total cpu time spent up to now is     6624.6 secs

     total energy              =  -33082.03782850 Ry
     estimated scf accuracy    <       0.33990258 Ry

     total magnetization       =     0.40 Bohr mag/cell
     absolute magnetization    =     0.62 Bohr mag/cell

     iteration #  7     ecut=    60.00 Ry     beta= 0.70
     Davidson diagonalization with overlap

---- Real-time Memory Report at c_bands before calling an iterative solver
          1782 MiB given to the printing process from OS
          1325 MiB allocation reported by mallinfo(arena+hblkhd)
        408922 MiB available memory on the node where the printing process lives
------------------
     ethr =  4.98E-05,  avg # of iterations =  1.0

     negative rho (up, down):  1.131E-06 1.135E-06

     Adding external electric field

     Computed dipole along edir(3) : 
        Elec. dipole        -10.0567 Ry au,        -25.5616 Debye
        Ion. dipole         -10.0607 Ry au,        -25.5718 Debye
        Dipole               -3.5853 Ry au,         -9.1131 Debye
        Dipole field         -0.0040 Ry au, 

        Potential amp.        0.3874 Ry
        Total length         48.2953 bohr


     Adding external electric field

     Computed dipole along edir(3) : 
        Elec. dipole        -10.0567 Ry au,        -25.5616 Debye
        Ion. dipole         -10.0607 Ry au,        -25.5718 Debye
        Dipole               -3.5853 Ry au,         -9.1131 Debye
        Dipole field         -0.0040 Ry au, 

        Potential amp.        0.3874 Ry
        Total length         48.2953 bohr


     total cpu time spent up to now is     7525.6 secs

     total energy              =  -33082.03676232 Ry
     estimated scf accuracy    <       0.05001435 Ry

     total magnetization       =     0.36 Bohr mag/cell
     absolute magnetization    =     0.55 Bohr mag/cell

     iteration #  8     ecut=    60.00 Ry     beta= 0.70
     Davidson diagonalization with overlap

---- Real-time Memory Report at c_bands before calling an iterative solver
          1791 MiB given to the printing process from OS
          1327 MiB allocation reported by mallinfo(arena+hblkhd)
        408846 MiB available memory on the node where the printing process lives
------------------
     c_bands:  2 eigenvalues not converged
     c_bands:  2 eigenvalues not converged
     c_bands:  1 eigenvalues not converged
     ethr =  7.65E-06,  avg # of iterations = 11.2

     negative rho (up, down):  1.657E-06 1.666E-06

     Adding external electric field

     Computed dipole along edir(3) : 
        Elec. dipole        -10.0570 Ry au,        -25.5624 Debye
        Ion. dipole         -10.0607 Ry au,        -25.5718 Debye
        Dipole               -3.2950 Ry au,         -8.3751 Debye
        Dipole field         -0.0037 Ry au, 

        Potential amp.        0.3560 Ry
        Total length         48.2953 bohr


     Adding external electric field

     Computed dipole along edir(3) : 
        Elec. dipole        -10.0570 Ry au,        -25.5624 Debye
        Ion. dipole         -10.0607 Ry au,        -25.5718 Debye
        Dipole               -3.2950 Ry au,         -8.3751 Debye
        Dipole field         -0.0037 Ry au, 

        Potential amp.        0.3560 Ry
        Total length         48.2953 bohr


     total cpu time spent up to now is     8722.2 secs

     total energy              =  -33082.03515178 Ry
     estimated scf accuracy    <       0.06705588 Ry

     total magnetization       =     0.34 Bohr mag/cell
     absolute magnetization    =     0.47 Bohr mag/cell

     iteration #  9     ecut=    60.00 Ry     beta= 0.70
     Davidson diagonalization with overlap

---- Real-time Memory Report at c_bands before calling an iterative solver
          1793 MiB given to the printing process from OS
          1329 MiB allocation reported by mallinfo(arena+hblkhd)
        408833 MiB available memory on the node where the printing process lives
------------------
     ethr =  7.65E-06,  avg # of iterations = 11.6

     negative rho (up, down):  9.284E-06 8.992E-06

     Adding external electric field

     Computed dipole along edir(3) : 
        Elec. dipole        -10.0571 Ry au,        -25.5627 Debye
        Ion. dipole         -10.0607 Ry au,        -25.5718 Debye
        Dipole               -3.2095 Ry au,         -8.1578 Debye
        Dipole field         -0.0036 Ry au, 

        Potential amp.        0.3468 Ry
        Total length         48.2953 bohr


     Adding external electric field

     Computed dipole along edir(3) : 
        Elec. dipole        -10.0571 Ry au,        -25.5627 Debye
        Ion. dipole         -10.0607 Ry au,        -25.5718 Debye
        Dipole               -3.2095 Ry au,         -8.1578 Debye
        Dipole field         -0.0036 Ry au, 

        Potential amp.        0.3468 Ry
        Total length         48.2953 bohr


     total cpu time spent up to now is     9923.0 secs

     total energy              =  -33082.03323681 Ry
     estimated scf accuracy    <       0.25229105 Ry

     total magnetization       =     0.30 Bohr mag/cell
     absolute magnetization    =     0.36 Bohr mag/cell

     iteration # 10     ecut=    60.00 Ry     beta= 0.70
     Davidson diagonalization with overlap

---- Real-time Memory Report at c_bands before calling an iterative solver
          1794 MiB given to the printing process from OS
          1332 MiB allocation reported by mallinfo(arena+hblkhd)
        408772 MiB available memory on the node where the printing process lives
------------------
     ethr =  7.65E-06,  avg # of iterations =  3.9

     negative rho (up, down):  2.543E-03 2.541E-03

     Adding external electric field

     Computed dipole along edir(3) : 
        Elec. dipole        -10.0573 Ry au,        -25.5631 Debye
        Ion. dipole         -10.0607 Ry au,        -25.5718 Debye
        Dipole               -3.0498 Ry au,         -7.7518 Debye
        Dipole field         -0.0034 Ry au, 

        Potential amp.        0.3295 Ry
        Total length         48.2953 bohr


     Adding external electric field

     Computed dipole along edir(3) : 
        Elec. dipole        -10.0573 Ry au,        -25.5631 Debye
        Ion. dipole         -10.0607 Ry au,        -25.5718 Debye
        Dipole               -3.0498 Ry au,         -7.7518 Debye
        Dipole field         -0.0034 Ry au, 

        Potential amp.        0.3295 Ry
        Total length         48.2953 bohr


     total cpu time spent up to now is    10992.7 secs

     total energy              =  -33082.03336072 Ry
     estimated scf accuracy    <       0.01380425 Ry

     total magnetization       =     0.27 Bohr mag/cell
     absolute magnetization    =     0.31 Bohr mag/cell

     iteration # 11     ecut=    60.00 Ry     beta= 0.70
     Davidson diagonalization with overlap

---- Real-time Memory Report at c_bands before calling an iterative solver
          1797 MiB given to the printing process from OS
          1334 MiB allocation reported by mallinfo(arena+hblkhd)
        408744 MiB available memory on the node where the printing process lives
------------------
     ethr =  2.11E-06,  avg # of iterations = 10.1

     negative rho (up, down):  1.209E-02 1.209E-02

     Adding external electric field

     Computed dipole along edir(3) : 
        Elec. dipole        -10.0577 Ry au,        -25.5641 Debye
        Ion. dipole         -10.0607 Ry au,        -25.5718 Debye
        Dipole               -2.7264 Ry au,         -6.9299 Debye
        Dipole field         -0.0030 Ry au, 

        Potential amp.        0.2946 Ry
        Total length         48.2953 bohr


     Adding external electric field

     Computed dipole along edir(3) : 
        Elec. dipole        -10.0577 Ry au,        -25.5641 Debye
        Ion. dipole         -10.0607 Ry au,        -25.5718 Debye
        Dipole               -2.7264 Ry au,         -6.9299 Debye
        Dipole field         -0.0030 Ry au, 

        Potential amp.        0.2946 Ry
        Total length         48.2953 bohr


     total cpu time spent up to now is    12195.7 secs

     total energy              =  -33082.03249045 Ry
     estimated scf accuracy    <       0.02762143 Ry

     total magnetization       =     0.22 Bohr mag/cell
     absolute magnetization    =     0.23 Bohr mag/cell

     iteration # 12     ecut=    60.00 Ry     beta= 0.70
     Davidson diagonalization with overlap

---- Real-time Memory Report at c_bands before calling an iterative solver
          1799 MiB given to the printing process from OS
          1336 MiB allocation reported by mallinfo(arena+hblkhd)
        408662 MiB available memory on the node where the printing process lives
------------------
     ethr =  2.11E-06,  avg # of iterations = 12.4

     negative rho (up, down):  1.456E-02 1.456E-02

     Adding external electric field

     Computed dipole along edir(3) : 
        Elec. dipole        -10.0578 Ry au,        -25.5645 Debye
        Ion. dipole         -10.0607 Ry au,        -25.5718 Debye
        Dipole               -2.5827 Ry au,         -6.5645 Debye
        Dipole field         -0.0029 Ry au, 

        Potential amp.        0.2791 Ry
        Total length         48.2953 bohr


     Adding external electric field

     Computed dipole along edir(3) : 
        Elec. dipole        -10.0578 Ry au,        -25.5645 Debye
        Ion. dipole         -10.0607 Ry au,        -25.5718 Debye
        Dipole               -2.5827 Ry au,         -6.5645 Debye
        Dipole field         -0.0029 Ry au, 

        Potential amp.        0.2791 Ry
        Total length         48.2953 bohr


     total cpu time spent up to now is    13481.1 secs

     total energy              =  -33082.03302682 Ry
     estimated scf accuracy    <       0.05028091 Ry

     total magnetization       =     0.13 Bohr mag/cell
     absolute magnetization    =     0.21 Bohr mag/cell

     iteration # 13     ecut=    60.00 Ry     beta= 0.70
     Davidson diagonalization with overlap

---- Real-time Memory Report at c_bands before calling an iterative solver
          1801 MiB given to the printing process from OS
          1339 MiB allocation reported by mallinfo(arena+hblkhd)
        408557 MiB available memory on the node where the printing process lives
------------------
     c_bands:  1 eigenvalues not converged
     c_bands:  1 eigenvalues not converged
     ethr =  2.11E-06,  avg # of iterations =  9.1

     negative rho (up, down):  1.396E-02 1.396E-02

     Adding external electric field

     Computed dipole along edir(3) : 
        Elec. dipole        -10.0581 Ry au,        -25.5651 Debye
        Ion. dipole         -10.0607 Ry au,        -25.5718 Debye
        Dipole               -2.3500 Ry au,         -5.9731 Debye
        Dipole field         -0.0026 Ry au, 

        Potential amp.        0.2539 Ry
        Total length         48.2953 bohr


     Adding external electric field

     Computed dipole along edir(3) : 
        Elec. dipole        -10.0581 Ry au,        -25.5651 Debye
        Ion. dipole         -10.0607 Ry au,        -25.5718 Debye
        Dipole               -2.3500 Ry au,         -5.9731 Debye
        Dipole field         -0.0026 Ry au, 

        Potential amp.        0.2539 Ry
        Total length         48.2953 bohr


     total cpu time spent up to now is    14687.2 secs

     total energy              =  -33082.03300230 Ry
     estimated scf accuracy    <       0.01192719 Ry

     total magnetization       =     0.10 Bohr mag/cell
     absolute magnetization    =     0.23 Bohr mag/cell

     iteration # 14     ecut=    60.00 Ry     beta= 0.70
     Davidson diagonalization with overlap

---- Real-time Memory Report at c_bands before calling an iterative solver
          1805 MiB given to the printing process from OS
          1341 MiB allocation reported by mallinfo(arena+hblkhd)
        408552 MiB available memory on the node where the printing process lives
------------------
     ethr =  1.82E-06,  avg # of iterations = 11.2

     negative rho (up, down):  1.096E-02 1.096E-02

     Adding external electric field

     Computed dipole along edir(3) : 
        Elec. dipole        -10.0582 Ry au,        -25.5654 Debye
        Ion. dipole         -10.0607 Ry au,        -25.5718 Debye
        Dipole               -2.2414 Ry au,         -5.6970 Debye
        Dipole field         -0.0025 Ry au, 

        Potential amp.        0.2422 Ry
        Total length         48.2953 bohr


     Adding external electric field

     Computed dipole along edir(3) : 
        Elec. dipole        -10.0582 Ry au,        -25.5654 Debye
        Ion. dipole         -10.0607 Ry au,        -25.5718 Debye
        Dipole               -2.2414 Ry au,         -5.6970 Debye
        Dipole field         -0.0025 Ry au, 

        Potential amp.        0.2422 Ry
        Total length         48.2953 bohr


     total cpu time spent up to now is    15947.0 secs

     total energy              =  -33082.03296035 Ry
     estimated scf accuracy    <       0.04105076 Ry

     total magnetization       =     0.05 Bohr mag/cell
     absolute magnetization    =     0.22 Bohr mag/cell

     iteration # 15     ecut=    60.00 Ry     beta= 0.70
     Davidson diagonalization with overlap

---- Real-time Memory Report at c_bands before calling an iterative solver
          1805 MiB given to the printing process from OS
          1341 MiB allocation reported by mallinfo(arena+hblkhd)
        408572 MiB available memory on the node where the printing process lives
------------------
     c_bands:  1 eigenvalues not converged
     c_bands:  1 eigenvalues not converged
     c_bands:  1 eigenvalues not converged
     c_bands:  1 eigenvalues not converged
     c_bands:  1 eigenvalues not converged
     c_bands:  1 eigenvalues not converged
     ethr =  1.82E-06,  avg # of iterations =  9.0

     negative rho (up, down):  7.653E-03 7.653E-03

     Adding external electric field

     Computed dipole along edir(3) : 
        Elec. dipole        -10.0583 Ry au,        -25.5656 Debye
        Ion. dipole         -10.0607 Ry au,        -25.5718 Debye
        Dipole               -2.1929 Ry au,         -5.5737 Debye
        Dipole field         -0.0025 Ry au, 

        Potential amp.        0.2369 Ry
        Total length         48.2953 bohr


     Adding external electric field

     Computed dipole along edir(3) : 
        Elec. dipole        -10.0583 Ry au,        -25.5656 Debye
        Ion. dipole         -10.0607 Ry au,        -25.5718 Debye
        Dipole               -2.1929 Ry au,         -5.5737 Debye
        Dipole field         -0.0025 Ry au, 

        Potential amp.        0.2369 Ry
        Total length         48.2953 bohr


     total cpu time spent up to now is    17138.6 secs

     total energy              =  -33082.03259608 Ry
     estimated scf accuracy    <       0.04699982 Ry

     total magnetization       =     0.03 Bohr mag/cell
     absolute magnetization    =     0.18 Bohr mag/cell

     iteration # 16     ecut=    60.00 Ry     beta= 0.70
     Davidson diagonalization with overlap

---- Real-time Memory Report at c_bands before calling an iterative solver
          1805 MiB given to the printing process from OS
          1341 MiB allocation reported by mallinfo(arena+hblkhd)
        408574 MiB available memory on the node where the printing process lives
------------------
     ethr =  1.82E-06,  avg # of iterations =  6.5

     negative rho (up, down):  4.343E-03 4.343E-03

     Adding external electric field

     Computed dipole along edir(3) : 
        Elec. dipole        -10.0584 Ry au,        -25.5658 Debye
        Ion. dipole         -10.0607 Ry au,        -25.5718 Debye
        Dipole               -2.1170 Ry au,         -5.3809 Debye
        Dipole field         -0.0024 Ry au, 

        Potential amp.        0.2287 Ry
        Total length         48.2953 bohr


     Adding external electric field

     Computed dipole along edir(3) : 
        Elec. dipole        -10.0584 Ry au,        -25.5658 Debye
        Ion. dipole         -10.0607 Ry au,        -25.5718 Debye
        Dipole               -2.1170 Ry au,         -5.3809 Debye
        Dipole field         -0.0024 Ry au, 

        Potential amp.        0.2287 Ry
        Total length         48.2953 bohr


     total cpu time spent up to now is    18300.0 secs

     total energy              =  -33082.03243661 Ry
     estimated scf accuracy    <       0.01756216 Ry

     total magnetization       =     0.02 Bohr mag/cell
     absolute magnetization    =     0.13 Bohr mag/cell

     iteration # 17     ecut=    60.00 Ry     beta= 0.70
     Davidson diagonalization with overlap

---- Real-time Memory Report at c_bands before calling an iterative solver
          1805 MiB given to the printing process from OS
          1341 MiB allocation reported by mallinfo(arena+hblkhd)
        408543 MiB available memory on the node where the printing process lives
------------------
     c_bands:  1 eigenvalues not converged
     c_bands:  1 eigenvalues not converged
     ethr =  1.82E-06,  avg # of iterations =  8.6

     negative rho (up, down):  2.929E-03 2.929E-03

     Adding external electric field

     Computed dipole along edir(3) : 
        Elec. dipole        -10.0584 Ry au,        -25.5658 Debye
        Ion. dipole         -10.0607 Ry au,        -25.5718 Debye
        Dipole               -2.0972 Ry au,         -5.3304 Debye
        Dipole field         -0.0023 Ry au, 

        Potential amp.        0.2266 Ry
        Total length         48.2953 bohr


     Adding external electric field

     Computed dipole along edir(3) : 
        Elec. dipole        -10.0584 Ry au,        -25.5658 Debye
        Ion. dipole         -10.0607 Ry au,        -25.5718 Debye
        Dipole               -2.0972 Ry au,         -5.3304 Debye
        Dipole field         -0.0023 Ry au, 

        Potential amp.        0.2266 Ry
        Total length         48.2953 bohr


     total cpu time spent up to now is    19504.5 secs

     total energy              =  -33082.03240271 Ry
     estimated scf accuracy    <       0.00682576 Ry

     total magnetization       =     0.01 Bohr mag/cell
     absolute magnetization    =     0.06 Bohr mag/cell

     iteration # 18     ecut=    60.00 Ry     beta= 0.70
     Davidson diagonalization with overlap

---- Real-time Memory Report at c_bands before calling an iterative solver
          1805 MiB given to the printing process from OS
          1341 MiB allocation reported by mallinfo(arena+hblkhd)
        408555 MiB available memory on the node where the printing process lives
------------------
     ethr =  1.04E-06,  avg # of iterations =  3.1

     negative rho (up, down):  1.334E-03 1.334E-03

     Adding external electric field

     Computed dipole along edir(3) : 
        Elec. dipole        -10.0584 Ry au,        -25.5659 Debye
        Ion. dipole         -10.0607 Ry au,        -25.5718 Debye
        Dipole               -2.0906 Ry au,         -5.3138 Debye
        Dipole field         -0.0023 Ry au, 

        Potential amp.        0.2259 Ry
        Total length         48.2953 bohr


     Adding external electric field

     Computed dipole along edir(3) : 
        Elec. dipole        -10.0584 Ry au,        -25.5659 Debye
        Ion. dipole         -10.0607 Ry au,        -25.5718 Debye
        Dipole               -2.0906 Ry au,         -5.3138 Debye
        Dipole field         -0.0023 Ry au, 

        Potential amp.        0.2259 Ry
        Total length         48.2953 bohr


     total cpu time spent up to now is    20592.3 secs

     total energy              =  -33082.03237077 Ry
     estimated scf accuracy    <       0.00272987 Ry

     total magnetization       =     0.01 Bohr mag/cell
     absolute magnetization    =     0.03 Bohr mag/cell

     iteration # 19     ecut=    60.00 Ry     beta= 0.70
     Davidson diagonalization with overlap

---- Real-time Memory Report at c_bands before calling an iterative solver
          1805 MiB given to the printing process from OS
          1341 MiB allocation reported by mallinfo(arena+hblkhd)
        408580 MiB available memory on the node where the printing process lives
------------------
     c_bands:  1 eigenvalues not converged
     c_bands:  1 eigenvalues not converged
     c_bands:  1 eigenvalues not converged
     c_bands:  1 eigenvalues not converged
     c_bands:  1 eigenvalues not converged
     c_bands:  1 eigenvalues not converged
     c_bands:  1 eigenvalues not converged
     c_bands:  1 eigenvalues not converged
     ethr =  4.17E-07,  avg # of iterations =  9.7

     negative rho (up, down):  9.209E-04 9.208E-04

     Adding external electric field

     Computed dipole along edir(3) : 
        Elec. dipole        -10.0584 Ry au,        -25.5659 Debye
        Ion. dipole         -10.0607 Ry au,        -25.5718 Debye
        Dipole               -2.0893 Ry au,         -5.3104 Debye
        Dipole field         -0.0023 Ry au, 

        Potential amp.        0.2257 Ry
        Total length         48.2953 bohr


     Adding external electric field

     Computed dipole along edir(3) : 
        Elec. dipole        -10.0584 Ry au,        -25.5659 Debye
        Ion. dipole         -10.0607 Ry au,        -25.5718 Debye
        Dipole               -2.0893 Ry au,         -5.3104 Debye
        Dipole field         -0.0023 Ry au, 

        Potential amp.        0.2257 Ry
        Total length         48.2953 bohr


     total cpu time spent up to now is    21792.2 secs

     total energy              =  -33082.03237251 Ry
     estimated scf accuracy    <       0.00061288 Ry

     total magnetization       =     0.01 Bohr mag/cell
     absolute magnetization    =     0.02 Bohr mag/cell

     iteration # 20     ecut=    60.00 Ry     beta= 0.70
     Davidson diagonalization with overlap

---- Real-time Memory Report at c_bands before calling an iterative solver
          1805 MiB given to the printing process from OS
          1341 MiB allocation reported by mallinfo(arena+hblkhd)
        408603 MiB available memory on the node where the printing process lives
------------------
     ethr =  9.37E-08,  avg # of iterations =  1.9

     negative rho (up, down):  7.948E-04 7.947E-04

     Adding external electric field

     Computed dipole along edir(3) : 
        Elec. dipole        -10.0584 Ry au,        -25.5659 Debye
        Ion. dipole         -10.0607 Ry au,        -25.5718 Debye
        Dipole               -2.0894 Ry au,         -5.3107 Debye
        Dipole field         -0.0023 Ry au, 

        Potential amp.        0.2258 Ry
        Total length         48.2953 bohr


     Adding external electric field

     Computed dipole along edir(3) : 
        Elec. dipole        -10.0584 Ry au,        -25.5659 Debye
        Ion. dipole         -10.0607 Ry au,        -25.5718 Debye
        Dipole               -2.0894 Ry au,         -5.3107 Debye
        Dipole field         -0.0023 Ry au, 

        Potential amp.        0.2258 Ry
        Total length         48.2953 bohr


     total cpu time spent up to now is    22899.6 secs

     total energy              =  -33082.03237714 Ry
     estimated scf accuracy    <       0.00001970 Ry

     total magnetization       =     0.01 Bohr mag/cell
     absolute magnetization    =     0.01 Bohr mag/cell

     iteration # 21     ecut=    60.00 Ry     beta= 0.70
     Davidson diagonalization with overlap

---- Real-time Memory Report at c_bands before calling an iterative solver
          1805 MiB given to the printing process from OS
          1341 MiB allocation reported by mallinfo(arena+hblkhd)
        408609 MiB available memory on the node where the printing process lives
------------------
     ethr =  3.01E-09,  avg # of iterations =  1.1

     negative rho (up, down):  7.490E-04 7.490E-04

     Adding external electric field

     Computed dipole along edir(3) : 
        Elec. dipole        -10.0584 Ry au,        -25.5659 Debye
        Ion. dipole         -10.0607 Ry au,        -25.5718 Debye
        Dipole               -2.0891 Ry au,         -5.3101 Debye
        Dipole field         -0.0023 Ry au, 

        Potential amp.        0.2257 Ry
        Total length         48.2953 bohr


     Adding external electric field

     Computed dipole along edir(3) : 
        Elec. dipole        -10.0584 Ry au,        -25.5659 Debye
        Ion. dipole         -10.0607 Ry au,        -25.5718 Debye
        Dipole               -2.0891 Ry au,         -5.3101 Debye
        Dipole field         -0.0023 Ry au, 

        Potential amp.        0.2257 Ry
        Total length         48.2953 bohr


     total cpu time spent up to now is    23849.1 secs

     total energy              =  -33082.03237785 Ry
     estimated scf accuracy    <       0.00000143 Ry

     total magnetization       =     0.01 Bohr mag/cell
     absolute magnetization    =     0.01 Bohr mag/cell

     iteration # 22     ecut=    60.00 Ry     beta= 0.70
     Davidson diagonalization with overlap

---- Real-time Memory Report at c_bands before calling an iterative solver
          1805 MiB given to the printing process from OS
          1341 MiB allocation reported by mallinfo(arena+hblkhd)
        408613 MiB available memory on the node where the printing process lives
------------------
     ethr =  2.19E-10,  avg # of iterations =  1.6

     negative rho (up, down):  7.061E-04 7.061E-04

     Adding external electric field

     Computed dipole along edir(3) : 
        Elec. dipole        -10.0584 Ry au,        -25.5659 Debye
        Ion. dipole         -10.0607 Ry au,        -25.5718 Debye
        Dipole               -2.0939 Ry au,         -5.3221 Debye
        Dipole field         -0.0023 Ry au, 

        Potential amp.        0.2262 Ry
        Total length         48.2953 bohr


     Adding external electric field

     Computed dipole along edir(3) : 
        Elec. dipole        -10.0584 Ry au,        -25.5659 Debye
        Ion. dipole         -10.0607 Ry au,        -25.5718 Debye
        Dipole               -2.0939 Ry au,         -5.3221 Debye
        Dipole field         -0.0023 Ry au, 

        Potential amp.        0.2262 Ry
        Total length         48.2953 bohr


     Magnetic moment per site  (integrated on atomic sphere of radius R)
     atom   1 (R=0.114)  charge= 14.4599  magn=  0.0001
     atom   2 (R=0.114)  charge= 14.4598  magn=  0.0001
     atom   3 (R=0.114)  charge= 14.4585  magn=  0.0001
     atom   4 (R=0.114)  charge= 14.4596  magn=  0.0001
     atom   5 (R=0.114)  charge= 14.4584  magn=  0.0001
     atom   6 (R=0.114)  charge= 14.4586  magn=  0.0001
     atom   7 (R=0.114)  charge= 14.4596  magn=  0.0001
     atom   8 (R=0.114)  charge= 14.4598  magn=  0.0001
     atom   9 (R=0.114)  charge= 14.4595  magn=  0.0001
     atom  10 (R=0.114)  charge= 14.4650  magn=  0.0001
     atom  11 (R=0.114)  charge= 14.4624  magn=  0.0003
     atom  12 (R=0.114)  charge= 14.4626  magn=  0.0002
     atom  13 (R=0.114)  charge= 14.4623  magn=  0.0002
     atom  14 (R=0.114)  charge= 14.4626  magn=  0.0002
     atom  15 (R=0.114)  charge= 14.4624  magn=  0.0002
     atom  16 (R=0.114)  charge= 14.4651  magn=  0.0001
     atom  17 (R=0.114)  charge= 14.4650  magn=  0.0001
     atom  18 (R=0.114)  charge= 14.4623  magn=  0.0002
     atom  19 (R=0.114)  charge= 14.4594  magn=  0.0002
     atom  20 (R=0.114)  charge= 14.4594  magn=  0.0002
     atom  21 (R=0.114)  charge= 14.4637  magn=  0.0004
     atom  22 (R=0.114)  charge= 14.4669  magn=  0.0001
     atom  23 (R=0.114)  charge= 14.4596  magn=  0.0002
     atom  24 (R=0.114)  charge= 14.4596  magn=  0.0002
     atom  25 (R=0.114)  charge= 14.4596  magn=  0.0002
     atom  26 (R=0.114)  charge= 14.4622  magn=  0.0002
     atom  27 (R=0.114)  charge= 14.4595  magn=  0.0002
     atom  28 (R=0.114)  charge= 14.4633  magn=  0.0002
     atom  29 (R=0.114)  charge= 14.4633  magn=  0.0002
     atom  30 (R=0.114)  charge= 14.4224  magn=  0.0006
     atom  31 (R=0.114)  charge= 14.4577  magn=  0.0003
     atom  32 (R=0.114)  charge= 14.4225  magn=  0.0006
     atom  33 (R=0.114)  charge= 14.4224  magn=  0.0006
     atom  34 (R=0.114)  charge= 14.4577  magn=  0.0003
     atom  35 (R=0.114)  charge= 14.4633  magn=  0.0002
     atom  36 (R=0.114)  charge= 14.4576  magn=  0.0003
     atom  37 (R=0.114)  charge=  5.7364  magn=  0.0017

     total cpu time spent up to now is    24862.4 secs

     End of self-consistent calculation

 ------ SPIN UP ------------


          k = 0.0000 0.0000 0.0000 ( 88097 PWs)   bands (ev):

   -95.4154 -95.4070 -95.4064 -95.4028 -95.3878 -95.3831 -95.3828 -95.3818
   -95.3816 -95.3815 -95.3749 -95.3747 -95.3740 -95.3735 -95.3697 -95.3696
   -95.3691 -95.2191 -95.1926 -95.1896 -95.1888 -95.0152 -95.0091 -95.0083
   -94.9543 -94.9445 -94.9443 -94.9415 -94.9370 -94.9369 -94.9352 -94.9313
   -94.9301 -94.9300 -94.9239 -94.9223 -49.6789 -49.6638 -49.6579 -49.6531
   -49.6519 -49.6510 -49.6497 -49.6447 -49.6443 -49.6416 -49.6377 -49.6372
   -49.6334 -49.6305 -49.6298 -49.6287 -49.6039 -49.6037 -49.6030 -49.5688
   -49.5683 -49.5640 -49.5636 -49.5590 -49.5398 -49.5390 -49.5321 -49.5275
   -49.5115 -49.5106 -49.4921 -49.4917 -49.4913 -49.4834 -49.4721 -49.4713
   -49.4685 -49.4664 -49.4635 -49.4632 -49.4628 -49.4545 -49.4497 -49.4494
   -49.4473 -49.4468 -49.4258 -49.4239 -49.4230 -49.4194 -49.4064 -49.4051
   -49.3872 -49.3862 -49.3586 -49.3581 -49.3530 -49.3336 -49.3329 -49.3072
   -49.2966 -49.2746 -49.2745 -49.2612 -49.2604 -49.2587 -49.2575 -49.2570
   -49.2570 -49.2544 -49.2542 -49.2520 -49.2476 -49.2447 -49.2379 -49.2378
   -49.2009 -49.1336 -49.1332 -49.1273 -49.1114 -49.1036 -49.1031 -49.0982
   -49.0960 -49.0958 -49.0930 -49.0929 -49.0914 -49.0707 -49.0706 -49.0392
   -49.0389 -48.9236 -48.9137 -48.9126 -48.8869 -48.8696 -48.8693 -48.8677
   -48.8625 -48.8625 -48.8611 -48.8571 -48.8527 -48.8524 -48.8447 -48.8431
   -14.2041  -6.0757  -4.7799  -3.7035  -3.6307  -3.6061  -3.6049  -3.5992
    -3.5814  -3.5813  -3.5396  -3.0538  -3.0523  -3.0303  -2.9992  -2.9988
    -2.9623  -2.5657  -2.5653  -2.5501  -2.5420  -2.5413  -2.5217  -2.3115
    -2.3111  -2.3096  -2.2858  -2.2803  -2.2799  -2.1057  -2.1006  -2.0998
    -2.0901  -2.0892  -2.0764  -2.0247  -2.0227  -2.0221  -1.9687  -1.9617
    -1.9599  -1.4352  -1.4276  -1.4232  -1.4231  -1.3860  -1.3766  -1.3761
    -1.3093  -1.3089  -1.2997  -1.1844  -1.1842  -1.1019  -1.1017  -0.7352
    -0.6352  -0.6341  -0.5934  -0.5928  -0.5683  -0.5059  -0.5040  -0.5038
    -0.4323  -0.4294  -0.3811  -0.3803  -0.3780  -0.3622  -0.3620  -0.3537
    -0.3331  -0.3327  -0.3324  -0.3247  -0.3230  -0.2550  -0.2354  -0.2343
    -0.1502  -0.1500  -0.1249  -0.0889  -0.0874  -0.0728   0.0712   0.0726
     0.0868   0.1247   0.1254   0.1273   0.1676   0.1690   0.2227   0.2232
     0.2460   0.2741   0.2819   0.2863   0.2874   0.3241   0.3241   0.3708
     0.4552   0.4576   0.4596   0.5018   0.6586   0.6620   0.6883   0.9625
     0.9630   1.0275   1.0367   1.0371   1.0373   1.0440   1.0449   1.0593
     1.1527   1.1658   1.1660   1.1879   1.1893   1.2213   1.2216   1.2537
     1.3479   1.3484   1.5345   1.5434   1.5459   1.5498   1.6005   1.6055
     1.7936   1.8194   1.8195   1.8200   1.8426   1.8430   1.8929   1.8932
     2.0333   2.0346   2.0365   2.0371   2.0643   2.0652   2.1011   2.2480
     2.2488   2.2590   2.2642   2.2673   2.2674   2.2709   2.2760   2.2765
     2.3286   2.3296   2.3345   2.4016   2.4018   2.4248   2.4259   2.4454
     2.5020   2.5023   2.5027   2.5389   2.5393   2.5728   2.5730   2.5963
     2.6611   2.6614   2.6619   2.6968   2.7096   2.7102   2.7217   2.7520
     2.7524   2.7849   2.7924   2.8014   2.8019   2.9009   2.9014   3.0321
     3.0362   3.0933   3.1306   3.1313   3.1502   3.1685   3.1693   3.3443
     3.8804   3.9513   3.9621   3.9631   4.1478   4.1489   4.8457   6.2799
     6.2822   6.2971   6.4174   6.4191   6.6042   7.7712   7.7716   7.7958
     7.8267   7.8277   7.8749   8.5622   8.5622   8.9949   9.1362   9.1395
     9.1465   9.2609   9.2637   9.3835   9.6074   9.7230   9.7234   9.8173
     9.8968  10.2837  10.4633  10.4642  10.7488  11.0399  11.0423  11.0561
    11.0866  11.0890  11.3882  11.4552  11.5478  11.5511  11.6343  11.8578

     occupation numbers 
     1.0000   1.0000   1.0000   1.0000   1.0000   1.0000   1.0000   1.0000
     1.0000   1.0000   1.0000   1.0000   1.0000   1.0000   1.0000   1.0000
     1.0000   1.0000   1.0000   1.0000   1.0000   1.0000   1.0000   1.0000
     1.0000   1.0000   1.0000   1.0000   1.0000   1.0000   1.0000   1.0000
     1.0000   1.0000   1.0000   1.0000   1.0000   1.0000   1.0000   1.0000
     1.0000   1.0000   1.0000   1.0000   1.0000   1.0000   1.0000   1.0000
     1.0000   1.0000   1.0000   1.0000   1.0000   1.0000   1.0000   1.0000
     1.0000   1.0000   1.0000   1.0000   1.0000   1.0000   1.0000   1.0000
     1.0000   1.0000   1.0000   1.0000   1.0000   1.0000   1.0000   1.0000
     1.0000   1.0000   1.0000   1.0000   1.0000   1.0000   1.0000   1.0000
     1.0000   1.0000   1.0000   1.0000   1.0000   1.0000   1.0000   1.0000
     1.0000   1.0000   1.0000   1.0000   1.0000   1.0000   1.0000   1.0000
     1.0000   1.0000   1.0000   1.0000   1.0000   1.0000   1.0000   1.0000
     1.0000   1.0000   1.0000   1.0000   1.0000   1.0000   1.0000   1.0000
     1.0000   1.0000   1.0000   1.0000   1.0000   1.0000   1.0000   1.0000
     1.0000   1.0000   1.0000   1.0000   1.0000   1.0000   1.0000   1.0000
     1.0000   1.0000   1.0000   1.0000   1.0000   1.0000   1.0000   1.0000
     1.0000   1.0000   1.0000   1.0000   1.0000   1.0000   1.0000   1.0000
     1.0000   1.0000   1.0000   1.0000   1.0000   1.0000   1.0000   1.0000
     1.0000   1.0000   1.0000   1.0000   1.0000   1.0000   1.0000   1.0000
     1.0000   1.0000   1.0000   1.0000   1.0000   1.0000   1.0000   1.0000
     1.0000   1.0000   1.0000   1.0000   1.0000   1.0000   1.0000   1.0000
     1.0000   1.0000   1.0000   1.0000   1.0000   1.0000   1.0000   1.0000
     1.0000   1.0000   1.0000   1.0000   1.0000   1.0000   1.0000   1.0000
     1.0000   1.0000   1.0000   1.0000   1.0000   1.0000   1.0000   1.0000
     1.0000   1.0000   1.0000   1.0000   1.0000   1.0000   1.0000   1.0000
     1.0000   1.0000   1.0000   1.0000   1.0000   1.0000   1.0000   1.0000
     1.0000   1.0000   1.0000   1.0000   1.0000   1.0000   1.0000   1.0000
     1.0000   1.0000   1.0000   1.0000   1.0000   1.0000   1.0000   1.0000
     1.0000   1.0000   1.0000   1.0000   1.0000   1.0000   1.0000   1.0000
     1.0000   1.0000   1.0000   1.0000   1.0000   1.0000   1.0000   1.0000
     1.0000   1.0000   1.0000   1.0000   1.0000   1.0000   1.0000   1.0000
     1.0000   1.0000   1.0000   1.0000   1.0000   1.0000   1.0000   1.0000
     1.0000   1.0000   1.0000   1.0000   1.0000   1.0000   1.0000   1.0000
     1.0000   1.0000   1.0000   1.0000   1.0000   1.0000   1.0000   1.0000
     1.0000   1.0000   1.0000   1.0000   1.0000   1.0000   1.0000   1.0000
     1.0000   1.0000   1.0000   1.0000   1.0000   1.0000   1.0000   1.0000
     1.0000   1.0000   1.0000   1.0000   1.0000   1.0000   1.0000   1.0000
     1.0000   1.0000   1.0000   1.0000   1.0000   1.0000   1.0000   1.0000
     1.0000   1.0000   1.0000   1.0000   1.0000   0.9999   0.9999   0.9999
     0.9996   0.9996   0.9996   0.9992   0.9990   0.9990   0.9987   0.9977
     0.9976   0.9955   0.9948   0.9937   0.9937   0.9559   0.9555   0.6109
     0.5912   0.3160   0.1796   0.1777   0.1290   0.0931   0.0918   0.0030
     0.0000   0.0000   0.0000   0.0000   0.0000   0.0000   0.0000   0.0000
     0.0000   0.0000   0.0000   0.0000   0.0000   0.0000   0.0000   0.0000
     0.0000   0.0000   0.0000   0.0000   0.0000   0.0000   0.0000   0.0000
     0.0000   0.0000   0.0000   0.0000   0.0000   0.0000   0.0000   0.0000
     0.0000   0.0000   0.0000   0.0000   0.0000   0.0000   0.0000   0.0000
     0.0000   0.0000   0.0000   0.0000   0.0000   0.0000   0.0000   0.0000

          k = 0.0000 0.1925 0.0000 ( 88230 PWs)   bands (ev):

   -95.4151 -95.4071 -95.4067 -95.4027 -95.3878 -95.3839 -95.3834 -95.3817
   -95.3807 -95.3807 -95.3755 -95.3751 -95.3738 -95.3735 -95.3699 -95.3693
   -95.3691 -95.2191 -95.1926 -95.1897 -95.1888 -95.0152 -95.0092 -95.0083
   -94.9539 -94.9455 -94.9445 -94.9409 -94.9380 -94.9367 -94.9343 -94.9313
   -94.9303 -94.9301 -94.9239 -94.9223 -49.6907 -49.6802 -49.6729 -49.6685
   -49.6628 -49.6572 -49.6560 -49.6494 -49.6481 -49.6392 -49.6387 -49.6349
   -49.6309 -49.6208 -49.6147 -49.6146 -49.6030 -49.5921 -49.5818 -49.5615
   -49.5614 -49.5559 -49.5556 -49.5488 -49.5417 -49.5371 -49.5296 -49.5241
   -49.5126 -49.5046 -49.4983 -49.4954 -49.4847 -49.4819 -49.4776 -49.4768
   -49.4725 -49.4669 -49.4663 -49.4626 -49.4566 -49.4561 -49.4517 -49.4496
   -49.4447 -49.4437 -49.4313 -49.4291 -49.4267 -49.4178 -49.4117 -49.4045
   -49.3942 -49.3879 -49.3652 -49.3616 -49.3469 -49.3385 -49.3339 -49.3189
   -49.2978 -49.2904 -49.2746 -49.2736 -49.2727 -49.2712 -49.2669 -49.2662
   -49.2568 -49.2495 -49.2441 -49.2338 -49.2333 -49.2135 -49.2130 -49.2088
   -49.2032 -49.1385 -49.1333 -49.1256 -49.1142 -49.1064 -49.1053 -49.1047
   -49.1032 -49.1016 -49.0928 -49.0927 -49.0822 -49.0764 -49.0719 -49.0481
   -49.0411 -48.9235 -48.9137 -48.9127 -48.8861 -48.8719 -48.8696 -48.8665
   -48.8638 -48.8619 -48.8591 -48.8571 -48.8529 -48.8527 -48.8447 -48.8431
   -14.2040  -5.9717  -4.6783  -4.0231  -3.7091  -3.7043  -3.5989  -3.5012
    -3.4040  -3.3934  -3.3777  -3.1377  -3.0654  -3.0069  -2.9740  -2.9459
    -2.9268  -2.5883  -2.5232  -2.5149  -2.5040  -2.4858  -2.4599  -2.4473
    -2.3655  -2.3606  -2.2677  -2.2305  -2.2280  -2.1522  -2.1466  -2.1336
    -2.1211  -2.1207  -2.1013  -2.0845  -1.9290  -1.9184  -1.8618  -1.8312
    -1.8053  -1.5205  -1.5142  -1.5064  -1.4693  -1.4686  -1.4281  -1.4121
    -1.2655  -1.2649  -1.1839  -1.1714  -1.1628  -1.0937  -1.0886  -0.8158
    -0.7670  -0.7366  -0.7040  -0.6806  -0.6796  -0.6237  -0.6225  -0.5988
    -0.5686  -0.5525  -0.4999  -0.4771  -0.4608  -0.4323  -0.3999  -0.3868
    -0.3606  -0.3404  -0.2676  -0.2589  -0.2317  -0.1943  -0.1840  -0.1684
    -0.1591  -0.1346  -0.0704  -0.0661  -0.0579  -0.0009   0.0538   0.0560
     0.0760   0.0857   0.1113   0.1162   0.1315   0.1603   0.1989   0.2166
     0.2336   0.2426   0.2472   0.3015   0.3116   0.3605   0.3710   0.3930
     0.4117   0.4246   0.4941   0.5182   0.5208   0.5231   0.5314   0.6113
     0.6187   0.6664   0.7967   0.9044   0.9977   1.0267   1.0290   1.0616
     1.0822   1.0938   1.0946   1.1341   1.2156   1.2773   1.3846   1.4049
     1.4206   1.4560   1.4772   1.4908   1.5095   1.5196   1.5788   1.5889
     1.6598   1.6650   1.7055   1.7163   1.7645   1.7677   1.9092   1.9227
     1.9268   1.9316   1.9887   2.0033   2.0417   2.0557   2.0844   2.1250
     2.1381   2.1737   2.1804   2.1932   2.2194   2.2428   2.3109   2.3241
     2.3526   2.3909   2.4296   2.4453   2.4713   2.5198   2.5314   2.5587
     2.5886   2.6253   2.6328   2.6615   2.6618   2.6849   2.6961   2.7212
     2.7282   2.7376   2.8019   2.8039   2.8179   2.8651   2.9681   2.9887
     2.9958   3.0194   3.0210   3.0326   3.0609   3.0711   3.0841   3.0863
     3.1145   3.1377   3.1531   3.2107   3.2234   3.2752   3.2881   3.5438
     3.6838   3.9384   4.0787   4.4100   4.4544   4.5038   5.0730   5.7936
     6.1304   6.1989   6.7584   6.8037   6.8854   6.9131   7.0900   7.8674
     7.9466   7.9697   7.9727   8.3923   8.6562   8.6783   8.9111   8.9471
     9.0622   9.0785   9.2228   9.3916   9.5434   9.6287   9.8161   9.8294
     9.9347  10.3090  10.3555  10.4585  10.6488  10.7248  10.7688  10.8072
    10.8909  10.9891  10.9901  11.0705  11.1107  11.2699  11.4731  11.4987

     occupation numbers 
     1.0000   1.0000   1.0000   1.0000   1.0000   1.0000   1.0000   1.0000
     1.0000   1.0000   1.0000   1.0000   1.0000   1.0000   1.0000   1.0000
     1.0000   1.0000   1.0000   1.0000   1.0000   1.0000   1.0000   1.0000
     1.0000   1.0000   1.0000   1.0000   1.0000   1.0000   1.0000   1.0000
     1.0000   1.0000   1.0000   1.0000   1.0000   1.0000   1.0000   1.0000
     1.0000   1.0000   1.0000   1.0000   1.0000   1.0000   1.0000   1.0000
     1.0000   1.0000   1.0000   1.0000   1.0000   1.0000   1.0000   1.0000
     1.0000   1.0000   1.0000   1.0000   1.0000   1.0000   1.0000   1.0000
     1.0000   1.0000   1.0000   1.0000   1.0000   1.0000   1.0000   1.0000
     1.0000   1.0000   1.0000   1.0000   1.0000   1.0000   1.0000   1.0000
     1.0000   1.0000   1.0000   1.0000   1.0000   1.0000   1.0000   1.0000
     1.0000   1.0000   1.0000   1.0000   1.0000   1.0000   1.0000   1.0000
     1.0000   1.0000   1.0000   1.0000   1.0000   1.0000   1.0000   1.0000
     1.0000   1.0000   1.0000   1.0000   1.0000   1.0000   1.0000   1.0000
     1.0000   1.0000   1.0000   1.0000   1.0000   1.0000   1.0000   1.0000
     1.0000   1.0000   1.0000   1.0000   1.0000   1.0000   1.0000   1.0000
     1.0000   1.0000   1.0000   1.0000   1.0000   1.0000   1.0000   1.0000
     1.0000   1.0000   1.0000   1.0000   1.0000   1.0000   1.0000   1.0000
     1.0000   1.0000   1.0000   1.0000   1.0000   1.0000   1.0000   1.0000
     1.0000   1.0000   1.0000   1.0000   1.0000   1.0000   1.0000   1.0000
     1.0000   1.0000   1.0000   1.0000   1.0000   1.0000   1.0000   1.0000
     1.0000   1.0000   1.0000   1.0000   1.0000   1.0000   1.0000   1.0000
     1.0000   1.0000   1.0000   1.0000   1.0000   1.0000   1.0000   1.0000
     1.0000   1.0000   1.0000   1.0000   1.0000   1.0000   1.0000   1.0000
     1.0000   1.0000   1.0000   1.0000   1.0000   1.0000   1.0000   1.0000
     1.0000   1.0000   1.0000   1.0000   1.0000   1.0000   1.0000   1.0000
     1.0000   1.0000   1.0000   1.0000   1.0000   1.0000   1.0000   1.0000
     1.0000   1.0000   1.0000   1.0000   1.0000   1.0000   1.0000   1.0000
     1.0000   1.0000   1.0000   1.0000   1.0000   1.0000   1.0000   1.0000
     1.0000   1.0000   1.0000   1.0000   1.0000   1.0000   1.0000   1.0000
     1.0000   1.0000   1.0000   1.0000   1.0000   1.0000   1.0000   1.0000
     1.0000   1.0000   1.0000   1.0000   1.0000   1.0000   1.0000   1.0000
     1.0000   1.0000   1.0000   1.0000   1.0000   1.0000   1.0000   1.0000
     1.0000   1.0000   1.0000   1.0000   1.0000   1.0000   1.0000   1.0000
     1.0000   1.0000   1.0000   1.0000   1.0000   1.0000   1.0000   1.0000
     1.0000   1.0000   1.0000   1.0000   1.0000   1.0000   1.0000   1.0000
     1.0000   1.0000   1.0000   1.0000   1.0000   1.0000   1.0000   1.0000
     1.0000   1.0000   1.0000   1.0000   1.0000   1.0000   1.0000   1.0000
     1.0000   1.0000   1.0000   1.0000   1.0000   1.0000   1.0000   1.0000
     0.9999   0.9998   0.9998   0.9996   0.9996   0.9994   0.9992   0.9987
     0.9985   0.9982   0.9937   0.9934   0.9913   0.9779   0.8496   0.7891
     0.7646   0.6694   0.6624   0.6087   0.4688   0.4187   0.3569   0.3468
     0.2321   0.1596   0.1226   0.0423   0.0331   0.0120   0.0093   0.0001
     0.0000   0.0000   0.0000   0.0000   0.0000   0.0000   0.0000   0.0000
     0.0000   0.0000   0.0000   0.0000   0.0000   0.0000   0.0000   0.0000
     0.0000   0.0000   0.0000   0.0000   0.0000   0.0000   0.0000   0.0000
     0.0000   0.0000   0.0000   0.0000   0.0000   0.0000   0.0000   0.0000
     0.0000   0.0000   0.0000   0.0000   0.0000   0.0000   0.0000   0.0000
     0.0000   0.0000   0.0000   0.0000   0.0000   0.0000   0.0000   0.0000

          k = 0.0000 0.3849 0.0000 ( 88170 PWs)   bands (ev):

   -95.4147 -95.4072 -95.4071 -95.4026 -95.3876 -95.3850 -95.3840 -95.3817
   -95.3795 -95.3792 -95.3763 -95.3761 -95.3737 -95.3734 -95.3697 -95.3691
   -95.3690 -95.2191 -95.1925 -95.1897 -95.1888 -95.0151 -95.0092 -95.0084
   -94.9528 -94.9473 -94.9446 -94.9402 -94.9389 -94.9363 -94.9333 -94.9313
   -94.9305 -94.9302 -94.9239 -94.9223 -49.7129 -49.6946 -49.6862 -49.6816
   -49.6697 -49.6696 -49.6626 -49.6586 -49.6544 -49.6489 -49.6471 -49.6384
   -49.6266 -49.6160 -49.5993 -49.5946 -49.5739 -49.5704 -49.5663 -49.5556
   -49.5471 -49.5424 -49.5400 -49.5350 -49.5344 -49.5308 -49.5255 -49.5162
   -49.5076 -49.4989 -49.4986 -49.4933 -49.4907 -49.4840 -49.4829 -49.4766
   -49.4734 -49.4704 -49.4669 -49.4631 -49.4582 -49.4561 -49.4543 -49.4500
   -49.4469 -49.4451 -49.4373 -49.4372 -49.4280 -49.4249 -49.4218 -49.4139
   -49.4023 -49.3911 -49.3718 -49.3678 -49.3486 -49.3411 -49.3358 -49.3301
   -49.3149 -49.2962 -49.2865 -49.2855 -49.2819 -49.2813 -49.2773 -49.2655
   -49.2494 -49.2276 -49.2154 -49.2151 -49.2145 -49.2080 -49.1813 -49.1810
   -49.1603 -49.1515 -49.1336 -49.1242 -49.1236 -49.1224 -49.1184 -49.1104
   -49.1097 -49.0993 -49.0967 -49.0966 -49.0892 -49.0748 -49.0736 -49.0696
   -49.0475 -48.9231 -48.9136 -48.9130 -48.8838 -48.8755 -48.8701 -48.8669
   -48.8632 -48.8607 -48.8573 -48.8570 -48.8536 -48.8532 -48.8447 -48.8431
   -14.2039  -5.6683  -4.6101  -4.3837  -3.7573  -3.7500  -3.4750  -3.3488
    -3.2994  -3.2235  -3.1472  -3.1131  -3.1080  -2.9122  -2.8681  -2.8023
    -2.7959  -2.6897  -2.5859  -2.5418  -2.4590  -2.4588  -2.4311  -2.4206
    -2.4024  -2.3964  -2.3821  -2.3356  -2.2675  -2.2553  -2.2196  -2.2101
    -1.9827  -1.9740  -1.9683  -1.9503  -1.9192  -1.9061  -1.7267  -1.7095
    -1.6393  -1.6356  -1.5989  -1.5087  -1.4922  -1.4752  -1.4432  -1.4354
    -1.2690  -1.2690  -1.2274  -1.2206  -1.1975  -1.1717  -1.1020  -1.0807
    -1.0142  -0.9627  -0.8565  -0.8478  -0.8254  -0.7728  -0.6941  -0.6831
    -0.6546  -0.6341  -0.6274  -0.5798  -0.5129  -0.4677  -0.4607  -0.3846
    -0.3523  -0.3286  -0.3258  -0.3169  -0.2840  -0.2524  -0.2299  -0.1992
    -0.1808  -0.1770  -0.1279  -0.1191  -0.1052  -0.0905  -0.0488  -0.0480
    -0.0367  -0.0174  -0.0069   0.0168   0.0351   0.0840   0.0858   0.1055
     0.2005   0.2418   0.2558   0.2648   0.2941   0.3057   0.3603   0.3885
     0.4070   0.4580   0.4641   0.5350   0.5498   0.5975   0.6064   0.7190
     0.7199   0.7413   0.7754   0.7794   0.9292   0.9778   0.9902   1.0086
     1.0128   1.0458   1.0477   1.0645   1.1015   1.1583   1.1806   1.1830
     1.2092   1.2172   1.2780   1.3276   1.3801   1.4146   1.4210   1.5794
     1.5872   1.6028   1.6109   1.6630   1.6694   1.7935   1.8537   1.8602
     1.8887   1.8995   1.9210   1.9442   1.9623   2.0068   2.0438   2.0825
     2.1138   2.1503   2.1707   2.2131   2.2238   2.2550   2.2583   2.3019
     2.3631   2.3909   2.4484   2.4946   2.5229   2.5386   2.5809   2.5835
     2.6415   2.6537   2.7264   2.7442   2.7578   2.8026   2.8736   2.8793
     2.9113   2.9334   2.9594   2.9676   2.9927   3.0130   3.0283   3.0678
     3.0747   3.1344   3.2194   3.2257   3.2320   3.2482   3.2843   3.3642
     3.3972   3.4577   3.5983   3.9004   3.9145   3.9391   3.9508   4.1107
     4.2321   4.3277   4.4953   5.1975   5.2313   5.2867   5.3439   5.6716
     5.9115   5.9203   6.0470   6.1501   6.6543   6.7731   7.1909   7.4192
     7.4538   7.5864   7.8639   8.0350   8.3417   8.3623   8.7046   8.7695
     8.8531   9.2319   9.2769   9.3221   9.3261   9.5773   9.6141   9.7346
     9.7597   9.9599  10.0983  10.1646  10.2896  10.3310  10.4506  10.4625
    10.5786  10.6428  10.7158  10.8609  11.0337  11.3082  11.3264  11.4087

     occupation numbers 
     1.0000   1.0000   1.0000   1.0000   1.0000   1.0000   1.0000   1.0000
     1.0000   1.0000   1.0000   1.0000   1.0000   1.0000   1.0000   1.0000
     1.0000   1.0000   1.0000   1.0000   1.0000   1.0000   1.0000   1.0000
     1.0000   1.0000   1.0000   1.0000   1.0000   1.0000   1.0000   1.0000
     1.0000   1.0000   1.0000   1.0000   1.0000   1.0000   1.0000   1.0000
     1.0000   1.0000   1.0000   1.0000   1.0000   1.0000   1.0000   1.0000
     1.0000   1.0000   1.0000   1.0000   1.0000   1.0000   1.0000   1.0000
     1.0000   1.0000   1.0000   1.0000   1.0000   1.0000   1.0000   1.0000
     1.0000   1.0000   1.0000   1.0000   1.0000   1.0000   1.0000   1.0000
     1.0000   1.0000   1.0000   1.0000   1.0000   1.0000   1.0000   1.0000
     1.0000   1.0000   1.0000   1.0000   1.0000   1.0000   1.0000   1.0000
     1.0000   1.0000   1.0000   1.0000   1.0000   1.0000   1.0000   1.0000
     1.0000   1.0000   1.0000   1.0000   1.0000   1.0000   1.0000   1.0000
     1.0000   1.0000   1.0000   1.0000   1.0000   1.0000   1.0000   1.0000
     1.0000   1.0000   1.0000   1.0000   1.0000   1.0000   1.0000   1.0000
     1.0000   1.0000   1.0000   1.0000   1.0000   1.0000   1.0000   1.0000
     1.0000   1.0000   1.0000   1.0000   1.0000   1.0000   1.0000   1.0000
     1.0000   1.0000   1.0000   1.0000   1.0000   1.0000   1.0000   1.0000
     1.0000   1.0000   1.0000   1.0000   1.0000   1.0000   1.0000   1.0000
     1.0000   1.0000   1.0000   1.0000   1.0000   1.0000   1.0000   1.0000
     1.0000   1.0000   1.0000   1.0000   1.0000   1.0000   1.0000   1.0000
     1.0000   1.0000   1.0000   1.0000   1.0000   1.0000   1.0000   1.0000
     1.0000   1.0000   1.0000   1.0000   1.0000   1.0000   1.0000   1.0000
     1.0000   1.0000   1.0000   1.0000   1.0000   1.0000   1.0000   1.0000
     1.0000   1.0000   1.0000   1.0000   1.0000   1.0000   1.0000   1.0000
     1.0000   1.0000   1.0000   1.0000   1.0000   1.0000   1.0000   1.0000
     1.0000   1.0000   1.0000   1.0000   1.0000   1.0000   1.0000   1.0000
     1.0000   1.0000   1.0000   1.0000   1.0000   1.0000   1.0000   1.0000
     1.0000   1.0000   1.0000   1.0000   1.0000   1.0000   1.0000   1.0000
     1.0000   1.0000   1.0000   1.0000   1.0000   1.0000   1.0000   1.0000
     1.0000   1.0000   1.0000   1.0000   1.0000   1.0000   1.0000   1.0000
     1.0000   1.0000   1.0000   1.0000   1.0000   1.0000   1.0000   1.0000
     1.0000   1.0000   1.0000   1.0000   1.0000   1.0000   1.0000   1.0000
     1.0000   1.0000   1.0000   1.0000   1.0000   1.0000   1.0000   1.0000
     1.0000   1.0000   1.0000   1.0000   1.0000   1.0000   1.0000   1.0000
     1.0000   1.0000   1.0000   1.0000   1.0000   1.0000   1.0000   1.0000
     1.0000   1.0000   1.0000   1.0000   1.0000   1.0000   1.0000   1.0000
     1.0000   1.0000   1.0000   1.0000   1.0000   1.0000   1.0000   1.0000
     1.0000   1.0000   1.0000   1.0000   1.0000   1.0000   0.9999   0.9999
     0.9997   0.9997   0.9986   0.9980   0.9974   0.9936   0.9740   0.9709
     0.9462   0.9188   0.8705   0.8509   0.7754   0.6971   0.6288   0.4349
     0.4014   0.1688   0.0358   0.0317   0.0280   0.0204   0.0100   0.0020
     0.0011   0.0003   0.0000   0.0000   0.0000   0.0000   0.0000   0.0000
     0.0000   0.0000   0.0000   0.0000   0.0000   0.0000   0.0000   0.0000
     0.0000   0.0000   0.0000   0.0000   0.0000   0.0000   0.0000   0.0000
     0.0000   0.0000   0.0000   0.0000   0.0000   0.0000   0.0000   0.0000
     0.0000   0.0000   0.0000   0.0000   0.0000   0.0000   0.0000   0.0000
     0.0000   0.0000   0.0000   0.0000   0.0000   0.0000   0.0000   0.0000
     0.0000   0.0000   0.0000   0.0000   0.0000   0.0000   0.0000   0.0000

          k = 0.0000-0.5774 0.0000 ( 88178 PWs)   bands (ev):

   -95.4144 -95.4074 -95.4071 -95.4026 -95.3875 -95.3854 -95.3843 -95.3817
   -95.3788 -95.3779 -95.3771 -95.3768 -95.3738 -95.3734 -95.3695 -95.3690
   -95.3690 -95.2191 -95.1925 -95.1898 -95.1888 -95.0151 -95.0092 -95.0084
   -94.9520 -94.9484 -94.9447 -94.9401 -94.9390 -94.9361 -94.9329 -94.9313
   -94.9306 -94.9302 -94.9239 -94.9223 -49.7212 -49.7011 -49.6906 -49.6862
   -49.6744 -49.6726 -49.6671 -49.6628 -49.6534 -49.6509 -49.6492 -49.6444
   -49.6255 -49.6166 -49.5905 -49.5846 -49.5693 -49.5613 -49.5546 -49.5498
   -49.5424 -49.5394 -49.5382 -49.5301 -49.5289 -49.5241 -49.5179 -49.5157
   -49.5050 -49.5022 -49.4975 -49.4891 -49.4839 -49.4832 -49.4822 -49.4748
   -49.4739 -49.4711 -49.4699 -49.4609 -49.4592 -49.4579 -49.4546 -49.4512
   -49.4492 -49.4478 -49.4448 -49.4364 -49.4357 -49.4298 -49.4284 -49.4233
   -49.4023 -49.3922 -49.3742 -49.3706 -49.3538 -49.3395 -49.3363 -49.3337
   -49.3225 -49.2967 -49.2906 -49.2896 -49.2871 -49.2863 -49.2791 -49.2622
   -49.2457 -49.2194 -49.2106 -49.2072 -49.2067 -49.1930 -49.1644 -49.1526
   -49.1516 -49.1483 -49.1482 -49.1345 -49.1199 -49.1198 -49.1152 -49.1140
   -49.1127 -49.1115 -49.0994 -49.0983 -49.0981 -49.0963 -49.0764 -49.0593
   -49.0557 -48.9229 -48.9136 -48.9132 -48.8817 -48.8782 -48.8703 -48.8673
   -48.8626 -48.8600 -48.8569 -48.8566 -48.8540 -48.8536 -48.8447 -48.8432
   -14.2038  -5.2180  -5.1694  -3.9834  -3.9178  -3.7684  -3.7511  -3.3439
    -3.1801  -2.9280  -2.8887  -2.8639  -2.8260  -2.8092  -2.7991  -2.7912
    -2.7798  -2.7669  -2.7643  -2.7098  -2.6517  -2.6256  -2.6071  -2.5866
    -2.5224  -2.4454  -2.2629  -2.2620  -2.2284  -2.2240  -2.0573  -2.0293
    -1.9869  -1.9765  -1.9451  -1.9363  -1.8442  -1.8429  -1.7282  -1.7236
    -1.6950  -1.6637  -1.6325  -1.5428  -1.5299  -1.4303  -1.4124  -1.3884
    -1.3754  -1.3102  -1.2903  -1.1864  -1.1432  -1.1426  -1.1276  -1.0367
    -1.0262  -1.0224  -1.0099  -0.8751  -0.8582  -0.8331  -0.8304  -0.8058
    -0.7897  -0.7151  -0.6327  -0.6321  -0.5588  -0.5361  -0.5206  -0.4961
    -0.4847  -0.4753  -0.4579  -0.3792  -0.3012  -0.2830  -0.2355  -0.2299
    -0.1977  -0.1954  -0.1736  -0.1642  -0.1476  -0.1417  -0.0702  -0.0557
    -0.0333  -0.0223  -0.0032   0.0044   0.0478   0.0701   0.1436   0.1860
     0.1949   0.2766   0.2820   0.2879   0.2924   0.3118   0.3509   0.3599
     0.4549   0.4642   0.5078   0.5223   0.5498   0.6246   0.6640   0.7395
     0.7606   0.8109   0.8414   0.8837   0.9100   0.9181   0.9485   0.9630
     0.9844   0.9928   0.9937   1.0291   1.0401   1.1014   1.1107   1.1391
     1.1477   1.1800   1.1887   1.2534   1.2654   1.2769   1.3447   1.4397
     1.4477   1.5716   1.5921   1.6893   1.7072   1.7449   1.7653   1.8384
     1.8464   1.9110   1.9246   1.9858   2.0164   2.0354   2.0500   2.0606
     2.0748   2.1116   2.1595   2.1866   2.2253   2.2463   2.2615   2.2713
     2.3369   2.3752   2.4315   2.5121   2.5415   2.5725   2.5876   2.6532
     2.6659   2.7131   2.7560   2.7616   2.8020   2.8099   2.8366   2.8481
     2.8612   2.9717   3.0270   3.0425   3.0460   3.0531   3.0737   3.1023
     3.1405   3.1887   3.3062   3.3105   3.3208   3.3414   3.3712   3.4082
     3.5093   3.5748   3.9034   3.9533   4.2041   4.5940   4.7264   4.9031
     4.9211   4.9213   4.9551   5.3608   5.4046   5.4135   5.4580   5.6284
     5.7304   5.9616   6.0152   6.1122   6.3458   6.4323   6.4537   6.5490
     6.6087   6.9960   8.3854   8.4528   8.4869   8.5374   8.7293   8.7956
     8.8571   8.9448   8.9599   8.9924   9.0282   9.0872   9.4812   9.6117
     9.6240   9.9032   9.9114  10.0215  10.0637  10.3997  10.4062  10.5476
    10.6283  10.7985  10.9324  10.9743  10.9995  11.0137  11.1108  11.1365

     occupation numbers 
     1.0000   1.0000   1.0000   1.0000   1.0000   1.0000   1.0000   1.0000
     1.0000   1.0000   1.0000   1.0000   1.0000   1.0000   1.0000   1.0000
     1.0000   1.0000   1.0000   1.0000   1.0000   1.0000   1.0000   1.0000
     1.0000   1.0000   1.0000   1.0000   1.0000   1.0000   1.0000   1.0000
     1.0000   1.0000   1.0000   1.0000   1.0000   1.0000   1.0000   1.0000
     1.0000   1.0000   1.0000   1.0000   1.0000   1.0000   1.0000   1.0000
     1.0000   1.0000   1.0000   1.0000   1.0000   1.0000   1.0000   1.0000
     1.0000   1.0000   1.0000   1.0000   1.0000   1.0000   1.0000   1.0000
     1.0000   1.0000   1.0000   1.0000   1.0000   1.0000   1.0000   1.0000
     1.0000   1.0000   1.0000   1.0000   1.0000   1.0000   1.0000   1.0000
     1.0000   1.0000   1.0000   1.0000   1.0000   1.0000   1.0000   1.0000
     1.0000   1.0000   1.0000   1.0000   1.0000   1.0000   1.0000   1.0000
     1.0000   1.0000   1.0000   1.0000   1.0000   1.0000   1.0000   1.0000
     1.0000   1.0000   1.0000   1.0000   1.0000   1.0000   1.0000   1.0000
     1.0000   1.0000   1.0000   1.0000   1.0000   1.0000   1.0000   1.0000
     1.0000   1.0000   1.0000   1.0000   1.0000   1.0000   1.0000   1.0000
     1.0000   1.0000   1.0000   1.0000   1.0000   1.0000   1.0000   1.0000
     1.0000   1.0000   1.0000   1.0000   1.0000   1.0000   1.0000   1.0000
     1.0000   1.0000   1.0000   1.0000   1.0000   1.0000   1.0000   1.0000
     1.0000   1.0000   1.0000   1.0000   1.0000   1.0000   1.0000   1.0000
     1.0000   1.0000   1.0000   1.0000   1.0000   1.0000   1.0000   1.0000
     1.0000   1.0000   1.0000   1.0000   1.0000   1.0000   1.0000   1.0000
     1.0000   1.0000   1.0000   1.0000   1.0000   1.0000   1.0000   1.0000
     1.0000   1.0000   1.0000   1.0000   1.0000   1.0000   1.0000   1.0000
     1.0000   1.0000   1.0000   1.0000   1.0000   1.0000   1.0000   1.0000
     1.0000   1.0000   1.0000   1.0000   1.0000   1.0000   1.0000   1.0000
     1.0000   1.0000   1.0000   1.0000   1.0000   1.0000   1.0000   1.0000
     1.0000   1.0000   1.0000   1.0000   1.0000   1.0000   1.0000   1.0000
     1.0000   1.0000   1.0000   1.0000   1.0000   1.0000   1.0000   1.0000
     1.0000   1.0000   1.0000   1.0000   1.0000   1.0000   1.0000   1.0000
     1.0000   1.0000   1.0000   1.0000   1.0000   1.0000   1.0000   1.0000
     1.0000   1.0000   1.0000   1.0000   1.0000   1.0000   1.0000   1.0000
     1.0000   1.0000   1.0000   1.0000   1.0000   1.0000   1.0000   1.0000
     1.0000   1.0000   1.0000   1.0000   1.0000   1.0000   1.0000   1.0000
     1.0000   1.0000   1.0000   1.0000   1.0000   1.0000   1.0000   1.0000
     1.0000   1.0000   1.0000   1.0000   1.0000   1.0000   1.0000   1.0000
     1.0000   1.0000   1.0000   1.0000   1.0000   1.0000   1.0000   1.0000
     1.0000   1.0000   1.0000   1.0000   1.0000   1.0000   1.0000   1.0000
     1.0000   1.0000   1.0000   1.0000   1.0000   0.9999   0.9999   0.9997
     0.9996   0.9989   0.9975   0.9972   0.9937   0.9926   0.9874   0.9842
     0.9796   0.8403   0.6350   0.5608   0.5434   0.5079   0.4062   0.2786
     0.1524   0.0642   0.0065   0.0060   0.0049   0.0032   0.0018   0.0008
     0.0001   0.0000   0.0000   0.0000   0.0000   0.0000   0.0000   0.0000
     0.0000   0.0000   0.0000   0.0000   0.0000   0.0000   0.0000   0.0000
     0.0000   0.0000   0.0000   0.0000   0.0000   0.0000   0.0000   0.0000
     0.0000   0.0000   0.0000   0.0000   0.0000   0.0000   0.0000   0.0000
     0.0000   0.0000   0.0000   0.0000   0.0000   0.0000   0.0000   0.0000
     0.0000   0.0000   0.0000   0.0000   0.0000   0.0000   0.0000   0.0000
     0.0000   0.0000   0.0000   0.0000   0.0000   0.0000   0.0000   0.0000

          k = 0.1667-0.0962 0.0000 ( 88230 PWs)   bands (ev):

   -95.4151 -95.4072 -95.4065 -95.4027 -95.3878 -95.3839 -95.3834 -95.3818
   -95.3808 -95.3805 -95.3755 -95.3751 -95.3741 -95.3732 -95.3698 -95.3695
   -95.3689 -95.2191 -95.1926 -95.1896 -95.1888 -95.0152 -95.0092 -95.0083
   -94.9539 -94.9454 -94.9446 -94.9409 -94.9379 -94.9368 -94.9343 -94.9313
   -94.9303 -94.9301 -94.9239 -94.9223 -49.6895 -49.6803 -49.6730 -49.6693
   -49.6629 -49.6574 -49.6553 -49.6496 -49.6482 -49.6396 -49.6385 -49.6348
   -49.6311 -49.6208 -49.6151 -49.6144 -49.6027 -49.5925 -49.5816 -49.5619
   -49.5612 -49.5559 -49.5555 -49.5487 -49.5416 -49.5375 -49.5295 -49.5235
   -49.5133 -49.5042 -49.4982 -49.4949 -49.4850 -49.4818 -49.4775 -49.4770
   -49.4729 -49.4668 -49.4661 -49.4621 -49.4571 -49.4563 -49.4513 -49.4497
   -49.4444 -49.4440 -49.4314 -49.4284 -49.4272 -49.4178 -49.4108 -49.4055
   -49.3935 -49.3886 -49.3651 -49.3618 -49.3467 -49.3380 -49.3344 -49.3189
   -49.2977 -49.2902 -49.2746 -49.2737 -49.2726 -49.2712 -49.2670 -49.2661
   -49.2574 -49.2490 -49.2440 -49.2340 -49.2334 -49.2135 -49.2130 -49.2086
   -49.2032 -49.1387 -49.1329 -49.1256 -49.1144 -49.1065 -49.1049 -49.1046
   -49.1034 -49.1020 -49.0927 -49.0925 -49.0824 -49.0764 -49.0720 -49.0479
   -49.0413 -48.9235 -48.9138 -48.9126 -48.8861 -48.8718 -48.8698 -48.8664
   -48.8638 -48.8619 -48.8591 -48.8571 -48.8529 -48.8527 -48.8447 -48.8431
   -14.2040  -5.9717  -4.6783  -4.0242  -3.7090  -3.7031  -3.5989  -3.5013
    -3.4046  -3.3928  -3.3777  -3.1370  -3.0648  -3.0079  -2.9742  -2.9463
    -2.9272  -2.5879  -2.5244  -2.5148  -2.5037  -2.4862  -2.4593  -2.4468
    -2.3654  -2.3602  -2.2682  -2.2320  -2.2274  -2.1522  -2.1466  -2.1335
    -2.1224  -2.1197  -2.1010  -2.0842  -1.9292  -1.9180  -1.8609  -1.8323
    -1.8043  -1.5207  -1.5139  -1.5065  -1.4694  -1.4685  -1.4278  -1.4123
    -1.2650  -1.2644  -1.1840  -1.1719  -1.1627  -1.0941  -1.0883  -0.8147
    -0.7654  -0.7362  -0.7024  -0.6807  -0.6793  -0.6235  -0.6223  -0.5991
    -0.5715  -0.5510  -0.5015  -0.4768  -0.4599  -0.4325  -0.3997  -0.3860
    -0.3619  -0.3408  -0.2685  -0.2584  -0.2308  -0.1947  -0.1842  -0.1695
    -0.1609  -0.1355  -0.0691  -0.0645  -0.0565  -0.0030   0.0534   0.0562
     0.0756   0.0866   0.1122   0.1169   0.1314   0.1604   0.1996   0.2152
     0.2326   0.2416   0.2500   0.3016   0.3114   0.3586   0.3705   0.3936
     0.4113   0.4246   0.4932   0.5181   0.5210   0.5230   0.5306   0.6115
     0.6189   0.6675   0.7949   0.9064   0.9987   1.0271   1.0287   1.0609
     1.0819   1.0927   1.0947   1.1338   1.2160   1.2767   1.3841   1.4045
     1.4193   1.4554   1.4768   1.4923   1.5107   1.5164   1.5787   1.5880
     1.6597   1.6662   1.7058   1.7157   1.7644   1.7681   1.9085   1.9227
     1.9267   1.9332   1.9890   2.0036   2.0416   2.0559   2.0852   2.1249
     2.1383   2.1733   2.1804   2.1935   2.2196   2.2424   2.3107   2.3251
     2.3527   2.3915   2.4291   2.4452   2.4706   2.5203   2.5308   2.5586
     2.5886   2.6242   2.6326   2.6612   2.6618   2.6850   2.6961   2.7216
     2.7285   2.7380   2.8014   2.8032   2.8167   2.8641   2.9691   2.9891
     2.9968   3.0186   3.0214   3.0333   3.0609   3.0720   3.0848   3.0873
     3.1160   3.1380   3.1530   3.2109   3.2236   3.2748   3.2885   3.5427
     3.6837   3.9400   4.0797   4.4095   4.4542   4.5030   5.0722   5.7920
     6.1327   6.1996   6.7587   6.8037   6.8853   6.9130   7.0890   7.8675
     7.9473   7.9688   7.9729   8.3882   8.6565   8.6786   8.9128   8.9495
     9.0624   9.0788   9.2236   9.3885   9.5455   9.6311   9.8162   9.8296
     9.9348  10.3076  10.3555  10.4596  10.6486  10.7243  10.7670  10.8071
    10.8906  10.9880  10.9902  11.0683  11.1102  11.2679  11.4736  11.4987

     occupation numbers 
     1.0000   1.0000   1.0000   1.0000   1.0000   1.0000   1.0000   1.0000
     1.0000   1.0000   1.0000   1.0000   1.0000   1.0000   1.0000   1.0000
     1.0000   1.0000   1.0000   1.0000   1.0000   1.0000   1.0000   1.0000
     1.0000   1.0000   1.0000   1.0000   1.0000   1.0000   1.0000   1.0000
     1.0000   1.0000   1.0000   1.0000   1.0000   1.0000   1.0000   1.0000
     1.0000   1.0000   1.0000   1.0000   1.0000   1.0000   1.0000   1.0000
     1.0000   1.0000   1.0000   1.0000   1.0000   1.0000   1.0000   1.0000
     1.0000   1.0000   1.0000   1.0000   1.0000   1.0000   1.0000   1.0000
     1.0000   1.0000   1.0000   1.0000   1.0000   1.0000   1.0000   1.0000
     1.0000   1.0000   1.0000   1.0000   1.0000   1.0000   1.0000   1.0000
     1.0000   1.0000   1.0000   1.0000   1.0000   1.0000   1.0000   1.0000
     1.0000   1.0000   1.0000   1.0000   1.0000   1.0000   1.0000   1.0000
     1.0000   1.0000   1.0000   1.0000   1.0000   1.0000   1.0000   1.0000
     1.0000   1.0000   1.0000   1.0000   1.0000   1.0000   1.0000   1.0000
     1.0000   1.0000   1.0000   1.0000   1.0000   1.0000   1.0000   1.0000
     1.0000   1.0000   1.0000   1.0000   1.0000   1.0000   1.0000   1.0000
     1.0000   1.0000   1.0000   1.0000   1.0000   1.0000   1.0000   1.0000
     1.0000   1.0000   1.0000   1.0000   1.0000   1.0000   1.0000   1.0000
     1.0000   1.0000   1.0000   1.0000   1.0000   1.0000   1.0000   1.0000
     1.0000   1.0000   1.0000   1.0000   1.0000   1.0000   1.0000   1.0000
     1.0000   1.0000   1.0000   1.0000   1.0000   1.0000   1.0000   1.0000
     1.0000   1.0000   1.0000   1.0000   1.0000   1.0000   1.0000   1.0000
     1.0000   1.0000   1.0000   1.0000   1.0000   1.0000   1.0000   1.0000
     1.0000   1.0000   1.0000   1.0000   1.0000   1.0000   1.0000   1.0000
     1.0000   1.0000   1.0000   1.0000   1.0000   1.0000   1.0000   1.0000
     1.0000   1.0000   1.0000   1.0000   1.0000   1.0000   1.0000   1.0000
     1.0000   1.0000   1.0000   1.0000   1.0000   1.0000   1.0000   1.0000
     1.0000   1.0000   1.0000   1.0000   1.0000   1.0000   1.0000   1.0000
     1.0000   1.0000   1.0000   1.0000   1.0000   1.0000   1.0000   1.0000
     1.0000   1.0000   1.0000   1.0000   1.0000   1.0000   1.0000   1.0000
     1.0000   1.0000   1.0000   1.0000   1.0000   1.0000   1.0000   1.0000
     1.0000   1.0000   1.0000   1.0000   1.0000   1.0000   1.0000   1.0000
     1.0000   1.0000   1.0000   1.0000   1.0000   1.0000   1.0000   1.0000
     1.0000   1.0000   1.0000   1.0000   1.0000   1.0000   1.0000   1.0000
     1.0000   1.0000   1.0000   1.0000   1.0000   1.0000   1.0000   1.0000
     1.0000   1.0000   1.0000   1.0000   1.0000   1.0000   1.0000   1.0000
     1.0000   1.0000   1.0000   1.0000   1.0000   1.0000   1.0000   1.0000
     1.0000   1.0000   1.0000   1.0000   1.0000   1.0000   1.0000   1.0000
     1.0000   1.0000   1.0000   1.0000   1.0000   1.0000   1.0000   1.0000
     0.9999   0.9998   0.9998   0.9996   0.9996   0.9994   0.9992   0.9987
     0.9985   0.9982   0.9937   0.9935   0.9915   0.9784   0.8471   0.7878
     0.7608   0.6728   0.6608   0.6053   0.4691   0.4144   0.3538   0.3424
     0.2267   0.1588   0.1228   0.0421   0.0330   0.0121   0.0092   0.0001
     0.0000   0.0000   0.0000   0.0000   0.0000   0.0000   0.0000   0.0000
     0.0000   0.0000   0.0000   0.0000   0.0000   0.0000   0.0000   0.0000
     0.0000   0.0000   0.0000   0.0000   0.0000   0.0000   0.0000   0.0000
     0.0000   0.0000   0.0000   0.0000   0.0000   0.0000   0.0000   0.0000
     0.0000   0.0000   0.0000   0.0000   0.0000   0.0000   0.0000   0.0000
     0.0000   0.0000   0.0000   0.0000   0.0000   0.0000   0.0000   0.0000

          k = 0.1667 0.0962 0.0000 ( 88230 PWs)   bands (ev):

   -95.4151 -95.4072 -95.4065 -95.4027 -95.3878 -95.3839 -95.3834 -95.3818
   -95.3808 -95.3805 -95.3755 -95.3751 -95.3741 -95.3732 -95.3698 -95.3695
   -95.3689 -95.2191 -95.1926 -95.1896 -95.1888 -95.0152 -95.0092 -95.0083
   -94.9539 -94.9454 -94.9446 -94.9409 -94.9379 -94.9368 -94.9343 -94.9313
   -94.9303 -94.9301 -94.9239 -94.9223 -49.6895 -49.6803 -49.6730 -49.6694
   -49.6629 -49.6575 -49.6553 -49.6496 -49.6482 -49.6396 -49.6385 -49.6348
   -49.6311 -49.6208 -49.6151 -49.6144 -49.6027 -49.5925 -49.5816 -49.5619
   -49.5612 -49.5559 -49.5555 -49.5487 -49.5416 -49.5376 -49.5295 -49.5235
   -49.5133 -49.5042 -49.4982 -49.4949 -49.4850 -49.4818 -49.4775 -49.4770
   -49.4729 -49.4668 -49.4661 -49.4621 -49.4571 -49.4563 -49.4513 -49.4498
   -49.4444 -49.4440 -49.4314 -49.4284 -49.4272 -49.4178 -49.4108 -49.4055
   -49.3935 -49.3886 -49.3650 -49.3618 -49.3467 -49.3380 -49.3344 -49.3189
   -49.2977 -49.2902 -49.2746 -49.2737 -49.2726 -49.2712 -49.2670 -49.2661
   -49.2574 -49.2490 -49.2440 -49.2340 -49.2334 -49.2135 -49.2130 -49.2086
   -49.2032 -49.1388 -49.1328 -49.1256 -49.1144 -49.1065 -49.1048 -49.1046
   -49.1034 -49.1020 -49.0927 -49.0925 -49.0824 -49.0764 -49.0719 -49.0479
   -49.0413 -48.9235 -48.9138 -48.9126 -48.8861 -48.8718 -48.8698 -48.8664
   -48.8638 -48.8619 -48.8591 -48.8571 -48.8529 -48.8527 -48.8447 -48.8431
   -14.2040  -5.9717  -4.6783  -4.0242  -3.7090  -3.7030  -3.5989  -3.5013
    -3.4046  -3.3928  -3.3777  -3.1370  -3.0648  -3.0079  -2.9742  -2.9463
    -2.9272  -2.5879  -2.5244  -2.5148  -2.5036  -2.4862  -2.4593  -2.4468
    -2.3654  -2.3601  -2.2682  -2.2320  -2.2274  -2.1522  -2.1466  -2.1335
    -2.1224  -2.1197  -2.1010  -2.0842  -1.9292  -1.9179  -1.8609  -1.8323
    -1.8043  -1.5207  -1.5139  -1.5065  -1.4693  -1.4685  -1.4278  -1.4123
    -1.2650  -1.2644  -1.1840  -1.1719  -1.1627  -1.0941  -1.0883  -0.8147
    -0.7654  -0.7362  -0.7024  -0.6807  -0.6793  -0.6235  -0.6223  -0.5991
    -0.5716  -0.5510  -0.5016  -0.4768  -0.4599  -0.4325  -0.3997  -0.3860
    -0.3619  -0.3408  -0.2685  -0.2584  -0.2308  -0.1947  -0.1842  -0.1696
    -0.1609  -0.1355  -0.0691  -0.0645  -0.0565  -0.0030   0.0534   0.0562
     0.0756   0.0866   0.1123   0.1169   0.1314   0.1604   0.1997   0.2151
     0.2326   0.2416   0.2500   0.3016   0.3114   0.3586   0.3705   0.3936
     0.4112   0.4246   0.4932   0.5181   0.5210   0.5230   0.5306   0.6115
     0.6189   0.6676   0.7949   0.9064   0.9988   1.0271   1.0287   1.0609
     1.0819   1.0927   1.0946   1.1338   1.2160   1.2767   1.3841   1.4045
     1.4193   1.4554   1.4768   1.4923   1.5108   1.5163   1.5787   1.5880
     1.6597   1.6662   1.7058   1.7157   1.7644   1.7681   1.9084   1.9227
     1.9267   1.9332   1.9890   2.0036   2.0415   2.0559   2.0852   2.1249
     2.1383   2.1733   2.1804   2.1935   2.2196   2.2424   2.3107   2.3251
     2.3527   2.3915   2.4290   2.4453   2.4706   2.5203   2.5308   2.5586
     2.5886   2.6242   2.6326   2.6612   2.6618   2.6850   2.6961   2.7216
     2.7285   2.7380   2.8014   2.8032   2.8167   2.8641   2.9691   2.9891
     2.9968   3.0186   3.0214   3.0333   3.0609   3.0720   3.0848   3.0874
     3.1161   3.1381   3.1530   3.2109   3.2236   3.2748   3.2885   3.5427
     3.6837   3.9400   4.0797   4.4095   4.4542   4.5030   5.0722   5.7919
     6.1327   6.1996   6.7587   6.8037   6.8853   6.9130   7.0890   7.8675
     7.9473   7.9688   7.9729   8.3881   8.6565   8.6786   8.9128   8.9495
     9.0624   9.0788   9.2236   9.3885   9.5455   9.6311   9.8162   9.8296
     9.9348  10.3076  10.3555  10.4597  10.6486  10.7243  10.7670  10.8071
    10.8904  10.9880  10.9901  11.0682  11.1102  11.2678  11.4736  11.4991

     occupation numbers 
     1.0000   1.0000   1.0000   1.0000   1.0000   1.0000   1.0000   1.0000
     1.0000   1.0000   1.0000   1.0000   1.0000   1.0000   1.0000   1.0000
     1.0000   1.0000   1.0000   1.0000   1.0000   1.0000   1.0000   1.0000
     1.0000   1.0000   1.0000   1.0000   1.0000   1.0000   1.0000   1.0000
     1.0000   1.0000   1.0000   1.0000   1.0000   1.0000   1.0000   1.0000
     1.0000   1.0000   1.0000   1.0000   1.0000   1.0000   1.0000   1.0000
     1.0000   1.0000   1.0000   1.0000   1.0000   1.0000   1.0000   1.0000
     1.0000   1.0000   1.0000   1.0000   1.0000   1.0000   1.0000   1.0000
     1.0000   1.0000   1.0000   1.0000   1.0000   1.0000   1.0000   1.0000
     1.0000   1.0000   1.0000   1.0000   1.0000   1.0000   1.0000   1.0000
     1.0000   1.0000   1.0000   1.0000   1.0000   1.0000   1.0000   1.0000
     1.0000   1.0000   1.0000   1.0000   1.0000   1.0000   1.0000   1.0000
     1.0000   1.0000   1.0000   1.0000   1.0000   1.0000   1.0000   1.0000
     1.0000   1.0000   1.0000   1.0000   1.0000   1.0000   1.0000   1.0000
     1.0000   1.0000   1.0000   1.0000   1.0000   1.0000   1.0000   1.0000
     1.0000   1.0000   1.0000   1.0000   1.0000   1.0000   1.0000   1.0000
     1.0000   1.0000   1.0000   1.0000   1.0000   1.0000   1.0000   1.0000
     1.0000   1.0000   1.0000   1.0000   1.0000   1.0000   1.0000   1.0000
     1.0000   1.0000   1.0000   1.0000   1.0000   1.0000   1.0000   1.0000
     1.0000   1.0000   1.0000   1.0000   1.0000   1.0000   1.0000   1.0000
     1.0000   1.0000   1.0000   1.0000   1.0000   1.0000   1.0000   1.0000
     1.0000   1.0000   1.0000   1.0000   1.0000   1.0000   1.0000   1.0000
     1.0000   1.0000   1.0000   1.0000   1.0000   1.0000   1.0000   1.0000
     1.0000   1.0000   1.0000   1.0000   1.0000   1.0000   1.0000   1.0000
     1.0000   1.0000   1.0000   1.0000   1.0000   1.0000   1.0000   1.0000
     1.0000   1.0000   1.0000   1.0000   1.0000   1.0000   1.0000   1.0000
     1.0000   1.0000   1.0000   1.0000   1.0000   1.0000   1.0000   1.0000
     1.0000   1.0000   1.0000   1.0000   1.0000   1.0000   1.0000   1.0000
     1.0000   1.0000   1.0000   1.0000   1.0000   1.0000   1.0000   1.0000
     1.0000   1.0000   1.0000   1.0000   1.0000   1.0000   1.0000   1.0000
     1.0000   1.0000   1.0000   1.0000   1.0000   1.0000   1.0000   1.0000
     1.0000   1.0000   1.0000   1.0000   1.0000   1.0000   1.0000   1.0000
     1.0000   1.0000   1.0000   1.0000   1.0000   1.0000   1.0000   1.0000
     1.0000   1.0000   1.0000   1.0000   1.0000   1.0000   1.0000   1.0000
     1.0000   1.0000   1.0000   1.0000   1.0000   1.0000   1.0000   1.0000
     1.0000   1.0000   1.0000   1.0000   1.0000   1.0000   1.0000   1.0000
     1.0000   1.0000   1.0000   1.0000   1.0000   1.0000   1.0000   1.0000
     1.0000   1.0000   1.0000   1.0000   1.0000   1.0000   1.0000   1.0000
     1.0000   1.0000   1.0000   1.0000   1.0000   1.0000   1.0000   1.0000
     0.9999   0.9998   0.9998   0.9996   0.9996   0.9994   0.9992   0.9987
     0.9985   0.9982   0.9937   0.9935   0.9915   0.9784   0.8470   0.7878
     0.7608   0.6728   0.6608   0.6053   0.4691   0.4143   0.3538   0.3423
     0.2266   0.1588   0.1228   0.0421   0.0330   0.0121   0.0092   0.0001
     0.0000   0.0000   0.0000   0.0000   0.0000   0.0000   0.0000   0.0000
     0.0000   0.0000   0.0000   0.0000   0.0000   0.0000   0.0000   0.0000
     0.0000   0.0000   0.0000   0.0000   0.0000   0.0000   0.0000   0.0000
     0.0000   0.0000   0.0000   0.0000   0.0000   0.0000   0.0000   0.0000
     0.0000   0.0000   0.0000   0.0000   0.0000   0.0000   0.0000   0.0000
     0.0000   0.0000   0.0000   0.0000   0.0000   0.0000   0.0000   0.0000

          k = 0.1667 0.2887 0.0000 ( 88188 PWs)   bands (ev):

   -95.4148 -95.4073 -95.4068 -95.4026 -95.3876 -95.3846 -95.3842 -95.3813
   -95.3802 -95.3794 -95.3762 -95.3756 -95.3741 -95.3731 -95.3698 -95.3693
   -95.3689 -95.2191 -95.1925 -95.1897 -95.1888 -95.0151 -95.0092 -95.0084
   -94.9531 -94.9466 -94.9448 -94.9402 -94.9387 -94.9365 -94.9335 -94.9313
   -94.9305 -94.9301 -94.9239 -94.9223 -49.7020 -49.6995 -49.6852 -49.6800
   -49.6710 -49.6630 -49.6591 -49.6559 -49.6468 -49.6440 -49.6436 -49.6350
   -49.6315 -49.6240 -49.6154 -49.5871 -49.5828 -49.5714 -49.5695 -49.5578
   -49.5532 -49.5463 -49.5441 -49.5404 -49.5365 -49.5274 -49.5228 -49.5163
   -49.5124 -49.5012 -49.4987 -49.4956 -49.4865 -49.4840 -49.4833 -49.4788
   -49.4741 -49.4720 -49.4674 -49.4613 -49.4582 -49.4555 -49.4515 -49.4483
   -49.4451 -49.4437 -49.4389 -49.4341 -49.4294 -49.4257 -49.4124 -49.4083
   -49.4044 -49.3916 -49.3717 -49.3639 -49.3458 -49.3438 -49.3364 -49.3262
   -49.3053 -49.3019 -49.2942 -49.2849 -49.2801 -49.2730 -49.2637 -49.2559
   -49.2524 -49.2498 -49.2314 -49.2258 -49.2067 -49.1933 -49.1892 -49.1866
   -49.1849 -49.1474 -49.1332 -49.1235 -49.1180 -49.1152 -49.1131 -49.1121
   -49.1094 -49.1079 -49.1004 -49.0847 -49.0801 -49.0792 -49.0747 -49.0650
   -49.0457 -48.9232 -48.9138 -48.9128 -48.8846 -48.8741 -48.8710 -48.8656
   -48.8639 -48.8611 -48.8576 -48.8570 -48.8535 -48.8530 -48.8447 -48.8431
   -14.2039  -5.7677  -4.4829  -4.2563  -4.2138  -3.4022  -3.3315  -3.3145
    -3.2967  -3.2914  -3.2756  -3.2345  -3.1707  -3.0468  -3.0293  -2.7775
    -2.7383  -2.6012  -2.5931  -2.4994  -2.4691  -2.4486  -2.4297  -2.4142
    -2.4045  -2.3322  -2.3198  -2.3147  -2.2646  -2.2536  -2.2138  -2.1357
    -2.1275  -2.1087  -2.0971  -1.9775  -1.9171  -1.7888  -1.7698  -1.6811
    -1.6697  -1.6302  -1.5726  -1.5426  -1.5356  -1.4592  -1.4345  -1.3711
    -1.3175  -1.2505  -1.2296  -1.2080  -1.1388  -1.1190  -1.0997  -1.0223
    -1.0017  -0.8431  -0.8051  -0.7844  -0.7400  -0.7299  -0.6991  -0.6569
    -0.6372  -0.6142  -0.5975  -0.5733  -0.5017  -0.4651  -0.4397  -0.4295
    -0.4104  -0.3837  -0.3484  -0.2990  -0.2745  -0.2080  -0.1989  -0.1849
    -0.1484  -0.1253  -0.0901  -0.0802  -0.0667  -0.0395  -0.0277  -0.0212
     0.0023   0.0060   0.0182   0.0869   0.1001   0.1563   0.1711   0.2001
     0.2245   0.2391   0.2505   0.2941   0.3026   0.3139   0.3254   0.3379
     0.3732   0.3981   0.4191   0.4417   0.4631   0.5464   0.5610   0.6124
     0.6344   0.6661   0.7149   0.8064   0.8891   0.9286   0.9633   0.9933
     1.0477   1.0813   1.1014   1.1115   1.1213   1.1358   1.1540   1.2478
     1.2805   1.3202   1.3971   1.4662   1.5021   1.5197   1.5721   1.5977
     1.5997   1.6366   1.6772   1.6941   1.7364   1.7957   1.8350   1.8381
     1.8778   1.8938   1.9305   1.9517   1.9809   2.0064   2.0135   2.0331
     2.0702   2.0994   2.1215   2.1392   2.1433   2.1773   2.2351   2.3153
     2.3374   2.4525   2.4755   2.5356   2.5779   2.6047   2.6449   2.6710
     2.7022   2.7283   2.7457   2.7555   2.7726   2.7864   2.8174   2.8541
     2.8639   2.9179   2.9505   2.9693   2.9818   3.0041   3.0146   3.0440
     3.0558   3.1003   3.1215   3.1655   3.2180   3.2439   3.2641   3.2948
     3.3093   3.3524   3.3687   3.5342   3.6512   3.6821   3.7498   3.9676
     4.1196   4.1869   4.5101   4.5966   5.1112   5.1324   5.4214   5.5435
     5.7624   5.9344   6.6572   6.6817   6.8102   6.9078   7.0989   7.3863
     7.5369   7.7989   7.9512   7.9712   8.0754   8.2636   8.9337   8.9448
     9.0583   9.1401   9.1860   9.3238   9.4071   9.6379   9.6670   9.7683
     9.8170   9.8697  10.0443  10.1921  10.2920  10.5144  10.5464  10.5848
    10.6726  10.7600  10.8501  10.9627  11.1881  11.2136  11.2575  11.3255

     occupation numbers 
     1.0000   1.0000   1.0000   1.0000   1.0000   1.0000   1.0000   1.0000
     1.0000   1.0000   1.0000   1.0000   1.0000   1.0000   1.0000   1.0000
     1.0000   1.0000   1.0000   1.0000   1.0000   1.0000   1.0000   1.0000
     1.0000   1.0000   1.0000   1.0000   1.0000   1.0000   1.0000   1.0000
     1.0000   1.0000   1.0000   1.0000   1.0000   1.0000   1.0000   1.0000
     1.0000   1.0000   1.0000   1.0000   1.0000   1.0000   1.0000   1.0000
     1.0000   1.0000   1.0000   1.0000   1.0000   1.0000   1.0000   1.0000
     1.0000   1.0000   1.0000   1.0000   1.0000   1.0000   1.0000   1.0000
     1.0000   1.0000   1.0000   1.0000   1.0000   1.0000   1.0000   1.0000
     1.0000   1.0000   1.0000   1.0000   1.0000   1.0000   1.0000   1.0000
     1.0000   1.0000   1.0000   1.0000   1.0000   1.0000   1.0000   1.0000
     1.0000   1.0000   1.0000   1.0000   1.0000   1.0000   1.0000   1.0000
     1.0000   1.0000   1.0000   1.0000   1.0000   1.0000   1.0000   1.0000
     1.0000   1.0000   1.0000   1.0000   1.0000   1.0000   1.0000   1.0000
     1.0000   1.0000   1.0000   1.0000   1.0000   1.0000   1.0000   1.0000
     1.0000   1.0000   1.0000   1.0000   1.0000   1.0000   1.0000   1.0000
     1.0000   1.0000   1.0000   1.0000   1.0000   1.0000   1.0000   1.0000
     1.0000   1.0000   1.0000   1.0000   1.0000   1.0000   1.0000   1.0000
     1.0000   1.0000   1.0000   1.0000   1.0000   1.0000   1.0000   1.0000
     1.0000   1.0000   1.0000   1.0000   1.0000   1.0000   1.0000   1.0000
     1.0000   1.0000   1.0000   1.0000   1.0000   1.0000   1.0000   1.0000
     1.0000   1.0000   1.0000   1.0000   1.0000   1.0000   1.0000   1.0000
     1.0000   1.0000   1.0000   1.0000   1.0000   1.0000   1.0000   1.0000
     1.0000   1.0000   1.0000   1.0000   1.0000   1.0000   1.0000   1.0000
     1.0000   1.0000   1.0000   1.0000   1.0000   1.0000   1.0000   1.0000
     1.0000   1.0000   1.0000   1.0000   1.0000   1.0000   1.0000   1.0000
     1.0000   1.0000   1.0000   1.0000   1.0000   1.0000   1.0000   1.0000
     1.0000   1.0000   1.0000   1.0000   1.0000   1.0000   1.0000   1.0000
     1.0000   1.0000   1.0000   1.0000   1.0000   1.0000   1.0000   1.0000
     1.0000   1.0000   1.0000   1.0000   1.0000   1.0000   1.0000   1.0000
     1.0000   1.0000   1.0000   1.0000   1.0000   1.0000   1.0000   1.0000
     1.0000   1.0000   1.0000   1.0000   1.0000   1.0000   1.0000   1.0000
     1.0000   1.0000   1.0000   1.0000   1.0000   1.0000   1.0000   1.0000
     1.0000   1.0000   1.0000   1.0000   1.0000   1.0000   1.0000   1.0000
     1.0000   1.0000   1.0000   1.0000   1.0000   1.0000   1.0000   1.0000
     1.0000   1.0000   1.0000   1.0000   1.0000   1.0000   1.0000   1.0000
     1.0000   1.0000   1.0000   1.0000   1.0000   1.0000   1.0000   1.0000
     1.0000   1.0000   1.0000   1.0000   1.0000   1.0000   1.0000   1.0000
     1.0000   1.0000   1.0000   1.0000   0.9999   0.9999   0.9997   0.9995
     0.9991   0.9985   0.9979   0.9975   0.9965   0.9953   0.9914   0.9822
     0.9785   0.9391   0.8894   0.8466   0.8112   0.7335   0.6904   0.5530
     0.4946   0.2866   0.2083   0.0983   0.0368   0.0222   0.0149   0.0081
     0.0061   0.0026   0.0019   0.0001   0.0000   0.0000   0.0000   0.0000
     0.0000   0.0000   0.0000   0.0000   0.0000   0.0000   0.0000   0.0000
     0.0000   0.0000   0.0000   0.0000   0.0000   0.0000   0.0000   0.0000
     0.0000   0.0000   0.0000   0.0000   0.0000   0.0000   0.0000   0.0000
     0.0000   0.0000   0.0000   0.0000   0.0000   0.0000   0.0000   0.0000
     0.0000   0.0000   0.0000   0.0000   0.0000   0.0000   0.0000   0.0000
     0.0000   0.0000   0.0000   0.0000   0.0000   0.0000   0.0000   0.0000

          k = 0.1667-0.6736 0.0000 ( 88140 PWs)   bands (ev):

   -95.4144 -95.4074 -95.4071 -95.4026 -95.3874 -95.3855 -95.3846 -95.3811
   -95.3791 -95.3783 -95.3770 -95.3764 -95.3744 -95.3729 -95.3695 -95.3692
   -95.3689 -95.2191 -95.1925 -95.1897 -95.1888 -95.0151 -95.0092 -95.0084
   -94.9521 -94.9480 -94.9452 -94.9397 -94.9390 -94.9363 -94.9329 -94.9313
   -94.9308 -94.9301 -94.9239 -94.9223 -49.7167 -49.7043 -49.6977 -49.6883
   -49.6780 -49.6711 -49.6637 -49.6560 -49.6507 -49.6470 -49.6443 -49.6403
   -49.6300 -49.6194 -49.6137 -49.5756 -49.5706 -49.5609 -49.5530 -49.5488
   -49.5455 -49.5412 -49.5347 -49.5280 -49.5224 -49.5219 -49.5162 -49.5109
   -49.5085 -49.5003 -49.4953 -49.4919 -49.4896 -49.4847 -49.4791 -49.4768
   -49.4745 -49.4731 -49.4705 -49.4680 -49.4614 -49.4582 -49.4552 -49.4510
   -49.4482 -49.4470 -49.4412 -49.4387 -49.4352 -49.4289 -49.4241 -49.4175
   -49.4048 -49.3960 -49.3765 -49.3661 -49.3506 -49.3441 -49.3392 -49.3313
   -49.3184 -49.3059 -49.2994 -49.2948 -49.2813 -49.2746 -49.2683 -49.2617
   -49.2410 -49.2399 -49.2190 -49.2109 -49.1984 -49.1725 -49.1652 -49.1601
   -49.1576 -49.1398 -49.1371 -49.1367 -49.1317 -49.1212 -49.1200 -49.1186
   -49.1175 -49.1132 -49.0990 -49.0970 -49.0916 -49.0807 -49.0786 -49.0663
   -49.0542 -48.9229 -48.9138 -48.9130 -48.8820 -48.8771 -48.8723 -48.8654
   -48.8629 -48.8605 -48.8569 -48.8566 -48.8543 -48.8533 -48.8447 -48.8432
   -14.2038  -5.3777  -4.8397  -4.3443  -4.1100  -3.6386  -3.2742  -3.2380
    -3.2126  -3.1038  -3.0701  -3.0261  -2.9659  -2.8925  -2.8793  -2.7637
    -2.6919  -2.6821  -2.6352  -2.5979  -2.5484  -2.5321  -2.5147  -2.4976
    -2.4525  -2.3854  -2.3514  -2.3170  -2.2845  -2.2416  -2.1602  -2.1209
    -2.0933  -2.0748  -2.0217  -1.9971  -1.9129  -1.8492  -1.7995  -1.7281
    -1.6062  -1.5618  -1.5311  -1.4560  -1.4458  -1.4302  -1.4157  -1.3419
    -1.3217  -1.3009  -1.2323  -1.2085  -1.1288  -1.1134  -1.0913  -1.0655
    -1.0135  -0.9831  -0.9720  -0.9394  -0.9029  -0.8291  -0.7943  -0.7813
    -0.7612  -0.7234  -0.6839  -0.6410  -0.5721  -0.5405  -0.5052  -0.4761
    -0.4546  -0.4168  -0.4108  -0.3935  -0.3573  -0.3405  -0.2975  -0.2474
    -0.2300  -0.1962  -0.1636  -0.1487  -0.1332  -0.0871  -0.0725  -0.0430
    -0.0205   0.0216   0.0568   0.0802   0.0939   0.1126   0.1682   0.1842
     0.2074   0.2157   0.2335   0.2508   0.2692   0.2812   0.3121   0.3239
     0.3620   0.3976   0.4282   0.4543   0.4834   0.5426   0.5745   0.5890
     0.6459   0.7058   0.7258   0.8101   0.8570   0.9370   0.9478   0.9805
     1.0160   1.0299   1.0383   1.0718   1.0910   1.1433   1.1785   1.1975
     1.2201   1.2535   1.2867   1.3290   1.3496   1.3716   1.4206   1.4723
     1.5811   1.6044   1.6280   1.6699   1.7081   1.7310   1.7576   1.7663
     1.7891   1.8180   1.8359   1.8789   1.9491   1.9703   1.9931   2.0134
     2.0257   2.0459   2.1196   2.1613   2.2116   2.2604   2.3066   2.3774
     2.3863   2.4535   2.4953   2.5108   2.5694   2.6066   2.6402   2.7019
     2.7435   2.7768   2.7948   2.8223   2.8338   2.8523   2.9090   2.9369
     2.9552   2.9778   3.0066   3.0207   3.0451   3.0696   3.1305   3.1468
     3.1956   3.2164   3.2628   3.2694   3.3122   3.3265   3.3494   3.3736
     3.4069   3.5101   3.6775   4.0677   4.3360   4.3881   4.4556   4.6177
     4.7854   4.9695   5.0382   5.2846   5.3480   5.4120   5.4694   5.5915
     5.8513   5.9032   6.0792   6.3254   6.5065   6.6507   6.7178   6.8304
     7.0697   7.3325   7.5028   7.6751   7.7635   7.9474   8.5481   8.7518
     8.8078   8.8526   9.0962   9.2883   9.4050   9.4328   9.6688   9.7259
     9.8057   9.8763  10.0376  10.1335  10.2499  10.2755  10.3684  10.5822
    10.6660  10.8090  11.0079  11.0520  11.1216  11.1828  11.2390  11.2767

     occupation numbers 
     1.0000   1.0000   1.0000   1.0000   1.0000   1.0000   1.0000   1.0000
     1.0000   1.0000   1.0000   1.0000   1.0000   1.0000   1.0000   1.0000
     1.0000   1.0000   1.0000   1.0000   1.0000   1.0000   1.0000   1.0000
     1.0000   1.0000   1.0000   1.0000   1.0000   1.0000   1.0000   1.0000
     1.0000   1.0000   1.0000   1.0000   1.0000   1.0000   1.0000   1.0000
     1.0000   1.0000   1.0000   1.0000   1.0000   1.0000   1.0000   1.0000
     1.0000   1.0000   1.0000   1.0000   1.0000   1.0000   1.0000   1.0000
     1.0000   1.0000   1.0000   1.0000   1.0000   1.0000   1.0000   1.0000
     1.0000   1.0000   1.0000   1.0000   1.0000   1.0000   1.0000   1.0000
     1.0000   1.0000   1.0000   1.0000   1.0000   1.0000   1.0000   1.0000
     1.0000   1.0000   1.0000   1.0000   1.0000   1.0000   1.0000   1.0000
     1.0000   1.0000   1.0000   1.0000   1.0000   1.0000   1.0000   1.0000
     1.0000   1.0000   1.0000   1.0000   1.0000   1.0000   1.0000   1.0000
     1.0000   1.0000   1.0000   1.0000   1.0000   1.0000   1.0000   1.0000
     1.0000   1.0000   1.0000   1.0000   1.0000   1.0000   1.0000   1.0000
     1.0000   1.0000   1.0000   1.0000   1.0000   1.0000   1.0000   1.0000
     1.0000   1.0000   1.0000   1.0000   1.0000   1.0000   1.0000   1.0000
     1.0000   1.0000   1.0000   1.0000   1.0000   1.0000   1.0000   1.0000
     1.0000   1.0000   1.0000   1.0000   1.0000   1.0000   1.0000   1.0000
     1.0000   1.0000   1.0000   1.0000   1.0000   1.0000   1.0000   1.0000
     1.0000   1.0000   1.0000   1.0000   1.0000   1.0000   1.0000   1.0000
     1.0000   1.0000   1.0000   1.0000   1.0000   1.0000   1.0000   1.0000
     1.0000   1.0000   1.0000   1.0000   1.0000   1.0000   1.0000   1.0000
     1.0000   1.0000   1.0000   1.0000   1.0000   1.0000   1.0000   1.0000
     1.0000   1.0000   1.0000   1.0000   1.0000   1.0000   1.0000   1.0000
     1.0000   1.0000   1.0000   1.0000   1.0000   1.0000   1.0000   1.0000
     1.0000   1.0000   1.0000   1.0000   1.0000   1.0000   1.0000   1.0000
     1.0000   1.0000   1.0000   1.0000   1.0000   1.0000   1.0000   1.0000
     1.0000   1.0000   1.0000   1.0000   1.0000   1.0000   1.0000   1.0000
     1.0000   1.0000   1.0000   1.0000   1.0000   1.0000   1.0000   1.0000
     1.0000   1.0000   1.0000   1.0000   1.0000   1.0000   1.0000   1.0000
     1.0000   1.0000   1.0000   1.0000   1.0000   1.0000   1.0000   1.0000
     1.0000   1.0000   1.0000   1.0000   1.0000   1.0000   1.0000   1.0000
     1.0000   1.0000   1.0000   1.0000   1.0000   1.0000   1.0000   1.0000
     1.0000   1.0000   1.0000   1.0000   1.0000   1.0000   1.0000   1.0000
     1.0000   1.0000   1.0000   1.0000   1.0000   1.0000   1.0000   1.0000
     1.0000   1.0000   1.0000   1.0000   1.0000   1.0000   1.0000   1.0000
     1.0000   1.0000   1.0000   1.0000   1.0000   1.0000   1.0000   1.0000
     1.0000   1.0000   1.0000   1.0000   0.9999   0.9999   0.9997   0.9991
     0.9980   0.9962   0.9945   0.9905   0.9881   0.9828   0.9485   0.9134
     0.8797   0.8232   0.7234   0.6636   0.5479   0.4261   0.1800   0.1367
     0.0564   0.0379   0.0153   0.0135   0.0058   0.0043   0.0027   0.0017
     0.0009   0.0001   0.0000   0.0000   0.0000   0.0000   0.0000   0.0000
     0.0000   0.0000   0.0000   0.0000   0.0000   0.0000   0.0000   0.0000
     0.0000   0.0000   0.0000   0.0000   0.0000   0.0000   0.0000   0.0000
     0.0000   0.0000   0.0000   0.0000   0.0000   0.0000   0.0000   0.0000
     0.0000   0.0000   0.0000   0.0000   0.0000   0.0000   0.0000   0.0000
     0.0000   0.0000   0.0000   0.0000   0.0000   0.0000   0.0000   0.0000
     0.0000   0.0000   0.0000   0.0000   0.0000   0.0000   0.0000   0.0000

          k = 0.1667-0.4811 0.0000 ( 88140 PWs)   bands (ev):

   -95.4144 -95.4074 -95.4071 -95.4025 -95.3874 -95.3855 -95.3846 -95.3811
   -95.3791 -95.3783 -95.3770 -95.3764 -95.3744 -95.3729 -95.3695 -95.3692
   -95.3689 -95.2191 -95.1925 -95.1897 -95.1888 -95.0151 -95.0092 -95.0084
   -94.9521 -94.9480 -94.9452 -94.9397 -94.9390 -94.9363 -94.9329 -94.9313
   -94.9308 -94.9301 -94.9239 -94.9223 -49.7167 -49.7043 -49.6977 -49.6883
   -49.6780 -49.6711 -49.6637 -49.6560 -49.6507 -49.6470 -49.6443 -49.6403
   -49.6299 -49.6194 -49.6137 -49.5756 -49.5706 -49.5609 -49.5530 -49.5488
   -49.5455 -49.5412 -49.5347 -49.5279 -49.5224 -49.5219 -49.5162 -49.5109
   -49.5085 -49.5002 -49.4953 -49.4919 -49.4896 -49.4847 -49.4791 -49.4768
   -49.4745 -49.4731 -49.4705 -49.4680 -49.4614 -49.4582 -49.4552 -49.4510
   -49.4482 -49.4470 -49.4412 -49.4387 -49.4352 -49.4289 -49.4241 -49.4175
   -49.4048 -49.3959 -49.3764 -49.3661 -49.3506 -49.3441 -49.3392 -49.3313
   -49.3184 -49.3059 -49.2994 -49.2948 -49.2813 -49.2746 -49.2683 -49.2617
   -49.2410 -49.2399 -49.2190 -49.2109 -49.1984 -49.1725 -49.1652 -49.1601
   -49.1576 -49.1398 -49.1371 -49.1367 -49.1317 -49.1212 -49.1200 -49.1186
   -49.1175 -49.1132 -49.0990 -49.0971 -49.0916 -49.0807 -49.0786 -49.0663
   -49.0542 -48.9229 -48.9138 -48.9130 -48.8820 -48.8771 -48.8723 -48.8654
   -48.8629 -48.8604 -48.8569 -48.8566 -48.8543 -48.8533 -48.8447 -48.8432
   -14.2038  -5.3777  -4.8397  -4.3443  -4.1100  -3.6386  -3.2742  -3.2381
    -3.2126  -3.1038  -3.0701  -3.0261  -2.9659  -2.8925  -2.8793  -2.7637
    -2.6919  -2.6821  -2.6352  -2.5979  -2.5484  -2.5321  -2.5147  -2.4976
    -2.4525  -2.3855  -2.3514  -2.3170  -2.2845  -2.2416  -2.1602  -2.1209
    -2.0933  -2.0748  -2.0217  -1.9970  -1.9129  -1.8492  -1.7995  -1.7281
    -1.6062  -1.5618  -1.5310  -1.4560  -1.4458  -1.4302  -1.4157  -1.3420
    -1.3217  -1.3009  -1.2322  -1.2084  -1.1288  -1.1134  -1.0913  -1.0655
    -1.0134  -0.9831  -0.9720  -0.9394  -0.9029  -0.8291  -0.7943  -0.7813
    -0.7612  -0.7234  -0.6840  -0.6410  -0.5721  -0.5405  -0.5052  -0.4761
    -0.4546  -0.4168  -0.4108  -0.3935  -0.3573  -0.3405  -0.2975  -0.2474
    -0.2299  -0.1962  -0.1636  -0.1487  -0.1332  -0.0871  -0.0725  -0.0430
    -0.0205   0.0216   0.0569   0.0802   0.0939   0.1126   0.1683   0.1842
     0.2074   0.2157   0.2335   0.2507   0.2692   0.2812   0.3121   0.3239
     0.3620   0.3976   0.4282   0.4543   0.4834   0.5426   0.5745   0.5890
     0.6459   0.7058   0.7258   0.8101   0.8570   0.9370   0.9478   0.9804
     1.0159   1.0299   1.0383   1.0718   1.0910   1.1433   1.1785   1.1975
     1.2201   1.2534   1.2867   1.3290   1.3496   1.3716   1.4206   1.4724
     1.5811   1.6044   1.6280   1.6699   1.7081   1.7310   1.7576   1.7663
     1.7891   1.8180   1.8359   1.8789   1.9491   1.9703   1.9931   2.0134
     2.0257   2.0458   2.1196   2.1613   2.2116   2.2604   2.3065   2.3774
     2.3863   2.4535   2.4954   2.5108   2.5694   2.6066   2.6402   2.7019
     2.7435   2.7768   2.7948   2.8223   2.8338   2.8523   2.9090   2.9369
     2.9552   2.9778   3.0066   3.0207   3.0451   3.0696   3.1305   3.1468
     3.1956   3.2164   3.2628   3.2694   3.3122   3.3265   3.3494   3.3736
     3.4069   3.5101   3.6775   4.0677   4.3360   4.3881   4.4556   4.6177
     4.7854   4.9695   5.0382   5.2846   5.3480   5.4120   5.4694   5.5915
     5.8513   5.9032   6.0792   6.3254   6.5065   6.6507   6.7178   6.8304
     7.0697   7.3326   7.5028   7.6752   7.7635   7.9474   8.5482   8.7518
     8.8078   8.8526   9.0962   9.2883   9.4050   9.4328   9.6688   9.7259
     9.8057   9.8763  10.0375  10.1335  10.2498  10.2755  10.3684  10.5821
    10.6660  10.8090  11.0079  11.0520  11.1217  11.1829  11.2390  11.2767

     occupation numbers 
     1.0000   1.0000   1.0000   1.0000   1.0000   1.0000   1.0000   1.0000
     1.0000   1.0000   1.0000   1.0000   1.0000   1.0000   1.0000   1.0000
     1.0000   1.0000   1.0000   1.0000   1.0000   1.0000   1.0000   1.0000
     1.0000   1.0000   1.0000   1.0000   1.0000   1.0000   1.0000   1.0000
     1.0000   1.0000   1.0000   1.0000   1.0000   1.0000   1.0000   1.0000
     1.0000   1.0000   1.0000   1.0000   1.0000   1.0000   1.0000   1.0000
     1.0000   1.0000   1.0000   1.0000   1.0000   1.0000   1.0000   1.0000
     1.0000   1.0000   1.0000   1.0000   1.0000   1.0000   1.0000   1.0000
     1.0000   1.0000   1.0000   1.0000   1.0000   1.0000   1.0000   1.0000
     1.0000   1.0000   1.0000   1.0000   1.0000   1.0000   1.0000   1.0000
     1.0000   1.0000   1.0000   1.0000   1.0000   1.0000   1.0000   1.0000
     1.0000   1.0000   1.0000   1.0000   1.0000   1.0000   1.0000   1.0000
     1.0000   1.0000   1.0000   1.0000   1.0000   1.0000   1.0000   1.0000
     1.0000   1.0000   1.0000   1.0000   1.0000   1.0000   1.0000   1.0000
     1.0000   1.0000   1.0000   1.0000   1.0000   1.0000   1.0000   1.0000
     1.0000   1.0000   1.0000   1.0000   1.0000   1.0000   1.0000   1.0000
     1.0000   1.0000   1.0000   1.0000   1.0000   1.0000   1.0000   1.0000
     1.0000   1.0000   1.0000   1.0000   1.0000   1.0000   1.0000   1.0000
     1.0000   1.0000   1.0000   1.0000   1.0000   1.0000   1.0000   1.0000
     1.0000   1.0000   1.0000   1.0000   1.0000   1.0000   1.0000   1.0000
     1.0000   1.0000   1.0000   1.0000   1.0000   1.0000   1.0000   1.0000
     1.0000   1.0000   1.0000   1.0000   1.0000   1.0000   1.0000   1.0000
     1.0000   1.0000   1.0000   1.0000   1.0000   1.0000   1.0000   1.0000
     1.0000   1.0000   1.0000   1.0000   1.0000   1.0000   1.0000   1.0000
     1.0000   1.0000   1.0000   1.0000   1.0000   1.0000   1.0000   1.0000
     1.0000   1.0000   1.0000   1.0000   1.0000   1.0000   1.0000   1.0000
     1.0000   1.0000   1.0000   1.0000   1.0000   1.0000   1.0000   1.0000
     1.0000   1.0000   1.0000   1.0000   1.0000   1.0000   1.0000   1.0000
     1.0000   1.0000   1.0000   1.0000   1.0000   1.0000   1.0000   1.0000
     1.0000   1.0000   1.0000   1.0000   1.0000   1.0000   1.0000   1.0000
     1.0000   1.0000   1.0000   1.0000   1.0000   1.0000   1.0000   1.0000
     1.0000   1.0000   1.0000   1.0000   1.0000   1.0000   1.0000   1.0000
     1.0000   1.0000   1.0000   1.0000   1.0000   1.0000   1.0000   1.0000
     1.0000   1.0000   1.0000   1.0000   1.0000   1.0000   1.0000   1.0000
     1.0000   1.0000   1.0000   1.0000   1.0000   1.0000   1.0000   1.0000
     1.0000   1.0000   1.0000   1.0000   1.0000   1.0000   1.0000   1.0000
     1.0000   1.0000   1.0000   1.0000   1.0000   1.0000   1.0000   1.0000
     1.0000   1.0000   1.0000   1.0000   1.0000   1.0000   1.0000   1.0000
     1.0000   1.0000   1.0000   1.0000   0.9999   0.9999   0.9997   0.9991
     0.9980   0.9962   0.9945   0.9905   0.9881   0.9828   0.9485   0.9134
     0.8797   0.8232   0.7235   0.6636   0.5478   0.4260   0.1800   0.1367
     0.0564   0.0379   0.0153   0.0135   0.0058   0.0043   0.0028   0.0017
     0.0009   0.0001   0.0000   0.0000   0.0000   0.0000   0.0000   0.0000
     0.0000   0.0000   0.0000   0.0000   0.0000   0.0000   0.0000   0.0000
     0.0000   0.0000   0.0000   0.0000   0.0000   0.0000   0.0000   0.0000
     0.0000   0.0000   0.0000   0.0000   0.0000   0.0000   0.0000   0.0000
     0.0000   0.0000   0.0000   0.0000   0.0000   0.0000   0.0000   0.0000
     0.0000   0.0000   0.0000   0.0000   0.0000   0.0000   0.0000   0.0000
     0.0000   0.0000   0.0000   0.0000   0.0000   0.0000   0.0000   0.0000

          k = 0.1667-0.2887 0.0000 ( 88188 PWs)   bands (ev):

   -95.4148 -95.4073 -95.4068 -95.4026 -95.3876 -95.3846 -95.3842 -95.3813
   -95.3802 -95.3794 -95.3762 -95.3756 -95.3741 -95.3731 -95.3698 -95.3693
   -95.3689 -95.2191 -95.1925 -95.1897 -95.1888 -95.0151 -95.0092 -95.0084
   -94.9531 -94.9466 -94.9449 -94.9402 -94.9387 -94.9365 -94.9335 -94.9313
   -94.9305 -94.9301 -94.9239 -94.9223 -49.7020 -49.6996 -49.6852 -49.6800
   -49.6710 -49.6630 -49.6591 -49.6559 -49.6468 -49.6440 -49.6436 -49.6349
   -49.6315 -49.6240 -49.6154 -49.5871 -49.5828 -49.5714 -49.5695 -49.5578
   -49.5532 -49.5463 -49.5441 -49.5404 -49.5365 -49.5274 -49.5228 -49.5163
   -49.5124 -49.5012 -49.4987 -49.4956 -49.4865 -49.4840 -49.4833 -49.4788
   -49.4741 -49.4720 -49.4674 -49.4613 -49.4582 -49.4555 -49.4515 -49.4484
   -49.4451 -49.4437 -49.4389 -49.4341 -49.4294 -49.4257 -49.4124 -49.4083
   -49.4044 -49.3916 -49.3716 -49.3639 -49.3458 -49.3438 -49.3364 -49.3262
   -49.3053 -49.3019 -49.2942 -49.2849 -49.2801 -49.2730 -49.2637 -49.2558
   -49.2524 -49.2498 -49.2314 -49.2258 -49.2067 -49.1933 -49.1891 -49.1866
   -49.1849 -49.1474 -49.1332 -49.1235 -49.1179 -49.1152 -49.1130 -49.1121
   -49.1095 -49.1080 -49.1004 -49.0847 -49.0801 -49.0792 -49.0747 -49.0650
   -49.0457 -48.9232 -48.9138 -48.9128 -48.8846 -48.8741 -48.8710 -48.8656
   -48.8639 -48.8611 -48.8576 -48.8570 -48.8535 -48.8530 -48.8447 -48.8431
   -14.2039  -5.7677  -4.4829  -4.2563  -4.2138  -3.4022  -3.3315  -3.3145
    -3.2967  -3.2914  -3.2756  -3.2345  -3.1707  -3.0468  -3.0293  -2.7775
    -2.7383  -2.6012  -2.5931  -2.4994  -2.4691  -2.4486  -2.4297  -2.4142
    -2.4045  -2.3322  -2.3198  -2.3148  -2.2646  -2.2536  -2.2139  -2.1357
    -2.1275  -2.1086  -2.0971  -1.9775  -1.9171  -1.7888  -1.7697  -1.6811
    -1.6697  -1.6302  -1.5726  -1.5426  -1.5356  -1.4592  -1.4344  -1.3712
    -1.3175  -1.2505  -1.2296  -1.2079  -1.1388  -1.1190  -1.0997  -1.0223
    -1.0017  -0.8431  -0.8051  -0.7845  -0.7400  -0.7299  -0.6991  -0.6570
    -0.6372  -0.6142  -0.5975  -0.5733  -0.5017  -0.4651  -0.4396  -0.4295
    -0.4104  -0.3837  -0.3484  -0.2990  -0.2746  -0.2080  -0.1989  -0.1848
    -0.1484  -0.1253  -0.0901  -0.0802  -0.0667  -0.0395  -0.0276  -0.0212
     0.0023   0.0061   0.0182   0.0869   0.1001   0.1563   0.1710   0.2001
     0.2245   0.2391   0.2506   0.2941   0.3026   0.3139   0.3254   0.3379
     0.3732   0.3981   0.4191   0.4417   0.4631   0.5465   0.5610   0.6124
     0.6344   0.6661   0.7149   0.8064   0.8892   0.9286   0.9633   0.9933
     1.0477   1.0813   1.1014   1.1115   1.1213   1.1358   1.1541   1.2478
     1.2805   1.3202   1.3970   1.4662   1.5021   1.5197   1.5721   1.5977
     1.5998   1.6366   1.6772   1.6941   1.7364   1.7957   1.8350   1.8381
     1.8778   1.8938   1.9305   1.9517   1.9809   2.0063   2.0135   2.0331
     2.0702   2.0993   2.1215   2.1391   2.1433   2.1773   2.2351   2.3153
     2.3375   2.4525   2.4756   2.5356   2.5779   2.6047   2.6449   2.6710
     2.7022   2.7283   2.7457   2.7555   2.7726   2.7864   2.8174   2.8542
     2.8639   2.9180   2.9505   2.9692   2.9818   3.0041   3.0146   3.0440
     3.0558   3.1003   3.1215   3.1655   3.2180   3.2438   3.2641   3.2948
     3.3093   3.3524   3.3687   3.5342   3.6512   3.6821   3.7498   3.9676
     4.1196   4.1868   4.5101   4.5965   5.1112   5.1324   5.4214   5.5435
     5.7624   5.9344   6.6572   6.6817   6.8102   6.9078   7.0989   7.3863
     7.5369   7.7989   7.9512   7.9712   8.0754   8.2637   8.9337   8.9448
     9.0583   9.1401   9.1860   9.3238   9.4071   9.6378   9.6670   9.7683
     9.8170   9.8697  10.0443  10.1920  10.2920  10.5144  10.5464  10.5847
    10.6726  10.7600  10.8502  10.9627  11.1880  11.2137  11.2576  11.3256

     occupation numbers 
     1.0000   1.0000   1.0000   1.0000   1.0000   1.0000   1.0000   1.0000
     1.0000   1.0000   1.0000   1.0000   1.0000   1.0000   1.0000   1.0000
     1.0000   1.0000   1.0000   1.0000   1.0000   1.0000   1.0000   1.0000
     1.0000   1.0000   1.0000   1.0000   1.0000   1.0000   1.0000   1.0000
     1.0000   1.0000   1.0000   1.0000   1.0000   1.0000   1.0000   1.0000
     1.0000   1.0000   1.0000   1.0000   1.0000   1.0000   1.0000   1.0000
     1.0000   1.0000   1.0000   1.0000   1.0000   1.0000   1.0000   1.0000
     1.0000   1.0000   1.0000   1.0000   1.0000   1.0000   1.0000   1.0000
     1.0000   1.0000   1.0000   1.0000   1.0000   1.0000   1.0000   1.0000
     1.0000   1.0000   1.0000   1.0000   1.0000   1.0000   1.0000   1.0000
     1.0000   1.0000   1.0000   1.0000   1.0000   1.0000   1.0000   1.0000
     1.0000   1.0000   1.0000   1.0000   1.0000   1.0000   1.0000   1.0000
     1.0000   1.0000   1.0000   1.0000   1.0000   1.0000   1.0000   1.0000
     1.0000   1.0000   1.0000   1.0000   1.0000   1.0000   1.0000   1.0000
     1.0000   1.0000   1.0000   1.0000   1.0000   1.0000   1.0000   1.0000
     1.0000   1.0000   1.0000   1.0000   1.0000   1.0000   1.0000   1.0000
     1.0000   1.0000   1.0000   1.0000   1.0000   1.0000   1.0000   1.0000
     1.0000   1.0000   1.0000   1.0000   1.0000   1.0000   1.0000   1.0000
     1.0000   1.0000   1.0000   1.0000   1.0000   1.0000   1.0000   1.0000
     1.0000   1.0000   1.0000   1.0000   1.0000   1.0000   1.0000   1.0000
     1.0000   1.0000   1.0000   1.0000   1.0000   1.0000   1.0000   1.0000
     1.0000   1.0000   1.0000   1.0000   1.0000   1.0000   1.0000   1.0000
     1.0000   1.0000   1.0000   1.0000   1.0000   1.0000   1.0000   1.0000
     1.0000   1.0000   1.0000   1.0000   1.0000   1.0000   1.0000   1.0000
     1.0000   1.0000   1.0000   1.0000   1.0000   1.0000   1.0000   1.0000
     1.0000   1.0000   1.0000   1.0000   1.0000   1.0000   1.0000   1.0000
     1.0000   1.0000   1.0000   1.0000   1.0000   1.0000   1.0000   1.0000
     1.0000   1.0000   1.0000   1.0000   1.0000   1.0000   1.0000   1.0000
     1.0000   1.0000   1.0000   1.0000   1.0000   1.0000   1.0000   1.0000
     1.0000   1.0000   1.0000   1.0000   1.0000   1.0000   1.0000   1.0000
     1.0000   1.0000   1.0000   1.0000   1.0000   1.0000   1.0000   1.0000
     1.0000   1.0000   1.0000   1.0000   1.0000   1.0000   1.0000   1.0000
     1.0000   1.0000   1.0000   1.0000   1.0000   1.0000   1.0000   1.0000
     1.0000   1.0000   1.0000   1.0000   1.0000   1.0000   1.0000   1.0000
     1.0000   1.0000   1.0000   1.0000   1.0000   1.0000   1.0000   1.0000
     1.0000   1.0000   1.0000   1.0000   1.0000   1.0000   1.0000   1.0000
     1.0000   1.0000   1.0000   1.0000   1.0000   1.0000   1.0000   1.0000
     1.0000   1.0000   1.0000   1.0000   1.0000   1.0000   1.0000   1.0000
     1.0000   1.0000   1.0000   1.0000   0.9999   0.9999   0.9997   0.9995
     0.9991   0.9985   0.9979   0.9975   0.9965   0.9953   0.9914   0.9822
     0.9785   0.9390   0.8893   0.8467   0.8111   0.7335   0.6904   0.5530
     0.4946   0.2866   0.2083   0.0983   0.0368   0.0222   0.0149   0.0081
     0.0061   0.0026   0.0019   0.0001   0.0000   0.0000   0.0000   0.0000
     0.0000   0.0000   0.0000   0.0000   0.0000   0.0000   0.0000   0.0000
     0.0000   0.0000   0.0000   0.0000   0.0000   0.0000   0.0000   0.0000
     0.0000   0.0000   0.0000   0.0000   0.0000   0.0000   0.0000   0.0000
     0.0000   0.0000   0.0000   0.0000   0.0000   0.0000   0.0000   0.0000
     0.0000   0.0000   0.0000   0.0000   0.0000   0.0000   0.0000   0.0000
     0.0000   0.0000   0.0000   0.0000   0.0000   0.0000   0.0000   0.0000

          k = 0.3333-0.1925 0.0000 ( 88170 PWs)   bands (ev):

   -95.4147 -95.4076 -95.4066 -95.4026 -95.3876 -95.3850 -95.3841 -95.3817
   -95.3795 -95.3791 -95.3764 -95.3761 -95.3740 -95.3730 -95.3696 -95.3694
   -95.3688 -95.2191 -95.1925 -95.1896 -95.1889 -95.0151 -95.0092 -95.0083
   -94.9528 -94.9472 -94.9448 -94.9401 -94.9388 -94.9364 -94.9333 -94.9313
   -94.9304 -94.9302 -94.9239 -94.9223 -49.7115 -49.6947 -49.6866 -49.6822
   -49.6702 -49.6692 -49.6627 -49.6582 -49.6544 -49.6489 -49.6470 -49.6382
   -49.6270 -49.6164 -49.5997 -49.5951 -49.5736 -49.5711 -49.5659 -49.5562
   -49.5470 -49.5422 -49.5403 -49.5351 -49.5340 -49.5307 -49.5254 -49.5166
   -49.5069 -49.4985 -49.4981 -49.4929 -49.4905 -49.4839 -49.4835 -49.4767
   -49.4739 -49.4700 -49.4670 -49.4625 -49.4585 -49.4558 -49.4537 -49.4504
   -49.4466 -49.4454 -49.4377 -49.4367 -49.4283 -49.4242 -49.4221 -49.4131
   -49.4032 -49.3919 -49.3717 -49.3678 -49.3481 -49.3410 -49.3362 -49.3302
   -49.3147 -49.2962 -49.2865 -49.2856 -49.2820 -49.2812 -49.2771 -49.2654
   -49.2501 -49.2274 -49.2153 -49.2152 -49.2146 -49.2080 -49.1813 -49.1809
   -49.1601 -49.1517 -49.1328 -49.1242 -49.1236 -49.1225 -49.1189 -49.1106
   -49.1091 -49.0997 -49.0966 -49.0964 -49.0893 -49.0748 -49.0734 -49.0698
   -49.0477 -48.9231 -48.9140 -48.9127 -48.8839 -48.8755 -48.8703 -48.8668
   -48.8632 -48.8607 -48.8572 -48.8570 -48.8536 -48.8533 -48.8448 -48.8431
   -14.2039  -5.6684  -4.6106  -4.3838  -3.7573  -3.7489  -3.4750  -3.3505
    -3.2995  -3.2239  -3.1469  -3.1125  -3.1067  -2.9130  -2.8690  -2.8033
    -2.7962  -2.6895  -2.5869  -2.5423  -2.4594  -2.4579  -2.4314  -2.4203
    -2.4021  -2.3962  -2.3819  -2.3372  -2.2671  -2.2545  -2.2189  -2.2096
    -1.9828  -1.9733  -1.9678  -1.9499  -1.9191  -1.9059  -1.7257  -1.7087
    -1.6392  -1.6350  -1.5987  -1.5071  -1.4926  -1.4753  -1.4439  -1.4358
    -1.2695  -1.2682  -1.2280  -1.2212  -1.1962  -1.1713  -1.1017  -1.0811
    -1.0133  -0.9624  -0.8548  -0.8455  -0.8230  -0.7716  -0.6936  -0.6833
    -0.6547  -0.6348  -0.6294  -0.5802  -0.5107  -0.4691  -0.4618  -0.3845
    -0.3545  -0.3290  -0.3285  -0.3176  -0.2845  -0.2524  -0.2292  -0.1978
    -0.1809  -0.1774  -0.1277  -0.1186  -0.1055  -0.0900  -0.0495  -0.0480
    -0.0369  -0.0163  -0.0075   0.0165   0.0360   0.0839   0.0867   0.1051
     0.2012   0.2401   0.2559   0.2632   0.2934   0.3054   0.3597   0.3875
     0.4075   0.4569   0.4631   0.5341   0.5499   0.5972   0.6070   0.7195
     0.7200   0.7413   0.7759   0.7789   0.9290   0.9781   0.9892   1.0087
     1.0131   1.0448   1.0491   1.0649   1.1012   1.1576   1.1783   1.1808
     1.2101   1.2169   1.2776   1.3289   1.3790   1.4151   1.4188   1.5790
     1.5861   1.6014   1.6102   1.6626   1.6693   1.7956   1.8542   1.8617
     1.8901   1.8999   1.9201   1.9455   1.9614   2.0077   2.0440   2.0825
     2.1143   2.1494   2.1706   2.2131   2.2238   2.2562   2.2582   2.3017
     2.3637   2.3908   2.4475   2.4942   2.5225   2.5382   2.5801   2.5829
     2.6412   2.6543   2.7260   2.7439   2.7574   2.8027   2.8725   2.8778
     2.9099   2.9333   2.9588   2.9674   2.9927   3.0150   3.0303   3.0698
     3.0747   3.1345   3.2205   3.2261   3.2333   3.2498   3.2858   3.3636
     3.3972   3.4576   3.5980   3.9005   3.9151   3.9396   3.9518   4.1108
     4.2325   4.3281   4.4970   5.1968   5.2305   5.2861   5.3429   5.6715
     5.9114   5.9206   6.0495   6.1506   6.6544   6.7726   7.1931   7.4161
     7.4535   7.5870   7.8626   8.0344   8.3415   8.3636   8.6997   8.7714
     8.8556   9.2316   9.2758   9.3231   9.3271   9.5778   9.6153   9.7341
     9.7595   9.9601  10.0983  10.1610  10.2913  10.3320  10.4511  10.4635
    10.5785  10.6405  10.7151  10.8612  11.0337  11.3088  11.3253  11.4086

     occupation numbers 
     1.0000   1.0000   1.0000   1.0000   1.0000   1.0000   1.0000   1.0000
     1.0000   1.0000   1.0000   1.0000   1.0000   1.0000   1.0000   1.0000
     1.0000   1.0000   1.0000   1.0000   1.0000   1.0000   1.0000   1.0000
     1.0000   1.0000   1.0000   1.0000   1.0000   1.0000   1.0000   1.0000
     1.0000   1.0000   1.0000   1.0000   1.0000   1.0000   1.0000   1.0000
     1.0000   1.0000   1.0000   1.0000   1.0000   1.0000   1.0000   1.0000
     1.0000   1.0000   1.0000   1.0000   1.0000   1.0000   1.0000   1.0000
     1.0000   1.0000   1.0000   1.0000   1.0000   1.0000   1.0000   1.0000
     1.0000   1.0000   1.0000   1.0000   1.0000   1.0000   1.0000   1.0000
     1.0000   1.0000   1.0000   1.0000   1.0000   1.0000   1.0000   1.0000
     1.0000   1.0000   1.0000   1.0000   1.0000   1.0000   1.0000   1.0000
     1.0000   1.0000   1.0000   1.0000   1.0000   1.0000   1.0000   1.0000
     1.0000   1.0000   1.0000   1.0000   1.0000   1.0000   1.0000   1.0000
     1.0000   1.0000   1.0000   1.0000   1.0000   1.0000   1.0000   1.0000
     1.0000   1.0000   1.0000   1.0000   1.0000   1.0000   1.0000   1.0000
     1.0000   1.0000   1.0000   1.0000   1.0000   1.0000   1.0000   1.0000
     1.0000   1.0000   1.0000   1.0000   1.0000   1.0000   1.0000   1.0000
     1.0000   1.0000   1.0000   1.0000   1.0000   1.0000   1.0000   1.0000
     1.0000   1.0000   1.0000   1.0000   1.0000   1.0000   1.0000   1.0000
     1.0000   1.0000   1.0000   1.0000   1.0000   1.0000   1.0000   1.0000
     1.0000   1.0000   1.0000   1.0000   1.0000   1.0000   1.0000   1.0000
     1.0000   1.0000   1.0000   1.0000   1.0000   1.0000   1.0000   1.0000
     1.0000   1.0000   1.0000   1.0000   1.0000   1.0000   1.0000   1.0000
     1.0000   1.0000   1.0000   1.0000   1.0000   1.0000   1.0000   1.0000
     1.0000   1.0000   1.0000   1.0000   1.0000   1.0000   1.0000   1.0000
     1.0000   1.0000   1.0000   1.0000   1.0000   1.0000   1.0000   1.0000
     1.0000   1.0000   1.0000   1.0000   1.0000   1.0000   1.0000   1.0000
     1.0000   1.0000   1.0000   1.0000   1.0000   1.0000   1.0000   1.0000
     1.0000   1.0000   1.0000   1.0000   1.0000   1.0000   1.0000   1.0000
     1.0000   1.0000   1.0000   1.0000   1.0000   1.0000   1.0000   1.0000
     1.0000   1.0000   1.0000   1.0000   1.0000   1.0000   1.0000   1.0000
     1.0000   1.0000   1.0000   1.0000   1.0000   1.0000   1.0000   1.0000
     1.0000   1.0000   1.0000   1.0000   1.0000   1.0000   1.0000   1.0000
     1.0000   1.0000   1.0000   1.0000   1.0000   1.0000   1.0000   1.0000
     1.0000   1.0000   1.0000   1.0000   1.0000   1.0000   1.0000   1.0000
     1.0000   1.0000   1.0000   1.0000   1.0000   1.0000   1.0000   1.0000
     1.0000   1.0000   1.0000   1.0000   1.0000   1.0000   1.0000   1.0000
     1.0000   1.0000   1.0000   1.0000   1.0000   1.0000   1.0000   1.0000
     1.0000   1.0000   1.0000   1.0000   1.0000   1.0000   0.9999   0.9999
     0.9997   0.9997   0.9986   0.9980   0.9974   0.9936   0.9745   0.9718
     0.9476   0.9189   0.8719   0.8514   0.7757   0.6887   0.6198   0.4253
     0.4014   0.1686   0.0350   0.0314   0.0273   0.0198   0.0097   0.0021
     0.0011   0.0003   0.0000   0.0000   0.0000   0.0000   0.0000   0.0000
     0.0000   0.0000   0.0000   0.0000   0.0000   0.0000   0.0000   0.0000
     0.0000   0.0000   0.0000   0.0000   0.0000   0.0000   0.0000   0.0000
     0.0000   0.0000   0.0000   0.0000   0.0000   0.0000   0.0000   0.0000
     0.0000   0.0000   0.0000   0.0000   0.0000   0.0000   0.0000   0.0000
     0.0000   0.0000   0.0000   0.0000   0.0000   0.0000   0.0000   0.0000
     0.0000   0.0000   0.0000   0.0000   0.0000   0.0000   0.0000   0.0000

          k = 0.3333 0.0000 0.0000 ( 88188 PWs)   bands (ev):

   -95.4148 -95.4076 -95.4065 -95.4027 -95.3876 -95.3847 -95.3842 -95.3812
   -95.3804 -95.3792 -95.3762 -95.3757 -95.3744 -95.3728 -95.3697 -95.3695
   -95.3687 -95.2191 -95.1925 -95.1896 -95.1889 -95.0151 -95.0092 -95.0083
   -94.9532 -94.9466 -94.9450 -94.9401 -94.9386 -94.9366 -94.9335 -94.9313
   -94.9304 -94.9301 -94.9239 -94.9223 -49.7011 -49.6989 -49.6860 -49.6800
   -49.6715 -49.6630 -49.6588 -49.6556 -49.6474 -49.6438 -49.6437 -49.6355
   -49.6315 -49.6240 -49.6157 -49.5877 -49.5824 -49.5712 -49.5692 -49.5581
   -49.5533 -49.5461 -49.5442 -49.5404 -49.5367 -49.5275 -49.5230 -49.5159
   -49.5124 -49.5012 -49.4983 -49.4953 -49.4866 -49.4842 -49.4832 -49.4787
   -49.4743 -49.4720 -49.4674 -49.4614 -49.4580 -49.4553 -49.4518 -49.4479
   -49.4448 -49.4437 -49.4388 -49.4343 -49.4299 -49.4251 -49.4121 -49.4087
   -49.4043 -49.3923 -49.3717 -49.3639 -49.3454 -49.3435 -49.3369 -49.3263
   -49.3053 -49.3018 -49.2941 -49.2851 -49.2800 -49.2728 -49.2637 -49.2560
   -49.2526 -49.2501 -49.2313 -49.2258 -49.2067 -49.1935 -49.1890 -49.1867
   -49.1847 -49.1474 -49.1329 -49.1235 -49.1183 -49.1152 -49.1130 -49.1121
   -49.1093 -49.1075 -49.1006 -49.0847 -49.0802 -49.0792 -49.0747 -49.0648
   -49.0459 -48.9232 -48.9140 -48.9126 -48.8846 -48.8740 -48.8711 -48.8654
   -48.8639 -48.8611 -48.8576 -48.8570 -48.8535 -48.8530 -48.8448 -48.8431
   -14.2039  -5.7678  -4.4829  -4.2563  -4.2144  -3.4023  -3.3298  -3.3147
    -3.2969  -3.2915  -3.2758  -3.2341  -3.1708  -3.0465  -3.0294  -2.7790
    -2.7399  -2.6006  -2.5928  -2.5001  -2.4694  -2.4498  -2.4297  -2.4146
    -2.4045  -2.3313  -2.3187  -2.3138  -2.2645  -2.2537  -2.2122  -2.1353
    -2.1274  -2.1095  -2.0981  -1.9769  -1.9193  -1.7878  -1.7692  -1.6802
    -1.6692  -1.6298  -1.5720  -1.5429  -1.5353  -1.4592  -1.4353  -1.3703
    -1.3174  -1.2507  -1.2284  -1.2083  -1.1379  -1.1194  -1.0995  -1.0223
    -1.0014  -0.8418  -0.8040  -0.7830  -0.7385  -0.7292  -0.6984  -0.6565
    -0.6375  -0.6146  -0.5968  -0.5729  -0.5027  -0.4650  -0.4410  -0.4306
    -0.4109  -0.3854  -0.3487  -0.2983  -0.2723  -0.2084  -0.2000  -0.1851
    -0.1496  -0.1251  -0.0918  -0.0809  -0.0662  -0.0396  -0.0288  -0.0220
     0.0021   0.0051   0.0184   0.0863   0.1010   0.1569   0.1723   0.2008
     0.2245   0.2393   0.2504   0.2945   0.3016   0.3143   0.3260   0.3367
     0.3722   0.3982   0.4187   0.4411   0.4641   0.5452   0.5605   0.6126
     0.6346   0.6662   0.7145   0.8063   0.8873   0.9286   0.9641   0.9929
     1.0484   1.0817   1.1008   1.1116   1.1201   1.1358   1.1529   1.2476
     1.2796   1.3198   1.4002   1.4630   1.5021   1.5196   1.5712   1.5978
     1.5989   1.6362   1.6774   1.6944   1.7363   1.7960   1.8348   1.8381
     1.8776   1.8939   1.9299   1.9532   1.9818   2.0073   2.0138   2.0334
     2.0712   2.1000   2.1220   2.1395   2.1440   2.1778   2.2342   2.3152
     2.3367   2.4514   2.4748   2.5351   2.5778   2.6054   2.6449   2.6706
     2.7018   2.7283   2.7460   2.7561   2.7729   2.7866   2.8171   2.8532
     2.8639   2.9171   2.9500   2.9706   2.9812   3.0036   3.0146   3.0443
     3.0555   3.0998   3.1214   3.1652   3.2185   3.2454   3.2648   3.2959
     3.3109   3.3525   3.3691   3.5347   3.6512   3.6817   3.7490   3.9678
     4.1204   4.1877   4.5116   4.5970   5.1103   5.1318   5.4204   5.5432
     5.7625   5.9346   6.6584   6.6832   6.8108   6.9075   7.0981   7.3860
     7.5366   7.7989   7.9501   7.9700   8.0732   8.2628   8.9340   8.9432
     9.0625   9.1389   9.1860   9.3238   9.4077   9.6421   9.6700   9.7685
     9.8164   9.8701  10.0444  10.1921  10.2926  10.5144  10.5475  10.5853
    10.6719  10.7592  10.8484  10.9626  11.1880  11.2126  11.2543  11.3228

     occupation numbers 
     1.0000   1.0000   1.0000   1.0000   1.0000   1.0000   1.0000   1.0000
     1.0000   1.0000   1.0000   1.0000   1.0000   1.0000   1.0000   1.0000
     1.0000   1.0000   1.0000   1.0000   1.0000   1.0000   1.0000   1.0000
     1.0000   1.0000   1.0000   1.0000   1.0000   1.0000   1.0000   1.0000
     1.0000   1.0000   1.0000   1.0000   1.0000   1.0000   1.0000   1.0000
     1.0000   1.0000   1.0000   1.0000   1.0000   1.0000   1.0000   1.0000
     1.0000   1.0000   1.0000   1.0000   1.0000   1.0000   1.0000   1.0000
     1.0000   1.0000   1.0000   1.0000   1.0000   1.0000   1.0000   1.0000
     1.0000   1.0000   1.0000   1.0000   1.0000   1.0000   1.0000   1.0000
     1.0000   1.0000   1.0000   1.0000   1.0000   1.0000   1.0000   1.0000
     1.0000   1.0000   1.0000   1.0000   1.0000   1.0000   1.0000   1.0000
     1.0000   1.0000   1.0000   1.0000   1.0000   1.0000   1.0000   1.0000
     1.0000   1.0000   1.0000   1.0000   1.0000   1.0000   1.0000   1.0000
     1.0000   1.0000   1.0000   1.0000   1.0000   1.0000   1.0000   1.0000
     1.0000   1.0000   1.0000   1.0000   1.0000   1.0000   1.0000   1.0000
     1.0000   1.0000   1.0000   1.0000   1.0000   1.0000   1.0000   1.0000
     1.0000   1.0000   1.0000   1.0000   1.0000   1.0000   1.0000   1.0000
     1.0000   1.0000   1.0000   1.0000   1.0000   1.0000   1.0000   1.0000
     1.0000   1.0000   1.0000   1.0000   1.0000   1.0000   1.0000   1.0000
     1.0000   1.0000   1.0000   1.0000   1.0000   1.0000   1.0000   1.0000
     1.0000   1.0000   1.0000   1.0000   1.0000   1.0000   1.0000   1.0000
     1.0000   1.0000   1.0000   1.0000   1.0000   1.0000   1.0000   1.0000
     1.0000   1.0000   1.0000   1.0000   1.0000   1.0000   1.0000   1.0000
     1.0000   1.0000   1.0000   1.0000   1.0000   1.0000   1.0000   1.0000
     1.0000   1.0000   1.0000   1.0000   1.0000   1.0000   1.0000   1.0000
     1.0000   1.0000   1.0000   1.0000   1.0000   1.0000   1.0000   1.0000
     1.0000   1.0000   1.0000   1.0000   1.0000   1.0000   1.0000   1.0000
     1.0000   1.0000   1.0000   1.0000   1.0000   1.0000   1.0000   1.0000
     1.0000   1.0000   1.0000   1.0000   1.0000   1.0000   1.0000   1.0000
     1.0000   1.0000   1.0000   1.0000   1.0000   1.0000   1.0000   1.0000
     1.0000   1.0000   1.0000   1.0000   1.0000   1.0000   1.0000   1.0000
     1.0000   1.0000   1.0000   1.0000   1.0000   1.0000   1.0000   1.0000
     1.0000   1.0000   1.0000   1.0000   1.0000   1.0000   1.0000   1.0000
     1.0000   1.0000   1.0000   1.0000   1.0000   1.0000   1.0000   1.0000
     1.0000   1.0000   1.0000   1.0000   1.0000   1.0000   1.0000   1.0000
     1.0000   1.0000   1.0000   1.0000   1.0000   1.0000   1.0000   1.0000
     1.0000   1.0000   1.0000   1.0000   1.0000   1.0000   1.0000   1.0000
     1.0000   1.0000   1.0000   1.0000   1.0000   1.0000   1.0000   1.0000
     1.0000   1.0000   1.0000   1.0000   0.9999   0.9999   0.9997   0.9995
     0.9991   0.9985   0.9979   0.9975   0.9964   0.9953   0.9914   0.9825
     0.9785   0.9400   0.8903   0.8432   0.8130   0.7353   0.6905   0.5516
     0.4962   0.2886   0.2083   0.0988   0.0364   0.0216   0.0147   0.0080
     0.0059   0.0026   0.0019   0.0001   0.0000   0.0000   0.0000   0.0000
     0.0000   0.0000   0.0000   0.0000   0.0000   0.0000   0.0000   0.0000
     0.0000   0.0000   0.0000   0.0000   0.0000   0.0000   0.0000   0.0000
     0.0000   0.0000   0.0000   0.0000   0.0000   0.0000   0.0000   0.0000
     0.0000   0.0000   0.0000   0.0000   0.0000   0.0000   0.0000   0.0000
     0.0000   0.0000   0.0000   0.0000   0.0000   0.0000   0.0000   0.0000
     0.0000   0.0000   0.0000   0.0000   0.0000   0.0000   0.0000   0.0000

          k = 0.3333 0.1925 0.0000 ( 88170 PWs)   bands (ev):

   -95.4147 -95.4077 -95.4066 -95.4026 -95.3876 -95.3850 -95.3841 -95.3817
   -95.3795 -95.3791 -95.3764 -95.3761 -95.3741 -95.3730 -95.3696 -95.3695
   -95.3687 -95.2191 -95.1925 -95.1896 -95.1889 -95.0151 -95.0093 -95.0083
   -94.9528 -94.9472 -94.9448 -94.9401 -94.9388 -94.9364 -94.9333 -94.9313
   -94.9304 -94.9302 -94.9239 -94.9223 -49.7115 -49.6947 -49.6866 -49.6822
   -49.6702 -49.6692 -49.6627 -49.6581 -49.6544 -49.6489 -49.6470 -49.6382
   -49.6270 -49.6164 -49.5997 -49.5952 -49.5736 -49.5712 -49.5659 -49.5562
   -49.5470 -49.5422 -49.5403 -49.5351 -49.5340 -49.5307 -49.5254 -49.5166
   -49.5069 -49.4985 -49.4981 -49.4929 -49.4905 -49.4839 -49.4835 -49.4767
   -49.4739 -49.4700 -49.4670 -49.4625 -49.4585 -49.4558 -49.4537 -49.4504
   -49.4466 -49.4454 -49.4377 -49.4367 -49.4283 -49.4241 -49.4221 -49.4131
   -49.4033 -49.3919 -49.3717 -49.3679 -49.3481 -49.3410 -49.3362 -49.3302
   -49.3147 -49.2962 -49.2865 -49.2856 -49.2820 -49.2812 -49.2771 -49.2654
   -49.2501 -49.2274 -49.2153 -49.2152 -49.2146 -49.2080 -49.1813 -49.1809
   -49.1601 -49.1517 -49.1328 -49.1242 -49.1236 -49.1226 -49.1189 -49.1106
   -49.1091 -49.0997 -49.0966 -49.0964 -49.0893 -49.0748 -49.0734 -49.0698
   -49.0477 -48.9231 -48.9141 -48.9126 -48.8839 -48.8755 -48.8703 -48.8667
   -48.8632 -48.8607 -48.8572 -48.8570 -48.8536 -48.8533 -48.8448 -48.8431
   -14.2039  -5.6684  -4.6107  -4.3838  -3.7573  -3.7488  -3.4750  -3.3505
    -3.2995  -3.2239  -3.1469  -3.1125  -3.1067  -2.9130  -2.8690  -2.8033
    -2.7962  -2.6895  -2.5870  -2.5423  -2.4594  -2.4579  -2.4314  -2.4202
    -2.4021  -2.3962  -2.3819  -2.3372  -2.2671  -2.2544  -2.2190  -2.2095
    -1.9828  -1.9733  -1.9678  -1.9499  -1.9191  -1.9059  -1.7257  -1.7086
    -1.6393  -1.6350  -1.5987  -1.5071  -1.4925  -1.4753  -1.4439  -1.4358
    -1.2695  -1.2682  -1.2280  -1.2212  -1.1962  -1.1713  -1.1017  -1.0811
    -1.0133  -0.9624  -0.8548  -0.8455  -0.8230  -0.7716  -0.6936  -0.6833
    -0.6547  -0.6348  -0.6295  -0.5802  -0.5107  -0.4692  -0.4618  -0.3845
    -0.3546  -0.3290  -0.3286  -0.3176  -0.2845  -0.2524  -0.2292  -0.1978
    -0.1809  -0.1774  -0.1277  -0.1186  -0.1055  -0.0900  -0.0495  -0.0480
    -0.0369  -0.0163  -0.0075   0.0165   0.0360   0.0839   0.0866   0.1051
     0.2012   0.2401   0.2559   0.2632   0.2934   0.3054   0.3597   0.3875
     0.4075   0.4569   0.4631   0.5341   0.5499   0.5973   0.6070   0.7195
     0.7200   0.7413   0.7759   0.7789   0.9290   0.9781   0.9892   1.0087
     1.0131   1.0448   1.0491   1.0649   1.1012   1.1576   1.1783   1.1808
     1.2102   1.2169   1.2776   1.3290   1.3790   1.4151   1.4188   1.5790
     1.5861   1.6014   1.6102   1.6626   1.6693   1.7956   1.8542   1.8617
     1.8902   1.8999   1.9201   1.9455   1.9614   2.0078   2.0440   2.0825
     2.1143   2.1494   2.1706   2.2131   2.2239   2.2563   2.2582   2.3017
     2.3637   2.3908   2.4474   2.4942   2.5225   2.5381   2.5801   2.5829
     2.6412   2.6543   2.7260   2.7439   2.7574   2.8027   2.8725   2.8777
     2.9099   2.9333   2.9588   2.9674   2.9927   3.0150   3.0303   3.0698
     3.0747   3.1345   3.2205   3.2261   3.2334   3.2499   3.2858   3.3635
     3.3972   3.4576   3.5980   3.9005   3.9151   3.9397   3.9518   4.1108
     4.2325   4.3281   4.4971   5.1968   5.2304   5.2860   5.3429   5.6715
     5.9114   5.9206   6.0495   6.1506   6.6544   6.7726   7.1931   7.4160
     7.4535   7.5871   7.8625   8.0344   8.3414   8.3636   8.6996   8.7714
     8.8556   9.2316   9.2758   9.3231   9.3271   9.5779   9.6154   9.7341
     9.7595   9.9602  10.0983  10.1610  10.2913  10.3321  10.4511  10.4635
    10.5785  10.6404  10.7149  10.8612  11.0337  11.3088  11.3252  11.4085

     occupation numbers 
     1.0000   1.0000   1.0000   1.0000   1.0000   1.0000   1.0000   1.0000
     1.0000   1.0000   1.0000   1.0000   1.0000   1.0000   1.0000   1.0000
     1.0000   1.0000   1.0000   1.0000   1.0000   1.0000   1.0000   1.0000
     1.0000   1.0000   1.0000   1.0000   1.0000   1.0000   1.0000   1.0000
     1.0000   1.0000   1.0000   1.0000   1.0000   1.0000   1.0000   1.0000
     1.0000   1.0000   1.0000   1.0000   1.0000   1.0000   1.0000   1.0000
     1.0000   1.0000   1.0000   1.0000   1.0000   1.0000   1.0000   1.0000
     1.0000   1.0000   1.0000   1.0000   1.0000   1.0000   1.0000   1.0000
     1.0000   1.0000   1.0000   1.0000   1.0000   1.0000   1.0000   1.0000
     1.0000   1.0000   1.0000   1.0000   1.0000   1.0000   1.0000   1.0000
     1.0000   1.0000   1.0000   1.0000   1.0000   1.0000   1.0000   1.0000
     1.0000   1.0000   1.0000   1.0000   1.0000   1.0000   1.0000   1.0000
     1.0000   1.0000   1.0000   1.0000   1.0000   1.0000   1.0000   1.0000
     1.0000   1.0000   1.0000   1.0000   1.0000   1.0000   1.0000   1.0000
     1.0000   1.0000   1.0000   1.0000   1.0000   1.0000   1.0000   1.0000
     1.0000   1.0000   1.0000   1.0000   1.0000   1.0000   1.0000   1.0000
     1.0000   1.0000   1.0000   1.0000   1.0000   1.0000   1.0000   1.0000
     1.0000   1.0000   1.0000   1.0000   1.0000   1.0000   1.0000   1.0000
     1.0000   1.0000   1.0000   1.0000   1.0000   1.0000   1.0000   1.0000
     1.0000   1.0000   1.0000   1.0000   1.0000   1.0000   1.0000   1.0000
     1.0000   1.0000   1.0000   1.0000   1.0000   1.0000   1.0000   1.0000
     1.0000   1.0000   1.0000   1.0000   1.0000   1.0000   1.0000   1.0000
     1.0000   1.0000   1.0000   1.0000   1.0000   1.0000   1.0000   1.0000
     1.0000   1.0000   1.0000   1.0000   1.0000   1.0000   1.0000   1.0000
     1.0000   1.0000   1.0000   1.0000   1.0000   1.0000   1.0000   1.0000
     1.0000   1.0000   1.0000   1.0000   1.0000   1.0000   1.0000   1.0000
     1.0000   1.0000   1.0000   1.0000   1.0000   1.0000   1.0000   1.0000
     1.0000   1.0000   1.0000   1.0000   1.0000   1.0000   1.0000   1.0000
     1.0000   1.0000   1.0000   1.0000   1.0000   1.0000   1.0000   1.0000
     1.0000   1.0000   1.0000   1.0000   1.0000   1.0000   1.0000   1.0000
     1.0000   1.0000   1.0000   1.0000   1.0000   1.0000   1.0000   1.0000
     1.0000   1.0000   1.0000   1.0000   1.0000   1.0000   1.0000   1.0000
     1.0000   1.0000   1.0000   1.0000   1.0000   1.0000   1.0000   1.0000
     1.0000   1.0000   1.0000   1.0000   1.0000   1.0000   1.0000   1.0000
     1.0000   1.0000   1.0000   1.0000   1.0000   1.0000   1.0000   1.0000
     1.0000   1.0000   1.0000   1.0000   1.0000   1.0000   1.0000   1.0000
     1.0000   1.0000   1.0000   1.0000   1.0000   1.0000   1.0000   1.0000
     1.0000   1.0000   1.0000   1.0000   1.0000   1.0000   1.0000   1.0000
     1.0000   1.0000   1.0000   1.0000   1.0000   1.0000   0.9999   0.9999
     0.9997   0.9997   0.9986   0.9980   0.9974   0.9936   0.9745   0.9718
     0.9477   0.9189   0.8719   0.8514   0.7756   0.6886   0.6196   0.4250
     0.4015   0.1686   0.0350   0.0314   0.0273   0.0198   0.0097   0.0021
     0.0011   0.0003   0.0000   0.0000   0.0000   0.0000   0.0000   0.0000
     0.0000   0.0000   0.0000   0.0000   0.0000   0.0000   0.0000   0.0000
     0.0000   0.0000   0.0000   0.0000   0.0000   0.0000   0.0000   0.0000
     0.0000   0.0000   0.0000   0.0000   0.0000   0.0000   0.0000   0.0000
     0.0000   0.0000   0.0000   0.0000   0.0000   0.0000   0.0000   0.0000
     0.0000   0.0000   0.0000   0.0000   0.0000   0.0000   0.0000   0.0000
     0.0000   0.0000   0.0000   0.0000   0.0000   0.0000   0.0000   0.0000

          k = 0.3333-0.7698 0.0000 ( 88140 PWs)   bands (ev):

   -95.4144 -95.4077 -95.4068 -95.4026 -95.3873 -95.3855 -95.3846 -95.3811
   -95.3792 -95.3781 -95.3772 -95.3764 -95.3745 -95.3728 -95.3695 -95.3693
   -95.3688 -95.2191 -95.1925 -95.1897 -95.1889 -95.0151 -95.0093 -95.0083
   -94.9521 -94.9480 -94.9453 -94.9397 -94.9390 -94.9363 -94.9329 -94.9313
   -94.9307 -94.9301 -94.9239 -94.9223 -49.7153 -49.7053 -49.6977 -49.6886
   -49.6777 -49.6709 -49.6640 -49.6562 -49.6507 -49.6466 -49.6440 -49.6402
   -49.6302 -49.6196 -49.6142 -49.5754 -49.5710 -49.5612 -49.5535 -49.5486
   -49.5461 -49.5413 -49.5344 -49.5279 -49.5227 -49.5214 -49.5159 -49.5111
   -49.5080 -49.5001 -49.4953 -49.4918 -49.4897 -49.4844 -49.4791 -49.4766
   -49.4746 -49.4731 -49.4702 -49.4680 -49.4617 -49.4579 -49.4549 -49.4512
   -49.4484 -49.4468 -49.4413 -49.4383 -49.4352 -49.4289 -49.4245 -49.4168
   -49.4054 -49.3965 -49.3764 -49.3661 -49.3503 -49.3440 -49.3396 -49.3313
   -49.3182 -49.3061 -49.2994 -49.2948 -49.2813 -49.2747 -49.2682 -49.2616
   -49.2414 -49.2401 -49.2190 -49.2109 -49.1983 -49.1728 -49.1651 -49.1603
   -49.1576 -49.1395 -49.1368 -49.1365 -49.1315 -49.1216 -49.1201 -49.1184
   -49.1177 -49.1128 -49.0992 -49.0970 -49.0917 -49.0805 -49.0786 -49.0665
   -49.0543 -48.9229 -48.9141 -48.9127 -48.8820 -48.8771 -48.8724 -48.8654
   -48.8628 -48.8605 -48.8569 -48.8566 -48.8542 -48.8533 -48.8448 -48.8431
   -14.2038  -5.3778  -4.8401  -4.3439  -4.1100  -3.6386  -3.2758  -3.2382
    -3.2125  -3.1034  -3.0687  -3.0263  -2.9663  -2.8933  -2.8789  -2.7635
    -2.6921  -2.6821  -2.6358  -2.5988  -2.5483  -2.5319  -2.5150  -2.4975
    -2.4532  -2.3866  -2.3515  -2.3168  -2.2834  -2.2412  -2.1602  -2.1199
    -2.0923  -2.0740  -2.0208  -1.9962  -1.9125  -1.8505  -1.7996  -1.7272
    -1.6062  -1.5616  -1.5309  -1.4561  -1.4468  -1.4311  -1.4163  -1.3421
    -1.3199  -1.3001  -1.2332  -1.2084  -1.1284  -1.1133  -1.0907  -1.0652
    -1.0124  -0.9812  -0.9717  -0.9387  -0.9022  -0.8298  -0.7938  -0.7818
    -0.7610  -0.7236  -0.6846  -0.6417  -0.5722  -0.5395  -0.5028  -0.4772
    -0.4552  -0.4194  -0.4130  -0.3943  -0.3570  -0.3409  -0.2971  -0.2469
    -0.2297  -0.1960  -0.1631  -0.1476  -0.1332  -0.0872  -0.0724  -0.0426
    -0.0209   0.0210   0.0573   0.0801   0.0942   0.1121   0.1687   0.1844
     0.2078   0.2141   0.2329   0.2497   0.2684   0.2800   0.3106   0.3228
     0.3637   0.3975   0.4290   0.4540   0.4840   0.5419   0.5752   0.5884
     0.6456   0.7050   0.7258   0.8109   0.8584   0.9377   0.9487   0.9803
     1.0158   1.0287   1.0368   1.0715   1.0903   1.1423   1.1791   1.1983
     1.2206   1.2529   1.2858   1.3272   1.3485   1.3713   1.4203   1.4723
     1.5812   1.6059   1.6276   1.6704   1.7092   1.7315   1.7582   1.7664
     1.7890   1.8181   1.8361   1.8790   1.9490   1.9706   1.9933   2.0125
     2.0258   2.0456   2.1200   2.1599   2.2118   2.2605   2.3066   2.3777
     2.3859   2.4530   2.4960   2.5108   2.5701   2.6063   2.6404   2.7015
     2.7433   2.7766   2.7945   2.8214   2.8329   2.8506   2.9093   2.9376
     2.9555   2.9791   3.0054   3.0211   3.0450   3.0701   3.1302   3.1467
     3.1954   3.2173   3.2643   3.2702   3.3128   3.3268   3.3500   3.3740
     3.4064   3.5106   3.6786   4.0677   4.3362   4.3872   4.4557   4.6182
     4.7856   4.9692   5.0369   5.2840   5.3498   5.4125   5.4694   5.5922
     5.8525   5.9035   6.0780   6.3247   6.5071   6.6520   6.7182   6.8319
     7.0680   7.3322   7.5018   7.6744   7.7622   7.9478   8.5486   8.7510
     8.8083   8.8531   9.0937   9.2895   9.4052   9.4328   9.6690   9.7227
     9.8060   9.8760  10.0390  10.1331  10.2511  10.2763  10.3710  10.5824
    10.6664  10.8090  11.0082  11.0512  11.1189  11.1808  11.2392  11.2771

     occupation numbers 
     1.0000   1.0000   1.0000   1.0000   1.0000   1.0000   1.0000   1.0000
     1.0000   1.0000   1.0000   1.0000   1.0000   1.0000   1.0000   1.0000
     1.0000   1.0000   1.0000   1.0000   1.0000   1.0000   1.0000   1.0000
     1.0000   1.0000   1.0000   1.0000   1.0000   1.0000   1.0000   1.0000
     1.0000   1.0000   1.0000   1.0000   1.0000   1.0000   1.0000   1.0000
     1.0000   1.0000   1.0000   1.0000   1.0000   1.0000   1.0000   1.0000
     1.0000   1.0000   1.0000   1.0000   1.0000   1.0000   1.0000   1.0000
     1.0000   1.0000   1.0000   1.0000   1.0000   1.0000   1.0000   1.0000
     1.0000   1.0000   1.0000   1.0000   1.0000   1.0000   1.0000   1.0000
     1.0000   1.0000   1.0000   1.0000   1.0000   1.0000   1.0000   1.0000
     1.0000   1.0000   1.0000   1.0000   1.0000   1.0000   1.0000   1.0000
     1.0000   1.0000   1.0000   1.0000   1.0000   1.0000   1.0000   1.0000
     1.0000   1.0000   1.0000   1.0000   1.0000   1.0000   1.0000   1.0000
     1.0000   1.0000   1.0000   1.0000   1.0000   1.0000   1.0000   1.0000
     1.0000   1.0000   1.0000   1.0000   1.0000   1.0000   1.0000   1.0000
     1.0000   1.0000   1.0000   1.0000   1.0000   1.0000   1.0000   1.0000
     1.0000   1.0000   1.0000   1.0000   1.0000   1.0000   1.0000   1.0000
     1.0000   1.0000   1.0000   1.0000   1.0000   1.0000   1.0000   1.0000
     1.0000   1.0000   1.0000   1.0000   1.0000   1.0000   1.0000   1.0000
     1.0000   1.0000   1.0000   1.0000   1.0000   1.0000   1.0000   1.0000
     1.0000   1.0000   1.0000   1.0000   1.0000   1.0000   1.0000   1.0000
     1.0000   1.0000   1.0000   1.0000   1.0000   1.0000   1.0000   1.0000
     1.0000   1.0000   1.0000   1.0000   1.0000   1.0000   1.0000   1.0000
     1.0000   1.0000   1.0000   1.0000   1.0000   1.0000   1.0000   1.0000
     1.0000   1.0000   1.0000   1.0000   1.0000   1.0000   1.0000   1.0000
     1.0000   1.0000   1.0000   1.0000   1.0000   1.0000   1.0000   1.0000
     1.0000   1.0000   1.0000   1.0000   1.0000   1.0000   1.0000   1.0000
     1.0000   1.0000   1.0000   1.0000   1.0000   1.0000   1.0000   1.0000
     1.0000   1.0000   1.0000   1.0000   1.0000   1.0000   1.0000   1.0000
     1.0000   1.0000   1.0000   1.0000   1.0000   1.0000   1.0000   1.0000
     1.0000   1.0000   1.0000   1.0000   1.0000   1.0000   1.0000   1.0000
     1.0000   1.0000   1.0000   1.0000   1.0000   1.0000   1.0000   1.0000
     1.0000   1.0000   1.0000   1.0000   1.0000   1.0000   1.0000   1.0000
     1.0000   1.0000   1.0000   1.0000   1.0000   1.0000   1.0000   1.0000
     1.0000   1.0000   1.0000   1.0000   1.0000   1.0000   1.0000   1.0000
     1.0000   1.0000   1.0000   1.0000   1.0000   1.0000   1.0000   1.0000
     1.0000   1.0000   1.0000   1.0000   1.0000   1.0000   1.0000   1.0000
     1.0000   1.0000   1.0000   1.0000   1.0000   1.0000   1.0000   1.0000
     1.0000   1.0000   1.0000   1.0000   0.9999   0.9999   0.9997   0.9991
     0.9980   0.9962   0.9945   0.9907   0.9883   0.9834   0.9482   0.9123
     0.8792   0.8193   0.7283   0.6618   0.5485   0.4236   0.1810   0.1371
     0.0565   0.0372   0.0149   0.0133   0.0057   0.0043   0.0027   0.0017
     0.0009   0.0001   0.0000   0.0000   0.0000   0.0000   0.0000   0.0000
     0.0000   0.0000   0.0000   0.0000   0.0000   0.0000   0.0000   0.0000
     0.0000   0.0000   0.0000   0.0000   0.0000   0.0000   0.0000   0.0000
     0.0000   0.0000   0.0000   0.0000   0.0000   0.0000   0.0000   0.0000
     0.0000   0.0000   0.0000   0.0000   0.0000   0.0000   0.0000   0.0000
     0.0000   0.0000   0.0000   0.0000   0.0000   0.0000   0.0000   0.0000
     0.0000   0.0000   0.0000   0.0000   0.0000   0.0000   0.0000   0.0000

          k = 0.3333-0.5774 0.0000 ( 88062 PWs)   bands (ev):

   -95.4143 -95.4077 -95.4070 -95.4025 -95.3870 -95.3861 -95.3848 -95.3806
   -95.3787 -95.3784 -95.3772 -95.3766 -95.3749 -95.3725 -95.3694 -95.3693
   -95.3689 -95.2191 -95.1925 -95.1897 -95.1888 -95.0150 -95.0092 -95.0084
   -94.9516 -94.9482 -94.9459 -94.9394 -94.9389 -94.9364 -94.9327 -94.9313
   -94.9309 -94.9300 -94.9239 -94.9223 -49.7123 -49.7100 -49.7088 -49.6875
   -49.6817 -49.6811 -49.6590 -49.6494 -49.6466 -49.6453 -49.6428 -49.6416
   -49.6313 -49.6228 -49.6223 -49.5748 -49.5736 -49.5554 -49.5528 -49.5459
   -49.5366 -49.5345 -49.5281 -49.5254 -49.5192 -49.5156 -49.5123 -49.5063
   -49.5033 -49.4977 -49.4937 -49.4914 -49.4905 -49.4862 -49.4831 -49.4781
   -49.4742 -49.4736 -49.4714 -49.4674 -49.4638 -49.4632 -49.4568 -49.4561
   -49.4505 -49.4469 -49.4418 -49.4416 -49.4393 -49.4304 -49.4233 -49.4104
   -49.4095 -49.4030 -49.3786 -49.3638 -49.3467 -49.3462 -49.3456 -49.3329
   -49.3152 -49.3118 -49.3107 -49.2948 -49.2822 -49.2623 -49.2607 -49.2597
   -49.2595 -49.2345 -49.2144 -49.2123 -49.1905 -49.1624 -49.1453 -49.1445
   -49.1438 -49.1423 -49.1356 -49.1337 -49.1332 -49.1327 -49.1298 -49.1290
   -49.1228 -49.1178 -49.1161 -49.0988 -49.0861 -49.0859 -49.0675 -49.0662
   -49.0645 -48.9228 -48.9141 -48.9128 -48.8806 -48.8778 -48.8742 -48.8642
   -48.8625 -48.8608 -48.8569 -48.8563 -48.8547 -48.8532 -48.8448 -48.8431
   -14.2038  -4.9506  -4.9313  -4.8720  -3.7456  -3.7086  -3.6283  -3.0811
    -3.0674  -3.0579  -2.9442  -2.9300  -2.9076  -2.7862  -2.7544  -2.7147
    -2.6736  -2.6230  -2.5970  -2.5898  -2.5884  -2.5731  -2.5726  -2.5538
    -2.5438  -2.4728  -2.4196  -2.4159  -2.2696  -2.2261  -2.2155  -2.1570
    -2.1420  -2.1373  -2.0928  -2.0764  -2.0363  -1.6498  -1.6479  -1.6440
    -1.6069  -1.5646  -1.5559  -1.5475  -1.5372  -1.5144  -1.2329  -1.2291
    -1.1851  -1.1624  -1.1605  -1.1437  -1.1058  -1.0997  -1.0843  -1.0696
    -1.0403  -0.9967  -0.9890  -0.9680  -0.9622  -0.9210  -0.9124  -0.8792
    -0.7353  -0.7005  -0.6925  -0.6617  -0.6069  -0.5935  -0.5738  -0.5270
    -0.5169  -0.4593  -0.4505  -0.4187  -0.3619  -0.3463  -0.2655  -0.2621
    -0.2544  -0.2154  -0.1795  -0.1786  -0.1306  -0.1080  -0.0977  -0.0847
    -0.0769  -0.0713  -0.0680  -0.0541   0.0410   0.0762   0.1415   0.1838
     0.2025   0.2680   0.2789   0.2988   0.3053   0.3174   0.3216   0.3412
     0.3616   0.3648   0.3840   0.4238   0.4259   0.5229   0.5342   0.5390
     0.5771   0.6819   0.8723   0.8815   0.9036   0.9173   0.9500   0.9734
     0.9869   0.9973   1.0077   1.0129   1.0444   1.0562   1.1342   1.2003
     1.2134   1.2274   1.2532   1.3219   1.3386   1.4038   1.4337   1.4434
     1.5254   1.5300   1.6347   1.7198   1.7282   1.7373   1.7910   1.7929
     1.7959   1.8372   1.8504   1.8734   1.8971   1.9313   1.9323   2.0262
     2.0505   2.0633   2.1314   2.1496   2.2009   2.2020   2.2219   2.2366
     2.3885   2.3963   2.6217   2.6227   2.6550   2.6564   2.7021   2.7443
     2.7859   2.8081   2.8248   2.8559   2.8775   2.9123   2.9543   2.9634
     2.9855   3.0141   3.0310   3.0479   3.0539   3.0568   3.1024   3.1524
     3.2155   3.2179   3.2319   3.2631   3.2766   3.3003   3.3451   3.3732
     3.5768   4.1097   4.1126   4.1183   4.3843   4.4035   4.4246   4.8625
     4.9255   5.0256   5.3790   5.3804   5.3939   5.4809   5.4940   5.6793
     6.1981   6.2068   6.2784   6.5940   6.6042   6.6552   6.6919   6.7080
     6.7792   6.8372   6.8665   7.1771   7.4753   7.5331   7.6796   8.7514
     8.8166   8.8225   9.0083   9.1133   9.1492   9.6601   9.6708   9.7749
     9.8380   9.8570   9.8681  10.5496  10.5741  10.5779  10.5938  10.6087
    10.6830  10.9610  10.9987  11.0248  11.1625  11.1636  11.2323  11.2458

     occupation numbers 
     1.0000   1.0000   1.0000   1.0000   1.0000   1.0000   1.0000   1.0000
     1.0000   1.0000   1.0000   1.0000   1.0000   1.0000   1.0000   1.0000
     1.0000   1.0000   1.0000   1.0000   1.0000   1.0000   1.0000   1.0000
     1.0000   1.0000   1.0000   1.0000   1.0000   1.0000   1.0000   1.0000
     1.0000   1.0000   1.0000   1.0000   1.0000   1.0000   1.0000   1.0000
     1.0000   1.0000   1.0000   1.0000   1.0000   1.0000   1.0000   1.0000
     1.0000   1.0000   1.0000   1.0000   1.0000   1.0000   1.0000   1.0000
     1.0000   1.0000   1.0000   1.0000   1.0000   1.0000   1.0000   1.0000
     1.0000   1.0000   1.0000   1.0000   1.0000   1.0000   1.0000   1.0000
     1.0000   1.0000   1.0000   1.0000   1.0000   1.0000   1.0000   1.0000
     1.0000   1.0000   1.0000   1.0000   1.0000   1.0000   1.0000   1.0000
     1.0000   1.0000   1.0000   1.0000   1.0000   1.0000   1.0000   1.0000
     1.0000   1.0000   1.0000   1.0000   1.0000   1.0000   1.0000   1.0000
     1.0000   1.0000   1.0000   1.0000   1.0000   1.0000   1.0000   1.0000
     1.0000   1.0000   1.0000   1.0000   1.0000   1.0000   1.0000   1.0000
     1.0000   1.0000   1.0000   1.0000   1.0000   1.0000   1.0000   1.0000
     1.0000   1.0000   1.0000   1.0000   1.0000   1.0000   1.0000   1.0000
     1.0000   1.0000   1.0000   1.0000   1.0000   1.0000   1.0000   1.0000
     1.0000   1.0000   1.0000   1.0000   1.0000   1.0000   1.0000   1.0000
     1.0000   1.0000   1.0000   1.0000   1.0000   1.0000   1.0000   1.0000
     1.0000   1.0000   1.0000   1.0000   1.0000   1.0000   1.0000   1.0000
     1.0000   1.0000   1.0000   1.0000   1.0000   1.0000   1.0000   1.0000
     1.0000   1.0000   1.0000   1.0000   1.0000   1.0000   1.0000   1.0000
     1.0000   1.0000   1.0000   1.0000   1.0000   1.0000   1.0000   1.0000
     1.0000   1.0000   1.0000   1.0000   1.0000   1.0000   1.0000   1.0000
     1.0000   1.0000   1.0000   1.0000   1.0000   1.0000   1.0000   1.0000
     1.0000   1.0000   1.0000   1.0000   1.0000   1.0000   1.0000   1.0000
     1.0000   1.0000   1.0000   1.0000   1.0000   1.0000   1.0000   1.0000
     1.0000   1.0000   1.0000   1.0000   1.0000   1.0000   1.0000   1.0000
     1.0000   1.0000   1.0000   1.0000   1.0000   1.0000   1.0000   1.0000
     1.0000   1.0000   1.0000   1.0000   1.0000   1.0000   1.0000   1.0000
     1.0000   1.0000   1.0000   1.0000   1.0000   1.0000   1.0000   1.0000
     1.0000   1.0000   1.0000   1.0000   1.0000   1.0000   1.0000   1.0000
     1.0000   1.0000   1.0000   1.0000   1.0000   1.0000   1.0000   1.0000
     1.0000   1.0000   1.0000   1.0000   1.0000   1.0000   1.0000   1.0000
     1.0000   1.0000   1.0000   1.0000   1.0000   1.0000   1.0000   1.0000
     1.0000   1.0000   1.0000   1.0000   1.0000   1.0000   1.0000   1.0000
     1.0000   1.0000   1.0000   1.0000   1.0000   1.0000   1.0000   1.0000
     1.0000   1.0000   0.9998   0.9998   0.9997   0.9997   0.9991   0.9980
     0.9954   0.9928   0.9900   0.9816   0.9719   0.9452   0.8816   0.8614
     0.7995   0.6925   0.6164   0.5340   0.5039   0.4893   0.2781   0.1242
     0.0386   0.0368   0.0281   0.0153   0.0117   0.0073   0.0030   0.0017
     0.0000   0.0000   0.0000   0.0000   0.0000   0.0000   0.0000   0.0000
     0.0000   0.0000   0.0000   0.0000   0.0000   0.0000   0.0000   0.0000
     0.0000   0.0000   0.0000   0.0000   0.0000   0.0000   0.0000   0.0000
     0.0000   0.0000   0.0000   0.0000   0.0000   0.0000   0.0000   0.0000
     0.0000   0.0000   0.0000   0.0000   0.0000   0.0000   0.0000   0.0000
     0.0000   0.0000   0.0000   0.0000   0.0000   0.0000   0.0000   0.0000
     0.0000   0.0000   0.0000   0.0000   0.0000   0.0000   0.0000   0.0000

          k = 0.3333-0.3849 0.0000 ( 88140 PWs)   bands (ev):

   -95.4144 -95.4077 -95.4068 -95.4026 -95.3873 -95.3855 -95.3846 -95.3811
   -95.3792 -95.3781 -95.3772 -95.3764 -95.3745 -95.3728 -95.3695 -95.3693
   -95.3688 -95.2191 -95.1925 -95.1897 -95.1889 -95.0151 -95.0092 -95.0084
   -94.9521 -94.9479 -94.9453 -94.9397 -94.9390 -94.9363 -94.9329 -94.9313
   -94.9307 -94.9301 -94.9239 -94.9223 -49.7153 -49.7053 -49.6977 -49.6886
   -49.6777 -49.6709 -49.6641 -49.6562 -49.6507 -49.6466 -49.6441 -49.6402
   -49.6302 -49.6196 -49.6142 -49.5754 -49.5710 -49.5612 -49.5535 -49.5486
   -49.5460 -49.5413 -49.5344 -49.5279 -49.5226 -49.5214 -49.5159 -49.5111
   -49.5080 -49.5001 -49.4953 -49.4918 -49.4897 -49.4844 -49.4791 -49.4766
   -49.4746 -49.4731 -49.4702 -49.4680 -49.4617 -49.4579 -49.4549 -49.4512
   -49.4484 -49.4468 -49.4413 -49.4383 -49.4352 -49.4289 -49.4245 -49.4168
   -49.4054 -49.3965 -49.3764 -49.3661 -49.3503 -49.3440 -49.3396 -49.3313
   -49.3182 -49.3061 -49.2994 -49.2948 -49.2813 -49.2747 -49.2682 -49.2616
   -49.2413 -49.2401 -49.2190 -49.2109 -49.1982 -49.1728 -49.1651 -49.1603
   -49.1576 -49.1395 -49.1368 -49.1365 -49.1315 -49.1216 -49.1201 -49.1184
   -49.1177 -49.1128 -49.0992 -49.0970 -49.0917 -49.0805 -49.0786 -49.0665
   -49.0543 -48.9229 -48.9141 -48.9128 -48.8820 -48.8771 -48.8724 -48.8654
   -48.8628 -48.8605 -48.8569 -48.8566 -48.8542 -48.8533 -48.8448 -48.8431
   -14.2038  -5.3778  -4.8400  -4.3439  -4.1100  -3.6386  -3.2757  -3.2382
    -3.2125  -3.1034  -3.0687  -3.0263  -2.9663  -2.8933  -2.8789  -2.7635
    -2.6921  -2.6821  -2.6358  -2.5988  -2.5483  -2.5319  -2.5150  -2.4975
    -2.4532  -2.3866  -2.3515  -2.3168  -2.2834  -2.2412  -2.1602  -2.1199
    -2.0924  -2.0740  -2.0208  -1.9962  -1.9125  -1.8505  -1.7996  -1.7272
    -1.6062  -1.5616  -1.5309  -1.4561  -1.4468  -1.4311  -1.4163  -1.3422
    -1.3199  -1.3001  -1.2332  -1.2084  -1.1284  -1.1133  -1.0907  -1.0652
    -1.0124  -0.9813  -0.9717  -0.9387  -0.9023  -0.8298  -0.7938  -0.7818
    -0.7610  -0.7235  -0.6846  -0.6417  -0.5722  -0.5396  -0.5028  -0.4772
    -0.4551  -0.4194  -0.4130  -0.3943  -0.3570  -0.3409  -0.2971  -0.2469
    -0.2297  -0.1960  -0.1631  -0.1476  -0.1332  -0.0872  -0.0724  -0.0426
    -0.0209   0.0210   0.0574   0.0801   0.0942   0.1121   0.1688   0.1844
     0.2078   0.2141   0.2329   0.2497   0.2684   0.2800   0.3106   0.3227
     0.3637   0.3975   0.4290   0.4540   0.4840   0.5419   0.5752   0.5884
     0.6456   0.7050   0.7258   0.8109   0.8584   0.9377   0.9487   0.9803
     1.0158   1.0287   1.0369   1.0716   1.0904   1.1423   1.1791   1.1983
     1.2206   1.2529   1.2858   1.3272   1.3485   1.3713   1.4203   1.4723
     1.5812   1.6059   1.6276   1.6704   1.7092   1.7315   1.7582   1.7664
     1.7890   1.8181   1.8361   1.8790   1.9490   1.9706   1.9933   2.0125
     2.0257   2.0456   2.1199   2.1599   2.2118   2.2605   2.3066   2.3777
     2.3860   2.4530   2.4960   2.5108   2.5701   2.6063   2.6404   2.7015
     2.7434   2.7766   2.7945   2.8214   2.8329   2.8506   2.9093   2.9376
     2.9554   2.9791   3.0054   3.0211   3.0450   3.0701   3.1302   3.1467
     3.1954   3.2173   3.2643   3.2702   3.3128   3.3267   3.3500   3.3740
     3.4064   3.5106   3.6786   4.0677   4.3362   4.3873   4.4557   4.6182
     4.7856   4.9692   5.0369   5.2840   5.3498   5.4125   5.4694   5.5922
     5.8525   5.9035   6.0780   6.3247   6.5071   6.6520   6.7182   6.8319
     7.0681   7.3323   7.5018   7.6745   7.7622   7.9478   8.5486   8.7510
     8.8083   8.8530   9.0938   9.2895   9.4052   9.4328   9.6690   9.7227
     9.8060   9.8760  10.0389  10.1331  10.2511  10.2763  10.3710  10.5824
    10.6664  10.8090  11.0082  11.0512  11.1190  11.1808  11.2388  11.2767

     occupation numbers 
     1.0000   1.0000   1.0000   1.0000   1.0000   1.0000   1.0000   1.0000
     1.0000   1.0000   1.0000   1.0000   1.0000   1.0000   1.0000   1.0000
     1.0000   1.0000   1.0000   1.0000   1.0000   1.0000   1.0000   1.0000
     1.0000   1.0000   1.0000   1.0000   1.0000   1.0000   1.0000   1.0000
     1.0000   1.0000   1.0000   1.0000   1.0000   1.0000   1.0000   1.0000
     1.0000   1.0000   1.0000   1.0000   1.0000   1.0000   1.0000   1.0000
     1.0000   1.0000   1.0000   1.0000   1.0000   1.0000   1.0000   1.0000
     1.0000   1.0000   1.0000   1.0000   1.0000   1.0000   1.0000   1.0000
     1.0000   1.0000   1.0000   1.0000   1.0000   1.0000   1.0000   1.0000
     1.0000   1.0000   1.0000   1.0000   1.0000   1.0000   1.0000   1.0000
     1.0000   1.0000   1.0000   1.0000   1.0000   1.0000   1.0000   1.0000
     1.0000   1.0000   1.0000   1.0000   1.0000   1.0000   1.0000   1.0000
     1.0000   1.0000   1.0000   1.0000   1.0000   1.0000   1.0000   1.0000
     1.0000   1.0000   1.0000   1.0000   1.0000   1.0000   1.0000   1.0000
     1.0000   1.0000   1.0000   1.0000   1.0000   1.0000   1.0000   1.0000
     1.0000   1.0000   1.0000   1.0000   1.0000   1.0000   1.0000   1.0000
     1.0000   1.0000   1.0000   1.0000   1.0000   1.0000   1.0000   1.0000
     1.0000   1.0000   1.0000   1.0000   1.0000   1.0000   1.0000   1.0000
     1.0000   1.0000   1.0000   1.0000   1.0000   1.0000   1.0000   1.0000
     1.0000   1.0000   1.0000   1.0000   1.0000   1.0000   1.0000   1.0000
     1.0000   1.0000   1.0000   1.0000   1.0000   1.0000   1.0000   1.0000
     1.0000   1.0000   1.0000   1.0000   1.0000   1.0000   1.0000   1.0000
     1.0000   1.0000   1.0000   1.0000   1.0000   1.0000   1.0000   1.0000
     1.0000   1.0000   1.0000   1.0000   1.0000   1.0000   1.0000   1.0000
     1.0000   1.0000   1.0000   1.0000   1.0000   1.0000   1.0000   1.0000
     1.0000   1.0000   1.0000   1.0000   1.0000   1.0000   1.0000   1.0000
     1.0000   1.0000   1.0000   1.0000   1.0000   1.0000   1.0000   1.0000
     1.0000   1.0000   1.0000   1.0000   1.0000   1.0000   1.0000   1.0000
     1.0000   1.0000   1.0000   1.0000   1.0000   1.0000   1.0000   1.0000
     1.0000   1.0000   1.0000   1.0000   1.0000   1.0000   1.0000   1.0000
     1.0000   1.0000   1.0000   1.0000   1.0000   1.0000   1.0000   1.0000
     1.0000   1.0000   1.0000   1.0000   1.0000   1.0000   1.0000   1.0000
     1.0000   1.0000   1.0000   1.0000   1.0000   1.0000   1.0000   1.0000
     1.0000   1.0000   1.0000   1.0000   1.0000   1.0000   1.0000   1.0000
     1.0000   1.0000   1.0000   1.0000   1.0000   1.0000   1.0000   1.0000
     1.0000   1.0000   1.0000   1.0000   1.0000   1.0000   1.0000   1.0000
     1.0000   1.0000   1.0000   1.0000   1.0000   1.0000   1.0000   1.0000
     1.0000   1.0000   1.0000   1.0000   1.0000   1.0000   1.0000   1.0000
     1.0000   1.0000   1.0000   1.0000   0.9999   0.9999   0.9997   0.9991
     0.9980   0.9962   0.9945   0.9907   0.9883   0.9834   0.9482   0.9123
     0.8792   0.8194   0.7282   0.6618   0.5484   0.4235   0.1810   0.1371
     0.0565   0.0372   0.0149   0.0133   0.0057   0.0043   0.0027   0.0017
     0.0009   0.0001   0.0000   0.0000   0.0000   0.0000   0.0000   0.0000
     0.0000   0.0000   0.0000   0.0000   0.0000   0.0000   0.0000   0.0000
     0.0000   0.0000   0.0000   0.0000   0.0000   0.0000   0.0000   0.0000
     0.0000   0.0000   0.0000   0.0000   0.0000   0.0000   0.0000   0.0000
     0.0000   0.0000   0.0000   0.0000   0.0000   0.0000   0.0000   0.0000
     0.0000   0.0000   0.0000   0.0000   0.0000   0.0000   0.0000   0.0000
     0.0000   0.0000   0.0000   0.0000   0.0000   0.0000   0.0000   0.0000

          k =-0.5000 0.2887 0.0000 ( 88178 PWs)   bands (ev):

   -95.4144 -95.4079 -95.4066 -95.4026 -95.3874 -95.3855 -95.3843 -95.3816
   -95.3788 -95.3777 -95.3775 -95.3767 -95.3740 -95.3730 -95.3694 -95.3694
   -95.3688 -95.2191 -95.1925 -95.1896 -95.1889 -95.0151 -95.0093 -95.0083
   -94.9520 -94.9483 -94.9449 -94.9400 -94.9390 -94.9362 -94.9329 -94.9313
   -94.9305 -94.9303 -94.9239 -94.9223 -49.7198 -49.7011 -49.6911 -49.6868
   -49.6750 -49.6720 -49.6674 -49.6622 -49.6533 -49.6510 -49.6495 -49.6440
   -49.6258 -49.6170 -49.5911 -49.5853 -49.5689 -49.5622 -49.5549 -49.5508
   -49.5423 -49.5395 -49.5379 -49.5299 -49.5287 -49.5238 -49.5180 -49.5148
   -49.5049 -49.5022 -49.4969 -49.4899 -49.4830 -49.4827 -49.4819 -49.4752
   -49.4738 -49.4707 -49.4704 -49.4609 -49.4592 -49.4577 -49.4544 -49.4515
   -49.4497 -49.4465 -49.4444 -49.4369 -49.4351 -49.4292 -49.4279 -49.4244
   -49.4030 -49.3931 -49.3742 -49.3706 -49.3533 -49.3395 -49.3366 -49.3338
   -49.3223 -49.2967 -49.2906 -49.2897 -49.2872 -49.2863 -49.2789 -49.2620
   -49.2464 -49.2193 -49.2107 -49.2074 -49.2070 -49.1927 -49.1646 -49.1526
   -49.1515 -49.1483 -49.1481 -49.1335 -49.1207 -49.1200 -49.1150 -49.1132
   -49.1129 -49.1112 -49.0992 -49.0985 -49.0981 -49.0965 -49.0764 -49.0594
   -49.0559 -48.9229 -48.9142 -48.9127 -48.8817 -48.8781 -48.8705 -48.8672
   -48.8625 -48.8601 -48.8569 -48.8565 -48.8540 -48.8536 -48.8448 -48.8431
   -14.2038  -5.2185  -5.1693  -3.9837  -3.9176  -3.7686  -3.7501  -3.3455
    -3.1798  -2.9291  -2.8889  -2.8644  -2.8272  -2.8097  -2.7985  -2.7903
    -2.7796  -2.7665  -2.7640  -2.7095  -2.6532  -2.6255  -2.6078  -2.5875
    -2.5229  -2.4453  -2.2625  -2.2610  -2.2278  -2.2238  -2.0573  -2.0269
    -1.9853  -1.9755  -1.9452  -1.9352  -1.8440  -1.8413  -1.7276  -1.7235
    -1.6946  -1.6635  -1.6327  -1.5450  -1.5316  -1.4311  -1.4127  -1.3885
    -1.3756  -1.3095  -1.2897  -1.1849  -1.1436  -1.1407  -1.1248  -1.0354
    -1.0258  -1.0206  -1.0078  -0.8757  -0.8577  -0.8325  -0.8296  -0.8055
    -0.7899  -0.7144  -0.6345  -0.6333  -0.5561  -0.5363  -0.5227  -0.4984
    -0.4863  -0.4765  -0.4586  -0.3805  -0.3020  -0.2821  -0.2350  -0.2288
    -0.1968  -0.1949  -0.1735  -0.1649  -0.1477  -0.1418  -0.0710  -0.0575
    -0.0348  -0.0210  -0.0001   0.0039   0.0493   0.0699   0.1416   0.1862
     0.1939   0.2749   0.2810   0.2856   0.2912   0.3121   0.3507   0.3631
     0.4568   0.4616   0.5074   0.5229   0.5471   0.6242   0.6619   0.7394
     0.7601   0.8105   0.8411   0.8846   0.9100   0.9187   0.9476   0.9639
     0.9842   0.9949   0.9962   1.0286   1.0422   1.1014   1.1099   1.1366
     1.1458   1.1787   1.1881   1.2519   1.2643   1.2765   1.3431   1.4392
     1.4469   1.5697   1.5914   1.6904   1.7096   1.7448   1.7662   1.8392
     1.8470   1.9093   1.9240   1.9863   2.0177   2.0371   2.0507   2.0620
     2.0751   2.1114   2.1593   2.1877   2.2246   2.2450   2.2622   2.2708
     2.3373   2.3745   2.4303   2.5120   2.5409   2.5722   2.5868   2.6529
     2.6667   2.7126   2.7553   2.7610   2.8017   2.8092   2.8359   2.8463
     2.8600   2.9723   3.0289   3.0424   3.0451   3.0539   3.0761   3.1018
     3.1423   3.1884   3.3066   3.3106   3.3228   3.3432   3.3726   3.4094
     3.5092   3.5748   3.9051   3.9551   4.2024   4.5924   4.7258   4.9025
     4.9209   4.9215   4.9552   5.3612   5.4046   5.4138   5.4581   5.6283
     5.7378   5.9619   6.0178   6.1134   6.3438   6.4299   6.4528   6.5484
     6.6078   6.9955   8.3842   8.4530   8.4848   8.5375   8.7310   8.7918
     8.8590   8.9462   8.9607   8.9919   9.0293   9.0857   9.4808   9.6114
     9.6197   9.9043   9.9123  10.0218  10.0650  10.3999  10.4064  10.5460
    10.6273  10.7959  10.9325  10.9752  11.0023  11.0155  11.1131  11.1380

     occupation numbers 
     1.0000   1.0000   1.0000   1.0000   1.0000   1.0000   1.0000   1.0000
     1.0000   1.0000   1.0000   1.0000   1.0000   1.0000   1.0000   1.0000
     1.0000   1.0000   1.0000   1.0000   1.0000   1.0000   1.0000   1.0000
     1.0000   1.0000   1.0000   1.0000   1.0000   1.0000   1.0000   1.0000
     1.0000   1.0000   1.0000   1.0000   1.0000   1.0000   1.0000   1.0000
     1.0000   1.0000   1.0000   1.0000   1.0000   1.0000   1.0000   1.0000
     1.0000   1.0000   1.0000   1.0000   1.0000   1.0000   1.0000   1.0000
     1.0000   1.0000   1.0000   1.0000   1.0000   1.0000   1.0000   1.0000
     1.0000   1.0000   1.0000   1.0000   1.0000   1.0000   1.0000   1.0000
     1.0000   1.0000   1.0000   1.0000   1.0000   1.0000   1.0000   1.0000
     1.0000   1.0000   1.0000   1.0000   1.0000   1.0000   1.0000   1.0000
     1.0000   1.0000   1.0000   1.0000   1.0000   1.0000   1.0000   1.0000
     1.0000   1.0000   1.0000   1.0000   1.0000   1.0000   1.0000   1.0000
     1.0000   1.0000   1.0000   1.0000   1.0000   1.0000   1.0000   1.0000
     1.0000   1.0000   1.0000   1.0000   1.0000   1.0000   1.0000   1.0000
     1.0000   1.0000   1.0000   1.0000   1.0000   1.0000   1.0000   1.0000
     1.0000   1.0000   1.0000   1.0000   1.0000   1.0000   1.0000   1.0000
     1.0000   1.0000   1.0000   1.0000   1.0000   1.0000   1.0000   1.0000
     1.0000   1.0000   1.0000   1.0000   1.0000   1.0000   1.0000   1.0000
     1.0000   1.0000   1.0000   1.0000   1.0000   1.0000   1.0000   1.0000
     1.0000   1.0000   1.0000   1.0000   1.0000   1.0000   1.0000   1.0000
     1.0000   1.0000   1.0000   1.0000   1.0000   1.0000   1.0000   1.0000
     1.0000   1.0000   1.0000   1.0000   1.0000   1.0000   1.0000   1.0000
     1.0000   1.0000   1.0000   1.0000   1.0000   1.0000   1.0000   1.0000
     1.0000   1.0000   1.0000   1.0000   1.0000   1.0000   1.0000   1.0000
     1.0000   1.0000   1.0000   1.0000   1.0000   1.0000   1.0000   1.0000
     1.0000   1.0000   1.0000   1.0000   1.0000   1.0000   1.0000   1.0000
     1.0000   1.0000   1.0000   1.0000   1.0000   1.0000   1.0000   1.0000
     1.0000   1.0000   1.0000   1.0000   1.0000   1.0000   1.0000   1.0000
     1.0000   1.0000   1.0000   1.0000   1.0000   1.0000   1.0000   1.0000
     1.0000   1.0000   1.0000   1.0000   1.0000   1.0000   1.0000   1.0000
     1.0000   1.0000   1.0000   1.0000   1.0000   1.0000   1.0000   1.0000
     1.0000   1.0000   1.0000   1.0000   1.0000   1.0000   1.0000   1.0000
     1.0000   1.0000   1.0000   1.0000   1.0000   1.0000   1.0000   1.0000
     1.0000   1.0000   1.0000   1.0000   1.0000   1.0000   1.0000   1.0000
     1.0000   1.0000   1.0000   1.0000   1.0000   1.0000   1.0000   1.0000
     1.0000   1.0000   1.0000   1.0000   1.0000   1.0000   1.0000   1.0000
     1.0000   1.0000   1.0000   1.0000   1.0000   1.0000   1.0000   1.0000
     1.0000   1.0000   1.0000   1.0000   1.0000   0.9999   0.9999   0.9997
     0.9996   0.9989   0.9975   0.9972   0.9937   0.9927   0.9876   0.9847
     0.9800   0.8387   0.6264   0.5611   0.5478   0.5037   0.3944   0.2804
     0.1478   0.0646   0.0064   0.0059   0.0047   0.0031   0.0017   0.0008
     0.0001   0.0000   0.0000   0.0000   0.0000   0.0000   0.0000   0.0000
     0.0000   0.0000   0.0000   0.0000   0.0000   0.0000   0.0000   0.0000
     0.0000   0.0000   0.0000   0.0000   0.0000   0.0000   0.0000   0.0000
     0.0000   0.0000   0.0000   0.0000   0.0000   0.0000   0.0000   0.0000
     0.0000   0.0000   0.0000   0.0000   0.0000   0.0000   0.0000   0.0000
     0.0000   0.0000   0.0000   0.0000   0.0000   0.0000   0.0000   0.0000
     0.0000   0.0000   0.0000   0.0000   0.0000   0.0000   0.0000   0.0000

          k =-0.5000 0.4811 0.0000 ( 88140 PWs)   bands (ev):

   -95.4144 -95.4078 -95.4067 -95.4026 -95.3873 -95.3856 -95.3846 -95.3810
   -95.3793 -95.3781 -95.3770 -95.3765 -95.3745 -95.3727 -95.3695 -95.3694
   -95.3688 -95.2191 -95.1925 -95.1896 -95.1889 -95.0151 -95.0093 -95.0083
   -94.9521 -94.9479 -94.9454 -94.9396 -94.9390 -94.9364 -94.9329 -94.9313
   -94.9307 -94.9301 -94.9239 -94.9223 -49.7153 -49.7042 -49.6986 -49.6887
   -49.6777 -49.6710 -49.6639 -49.6561 -49.6509 -49.6465 -49.6440 -49.6403
   -49.6304 -49.6198 -49.6141 -49.5755 -49.5714 -49.5612 -49.5535 -49.5484
   -49.5457 -49.5411 -49.5346 -49.5280 -49.5225 -49.5215 -49.5160 -49.5108
   -49.5085 -49.5003 -49.4951 -49.4919 -49.4896 -49.4843 -49.4792 -49.4766
   -49.4743 -49.4731 -49.4701 -49.4683 -49.4613 -49.4577 -49.4548 -49.4512
   -49.4481 -49.4470 -49.4410 -49.4383 -49.4353 -49.4289 -49.4244 -49.4171
   -49.4054 -49.3968 -49.3765 -49.3661 -49.3501 -49.3440 -49.3397 -49.3313
   -49.3181 -49.3059 -49.2996 -49.2948 -49.2813 -49.2744 -49.2684 -49.2616
   -49.2414 -49.2402 -49.2189 -49.2110 -49.1984 -49.1727 -49.1653 -49.1601
   -49.1574 -49.1396 -49.1366 -49.1365 -49.1317 -49.1215 -49.1205 -49.1184
   -49.1177 -49.1126 -49.0992 -49.0968 -49.0918 -49.0806 -49.0786 -49.0664
   -49.0545 -48.9229 -48.9142 -48.9127 -48.8820 -48.8770 -48.8724 -48.8653
   -48.8628 -48.8605 -48.8569 -48.8566 -48.8542 -48.8533 -48.8448 -48.8431
   -14.2038  -5.3779  -4.8399  -4.3441  -4.1101  -3.6386  -3.2757  -3.2380
    -3.2120  -3.1035  -3.0700  -3.0266  -2.9665  -2.8926  -2.8781  -2.7628
    -2.6930  -2.6821  -2.6357  -2.5996  -2.5499  -2.5316  -2.5148  -2.4977
    -2.4530  -2.3845  -2.3514  -2.3166  -2.2840  -2.2413  -2.1595  -2.1205
    -2.0924  -2.0739  -2.0218  -1.9969  -1.9124  -1.8493  -1.7993  -1.7273
    -1.6062  -1.5613  -1.5314  -1.4562  -1.4459  -1.4305  -1.4157  -1.3410
    -1.3206  -1.2998  -1.2336  -1.2091  -1.1287  -1.1127  -1.0901  -1.0650
    -1.0136  -0.9814  -0.9712  -0.9386  -0.9017  -0.8287  -0.7929  -0.7814
    -0.7608  -0.7239  -0.6836  -0.6405  -0.5726  -0.5392  -0.5045  -0.4770
    -0.4559  -0.4191  -0.4129  -0.3946  -0.3578  -0.3410  -0.2977  -0.2479
    -0.2302  -0.1959  -0.1645  -0.1473  -0.1326  -0.0872  -0.0718  -0.0435
    -0.0207   0.0204   0.0554   0.0801   0.0944   0.1133   0.1672   0.1843
     0.2064   0.2141   0.2324   0.2506   0.2681   0.2802   0.3121   0.3259
     0.3639   0.3973   0.4288   0.4540   0.4837   0.5424   0.5748   0.5887
     0.6453   0.7038   0.7252   0.8103   0.8575   0.9372   0.9483   0.9803
     1.0168   1.0293   1.0363   1.0711   1.0903   1.1429   1.1798   1.1985
     1.2203   1.2533   1.2865   1.3270   1.3486   1.3709   1.4199   1.4718
     1.5807   1.6050   1.6278   1.6704   1.7084   1.7306   1.7578   1.7671
     1.7887   1.8184   1.8362   1.8793   1.9497   1.9705   1.9938   2.0130
     2.0264   2.0463   2.1198   2.1600   2.2117   2.2606   2.3083   2.3771
     2.3854   2.4531   2.4952   2.5106   2.5693   2.6068   2.6408   2.7017
     2.7431   2.7766   2.7948   2.8213   2.8331   2.8513   2.9094   2.9371
     2.9551   2.9789   3.0060   3.0209   3.0444   3.0691   3.1303   3.1467
     3.1950   3.2166   3.2630   3.2698   3.3130   3.3270   3.3514   3.3758
     3.4078   3.5109   3.6784   4.0676   4.3357   4.3866   4.4556   4.6180
     4.7852   4.9695   5.0378   5.2853   5.3505   5.4126   5.4700   5.5923
     5.8525   5.9035   6.0777   6.3248   6.5061   6.6517   6.7179   6.8319
     7.0681   7.3311   7.5033   7.6726   7.7633   7.9476   8.5477   8.7501
     8.8060   8.8549   9.0939   9.2886   9.4054   9.4328   9.6702   9.7232
     9.8063   9.8785  10.0425  10.1336  10.2516  10.2756  10.3696  10.5844
    10.6663  10.8090  11.0063  11.0513  11.1185  11.1798  11.2387  11.2769

     occupation numbers 
     1.0000   1.0000   1.0000   1.0000   1.0000   1.0000   1.0000   1.0000
     1.0000   1.0000   1.0000   1.0000   1.0000   1.0000   1.0000   1.0000
     1.0000   1.0000   1.0000   1.0000   1.0000   1.0000   1.0000   1.0000
     1.0000   1.0000   1.0000   1.0000   1.0000   1.0000   1.0000   1.0000
     1.0000   1.0000   1.0000   1.0000   1.0000   1.0000   1.0000   1.0000
     1.0000   1.0000   1.0000   1.0000   1.0000   1.0000   1.0000   1.0000
     1.0000   1.0000   1.0000   1.0000   1.0000   1.0000   1.0000   1.0000
     1.0000   1.0000   1.0000   1.0000   1.0000   1.0000   1.0000   1.0000
     1.0000   1.0000   1.0000   1.0000   1.0000   1.0000   1.0000   1.0000
     1.0000   1.0000   1.0000   1.0000   1.0000   1.0000   1.0000   1.0000
     1.0000   1.0000   1.0000   1.0000   1.0000   1.0000   1.0000   1.0000
     1.0000   1.0000   1.0000   1.0000   1.0000   1.0000   1.0000   1.0000
     1.0000   1.0000   1.0000   1.0000   1.0000   1.0000   1.0000   1.0000
     1.0000   1.0000   1.0000   1.0000   1.0000   1.0000   1.0000   1.0000
     1.0000   1.0000   1.0000   1.0000   1.0000   1.0000   1.0000   1.0000
     1.0000   1.0000   1.0000   1.0000   1.0000   1.0000   1.0000   1.0000
     1.0000   1.0000   1.0000   1.0000   1.0000   1.0000   1.0000   1.0000
     1.0000   1.0000   1.0000   1.0000   1.0000   1.0000   1.0000   1.0000
     1.0000   1.0000   1.0000   1.0000   1.0000   1.0000   1.0000   1.0000
     1.0000   1.0000   1.0000   1.0000   1.0000   1.0000   1.0000   1.0000
     1.0000   1.0000   1.0000   1.0000   1.0000   1.0000   1.0000   1.0000
     1.0000   1.0000   1.0000   1.0000   1.0000   1.0000   1.0000   1.0000
     1.0000   1.0000   1.0000   1.0000   1.0000   1.0000   1.0000   1.0000
     1.0000   1.0000   1.0000   1.0000   1.0000   1.0000   1.0000   1.0000
     1.0000   1.0000   1.0000   1.0000   1.0000   1.0000   1.0000   1.0000
     1.0000   1.0000   1.0000   1.0000   1.0000   1.0000   1.0000   1.0000
     1.0000   1.0000   1.0000   1.0000   1.0000   1.0000   1.0000   1.0000
     1.0000   1.0000   1.0000   1.0000   1.0000   1.0000   1.0000   1.0000
     1.0000   1.0000   1.0000   1.0000   1.0000   1.0000   1.0000   1.0000
     1.0000   1.0000   1.0000   1.0000   1.0000   1.0000   1.0000   1.0000
     1.0000   1.0000   1.0000   1.0000   1.0000   1.0000   1.0000   1.0000
     1.0000   1.0000   1.0000   1.0000   1.0000   1.0000   1.0000   1.0000
     1.0000   1.0000   1.0000   1.0000   1.0000   1.0000   1.0000   1.0000
     1.0000   1.0000   1.0000   1.0000   1.0000   1.0000   1.0000   1.0000
     1.0000   1.0000   1.0000   1.0000   1.0000   1.0000   1.0000   1.0000
     1.0000   1.0000   1.0000   1.0000   1.0000   1.0000   1.0000   1.0000
     1.0000   1.0000   1.0000   1.0000   1.0000   1.0000   1.0000   1.0000
     1.0000   1.0000   1.0000   1.0000   1.0000   1.0000   1.0000   1.0000
     1.0000   1.0000   1.0000   1.0000   0.9999   0.9999   0.9997   0.9991
     0.9980   0.9962   0.9945   0.9907   0.9883   0.9832   0.9482   0.9131
     0.8799   0.8199   0.7258   0.6626   0.5512   0.4287   0.1805   0.1370
     0.0570   0.0377   0.0153   0.0134   0.0057   0.0043   0.0026   0.0016
     0.0009   0.0001   0.0000   0.0000   0.0000   0.0000   0.0000   0.0000
     0.0000   0.0000   0.0000   0.0000   0.0000   0.0000   0.0000   0.0000
     0.0000   0.0000   0.0000   0.0000   0.0000   0.0000   0.0000   0.0000
     0.0000   0.0000   0.0000   0.0000   0.0000   0.0000   0.0000   0.0000
     0.0000   0.0000   0.0000   0.0000   0.0000   0.0000   0.0000   0.0000
     0.0000   0.0000   0.0000   0.0000   0.0000   0.0000   0.0000   0.0000
     0.0000   0.0000   0.0000   0.0000   0.0000   0.0000   0.0000   0.0000

          k =-0.5000 0.6736 0.0000 ( 88140 PWs)   bands (ev):

   -95.4144 -95.4078 -95.4067 -95.4026 -95.3873 -95.3856 -95.3846 -95.3810
   -95.3793 -95.3781 -95.3770 -95.3765 -95.3745 -95.3727 -95.3695 -95.3694
   -95.3688 -95.2191 -95.1925 -95.1896 -95.1889 -95.0151 -95.0093 -95.0083
   -94.9521 -94.9479 -94.9453 -94.9396 -94.9390 -94.9364 -94.9329 -94.9313
   -94.9307 -94.9301 -94.9239 -94.9223 -49.7153 -49.7042 -49.6986 -49.6887
   -49.6777 -49.6710 -49.6639 -49.6561 -49.6509 -49.6465 -49.6440 -49.6403
   -49.6304 -49.6198 -49.6141 -49.5755 -49.5715 -49.5612 -49.5535 -49.5484
   -49.5457 -49.5411 -49.5346 -49.5280 -49.5225 -49.5215 -49.5160 -49.5108
   -49.5085 -49.5003 -49.4951 -49.4920 -49.4896 -49.4843 -49.4792 -49.4766
   -49.4743 -49.4731 -49.4701 -49.4683 -49.4613 -49.4577 -49.4548 -49.4512
   -49.4481 -49.4470 -49.4411 -49.4382 -49.4353 -49.4289 -49.4244 -49.4171
   -49.4054 -49.3968 -49.3765 -49.3661 -49.3501 -49.3439 -49.3397 -49.3313
   -49.3181 -49.3059 -49.2996 -49.2948 -49.2813 -49.2744 -49.2684 -49.2616
   -49.2414 -49.2402 -49.2189 -49.2110 -49.1984 -49.1727 -49.1653 -49.1601
   -49.1574 -49.1396 -49.1366 -49.1365 -49.1317 -49.1215 -49.1205 -49.1184
   -49.1177 -49.1126 -49.0992 -49.0968 -49.0918 -49.0806 -49.0786 -49.0665
   -49.0545 -48.9229 -48.9142 -48.9127 -48.8820 -48.8770 -48.8724 -48.8653
   -48.8628 -48.8605 -48.8569 -48.8566 -48.8542 -48.8533 -48.8448 -48.8431
   -14.2038  -5.3779  -4.8399  -4.3441  -4.1101  -3.6386  -3.2757  -3.2380
    -3.2120  -3.1035  -3.0700  -3.0266  -2.9665  -2.8926  -2.8781  -2.7628
    -2.6930  -2.6821  -2.6358  -2.5996  -2.5499  -2.5316  -2.5148  -2.4977
    -2.4530  -2.3845  -2.3514  -2.3166  -2.2840  -2.2413  -2.1595  -2.1205
    -2.0923  -2.0739  -2.0218  -1.9969  -1.9124  -1.8493  -1.7993  -1.7272
    -1.6062  -1.5613  -1.5314  -1.4562  -1.4459  -1.4305  -1.4157  -1.3410
    -1.3206  -1.2998  -1.2336  -1.2091  -1.1287  -1.1127  -1.0901  -1.0650
    -1.0136  -0.9814  -0.9712  -0.9386  -0.9017  -0.8287  -0.7929  -0.7814
    -0.7608  -0.7239  -0.6836  -0.6405  -0.5726  -0.5392  -0.5045  -0.4770
    -0.4559  -0.4191  -0.4129  -0.3946  -0.3578  -0.3410  -0.2977  -0.2479
    -0.2302  -0.1959  -0.1645  -0.1473  -0.1326  -0.0872  -0.0718  -0.0435
    -0.0207   0.0204   0.0554   0.0801   0.0944   0.1133   0.1672   0.1843
     0.2064   0.2141   0.2324   0.2506   0.2681   0.2801   0.3120   0.3259
     0.3640   0.3973   0.4288   0.4540   0.4837   0.5424   0.5749   0.5886
     0.6453   0.7038   0.7252   0.8103   0.8576   0.9372   0.9483   0.9802
     1.0168   1.0293   1.0363   1.0711   1.0903   1.1429   1.1798   1.1985
     1.2203   1.2532   1.2864   1.3269   1.3486   1.3709   1.4199   1.4719
     1.5807   1.6050   1.6278   1.6704   1.7084   1.7306   1.7578   1.7671
     1.7887   1.8184   1.8363   1.8793   1.9497   1.9705   1.9938   2.0130
     2.0264   2.0463   2.1199   2.1599   2.2117   2.2606   2.3083   2.3771
     2.3854   2.4531   2.4953   2.5106   2.5693   2.6068   2.6408   2.7017
     2.7431   2.7766   2.7948   2.8213   2.8330   2.8513   2.9094   2.9371
     2.9551   2.9789   3.0060   3.0209   3.0444   3.0691   3.1303   3.1467
     3.1950   3.2166   3.2631   3.2698   3.3130   3.3270   3.3514   3.3758
     3.4078   3.5110   3.6785   4.0676   4.3357   4.3866   4.4556   4.6180
     4.7852   4.9695   5.0378   5.2853   5.3506   5.4126   5.4700   5.5923
     5.8525   5.9035   6.0777   6.3248   6.5061   6.6517   6.7179   6.8319
     7.0681   7.3311   7.5033   7.6726   7.7633   7.9476   8.5477   8.7501
     8.8061   8.8549   9.0939   9.2886   9.4054   9.4328   9.6702   9.7232
     9.8063   9.8785  10.0425  10.1336  10.2516  10.2757  10.3696  10.5844
    10.6663  10.8090  11.0063  11.0512  11.1184  11.1798  11.2391  11.2772

     occupation numbers 
     1.0000   1.0000   1.0000   1.0000   1.0000   1.0000   1.0000   1.0000
     1.0000   1.0000   1.0000   1.0000   1.0000   1.0000   1.0000   1.0000
     1.0000   1.0000   1.0000   1.0000   1.0000   1.0000   1.0000   1.0000
     1.0000   1.0000   1.0000   1.0000   1.0000   1.0000   1.0000   1.0000
     1.0000   1.0000   1.0000   1.0000   1.0000   1.0000   1.0000   1.0000
     1.0000   1.0000   1.0000   1.0000   1.0000   1.0000   1.0000   1.0000
     1.0000   1.0000   1.0000   1.0000   1.0000   1.0000   1.0000   1.0000
     1.0000   1.0000   1.0000   1.0000   1.0000   1.0000   1.0000   1.0000
     1.0000   1.0000   1.0000   1.0000   1.0000   1.0000   1.0000   1.0000
     1.0000   1.0000   1.0000   1.0000   1.0000   1.0000   1.0000   1.0000
     1.0000   1.0000   1.0000   1.0000   1.0000   1.0000   1.0000   1.0000
     1.0000   1.0000   1.0000   1.0000   1.0000   1.0000   1.0000   1.0000
     1.0000   1.0000   1.0000   1.0000   1.0000   1.0000   1.0000   1.0000
     1.0000   1.0000   1.0000   1.0000   1.0000   1.0000   1.0000   1.0000
     1.0000   1.0000   1.0000   1.0000   1.0000   1.0000   1.0000   1.0000
     1.0000   1.0000   1.0000   1.0000   1.0000   1.0000   1.0000   1.0000
     1.0000   1.0000   1.0000   1.0000   1.0000   1.0000   1.0000   1.0000
     1.0000   1.0000   1.0000   1.0000   1.0000   1.0000   1.0000   1.0000
     1.0000   1.0000   1.0000   1.0000   1.0000   1.0000   1.0000   1.0000
     1.0000   1.0000   1.0000   1.0000   1.0000   1.0000   1.0000   1.0000
     1.0000   1.0000   1.0000   1.0000   1.0000   1.0000   1.0000   1.0000
     1.0000   1.0000   1.0000   1.0000   1.0000   1.0000   1.0000   1.0000
     1.0000   1.0000   1.0000   1.0000   1.0000   1.0000   1.0000   1.0000
     1.0000   1.0000   1.0000   1.0000   1.0000   1.0000   1.0000   1.0000
     1.0000   1.0000   1.0000   1.0000   1.0000   1.0000   1.0000   1.0000
     1.0000   1.0000   1.0000   1.0000   1.0000   1.0000   1.0000   1.0000
     1.0000   1.0000   1.0000   1.0000   1.0000   1.0000   1.0000   1.0000
     1.0000   1.0000   1.0000   1.0000   1.0000   1.0000   1.0000   1.0000
     1.0000   1.0000   1.0000   1.0000   1.0000   1.0000   1.0000   1.0000
     1.0000   1.0000   1.0000   1.0000   1.0000   1.0000   1.0000   1.0000
     1.0000   1.0000   1.0000   1.0000   1.0000   1.0000   1.0000   1.0000
     1.0000   1.0000   1.0000   1.0000   1.0000   1.0000   1.0000   1.0000
     1.0000   1.0000   1.0000   1.0000   1.0000   1.0000   1.0000   1.0000
     1.0000   1.0000   1.0000   1.0000   1.0000   1.0000   1.0000   1.0000
     1.0000   1.0000   1.0000   1.0000   1.0000   1.0000   1.0000   1.0000
     1.0000   1.0000   1.0000   1.0000   1.0000   1.0000   1.0000   1.0000
     1.0000   1.0000   1.0000   1.0000   1.0000   1.0000   1.0000   1.0000
     1.0000   1.0000   1.0000   1.0000   1.0000   1.0000   1.0000   1.0000
     1.0000   1.0000   1.0000   1.0000   0.9999   0.9999   0.9997   0.9991
     0.9980   0.9962   0.9945   0.9907   0.9883   0.9832   0.9482   0.9131
     0.8799   0.8198   0.7258   0.6626   0.5512   0.4286   0.1805   0.1370
     0.0570   0.0377   0.0153   0.0134   0.0057   0.0043   0.0026   0.0016
     0.0009   0.0001   0.0000   0.0000   0.0000   0.0000   0.0000   0.0000
     0.0000   0.0000   0.0000   0.0000   0.0000   0.0000   0.0000   0.0000
     0.0000   0.0000   0.0000   0.0000   0.0000   0.0000   0.0000   0.0000
     0.0000   0.0000   0.0000   0.0000   0.0000   0.0000   0.0000   0.0000
     0.0000   0.0000   0.0000   0.0000   0.0000   0.0000   0.0000   0.0000
     0.0000   0.0000   0.0000   0.0000   0.0000   0.0000   0.0000   0.0000
     0.0000   0.0000   0.0000   0.0000   0.0000   0.0000   0.0000   0.0000

          k =-0.5000-0.2887 0.0000 ( 88178 PWs)   bands (ev):

   -95.4144 -95.4079 -95.4066 -95.4026 -95.3874 -95.3855 -95.3843 -95.3816
   -95.3788 -95.3777 -95.3775 -95.3767 -95.3740 -95.3730 -95.3695 -95.3694
   -95.3687 -95.2191 -95.1925 -95.1896 -95.1889 -95.0151 -95.0093 -95.0083
   -94.9520 -94.9483 -94.9449 -94.9400 -94.9390 -94.9362 -94.9329 -94.9313
   -94.9306 -94.9303 -94.9239 -94.9223 -49.7198 -49.7011 -49.6911 -49.6868
   -49.6750 -49.6720 -49.6674 -49.6622 -49.6533 -49.6510 -49.6495 -49.6440
   -49.6258 -49.6170 -49.5911 -49.5854 -49.5688 -49.5623 -49.5549 -49.5508
   -49.5423 -49.5395 -49.5379 -49.5299 -49.5288 -49.5238 -49.5180 -49.5148
   -49.5048 -49.5022 -49.4969 -49.4899 -49.4829 -49.4827 -49.4819 -49.4751
   -49.4738 -49.4706 -49.4704 -49.4609 -49.4592 -49.4577 -49.4544 -49.4515
   -49.4497 -49.4465 -49.4444 -49.4369 -49.4351 -49.4292 -49.4279 -49.4244
   -49.4031 -49.3931 -49.3742 -49.3706 -49.3533 -49.3395 -49.3366 -49.3338
   -49.3223 -49.2967 -49.2906 -49.2897 -49.2872 -49.2863 -49.2788 -49.2620
   -49.2464 -49.2193 -49.2107 -49.2074 -49.2070 -49.1927 -49.1646 -49.1526
   -49.1515 -49.1483 -49.1481 -49.1335 -49.1207 -49.1201 -49.1150 -49.1131
   -49.1129 -49.1112 -49.0992 -49.0985 -49.0981 -49.0965 -49.0764 -49.0594
   -49.0559 -48.9229 -48.9142 -48.9127 -48.8817 -48.8781 -48.8705 -48.8672
   -48.8625 -48.8601 -48.8569 -48.8565 -48.8540 -48.8536 -48.8448 -48.8431
   -14.2038  -5.2185  -5.1693  -3.9837  -3.9176  -3.7686  -3.7501  -3.3455
    -3.1798  -2.9291  -2.8889  -2.8644  -2.8272  -2.8098  -2.7985  -2.7903
    -2.7796  -2.7665  -2.7640  -2.7095  -2.6533  -2.6255  -2.6078  -2.5875
    -2.5229  -2.4453  -2.2624  -2.2610  -2.2278  -2.2238  -2.0574  -2.0268
    -1.9852  -1.9754  -1.9452  -1.9352  -1.8440  -1.8413  -1.7276  -1.7235
    -1.6946  -1.6635  -1.6327  -1.5451  -1.5316  -1.4311  -1.4128  -1.3885
    -1.3755  -1.3095  -1.2898  -1.1849  -1.1436  -1.1407  -1.1248  -1.0354
    -1.0258  -1.0205  -1.0078  -0.8757  -0.8577  -0.8325  -0.8295  -0.8055
    -0.7899  -0.7144  -0.6346  -0.6333  -0.5561  -0.5362  -0.5228  -0.4984
    -0.4864  -0.4765  -0.4586  -0.3806  -0.3021  -0.2821  -0.2350  -0.2288
    -0.1968  -0.1949  -0.1735  -0.1649  -0.1477  -0.1418  -0.0710  -0.0576
    -0.0348  -0.0210  -0.0001   0.0039   0.0493   0.0698   0.1416   0.1862
     0.1939   0.2749   0.2810   0.2856   0.2911   0.3121   0.3507   0.3632
     0.4568   0.4615   0.5074   0.5229   0.5471   0.6242   0.6619   0.7394
     0.7600   0.8105   0.8411   0.8846   0.9099   0.9188   0.9476   0.9639
     0.9842   0.9949   0.9962   1.0286   1.0422   1.1014   1.1099   1.1366
     1.1458   1.1787   1.1881   1.2519   1.2642   1.2765   1.3431   1.4391
     1.4469   1.5696   1.5914   1.6904   1.7097   1.7448   1.7663   1.8392
     1.8470   1.9092   1.9240   1.9863   2.0177   2.0371   2.0508   2.0621
     2.0751   2.1114   2.1593   2.1877   2.2246   2.2450   2.2622   2.2708
     2.3374   2.3745   2.4302   2.5119   2.5409   2.5722   2.5868   2.6529
     2.6667   2.7126   2.7553   2.7610   2.8017   2.8092   2.8359   2.8463
     2.8600   2.9723   3.0289   3.0424   3.0451   3.0540   3.0762   3.1018
     3.1423   3.1884   3.3066   3.3106   3.3228   3.3432   3.3726   3.4094
     3.5091   3.5748   3.9052   3.9551   4.2024   4.5923   4.7258   4.9025
     4.9209   4.9215   4.9552   5.3612   5.4046   5.4137   5.4581   5.6283
     5.7380   5.9619   6.0178   6.1134   6.3438   6.4299   6.4528   6.5484
     6.6078   6.9955   8.3841   8.4530   8.4847   8.5376   8.7311   8.7917
     8.8591   8.9462   8.9607   8.9919   9.0293   9.0857   9.4807   9.6114
     9.6196   9.9043   9.9123  10.0218  10.0651  10.3998  10.4064  10.5460
    10.6269  10.7958  10.9324  10.9753  11.0023  11.0155  11.1131  11.1379

     occupation numbers 
     1.0000   1.0000   1.0000   1.0000   1.0000   1.0000   1.0000   1.0000
     1.0000   1.0000   1.0000   1.0000   1.0000   1.0000   1.0000   1.0000
     1.0000   1.0000   1.0000   1.0000   1.0000   1.0000   1.0000   1.0000
     1.0000   1.0000   1.0000   1.0000   1.0000   1.0000   1.0000   1.0000
     1.0000   1.0000   1.0000   1.0000   1.0000   1.0000   1.0000   1.0000
     1.0000   1.0000   1.0000   1.0000   1.0000   1.0000   1.0000   1.0000
     1.0000   1.0000   1.0000   1.0000   1.0000   1.0000   1.0000   1.0000
     1.0000   1.0000   1.0000   1.0000   1.0000   1.0000   1.0000   1.0000
     1.0000   1.0000   1.0000   1.0000   1.0000   1.0000   1.0000   1.0000
     1.0000   1.0000   1.0000   1.0000   1.0000   1.0000   1.0000   1.0000
     1.0000   1.0000   1.0000   1.0000   1.0000   1.0000   1.0000   1.0000
     1.0000   1.0000   1.0000   1.0000   1.0000   1.0000   1.0000   1.0000
     1.0000   1.0000   1.0000   1.0000   1.0000   1.0000   1.0000   1.0000
     1.0000   1.0000   1.0000   1.0000   1.0000   1.0000   1.0000   1.0000
     1.0000   1.0000   1.0000   1.0000   1.0000   1.0000   1.0000   1.0000
     1.0000   1.0000   1.0000   1.0000   1.0000   1.0000   1.0000   1.0000
     1.0000   1.0000   1.0000   1.0000   1.0000   1.0000   1.0000   1.0000
     1.0000   1.0000   1.0000   1.0000   1.0000   1.0000   1.0000   1.0000
     1.0000   1.0000   1.0000   1.0000   1.0000   1.0000   1.0000   1.0000
     1.0000   1.0000   1.0000   1.0000   1.0000   1.0000   1.0000   1.0000
     1.0000   1.0000   1.0000   1.0000   1.0000   1.0000   1.0000   1.0000
     1.0000   1.0000   1.0000   1.0000   1.0000   1.0000   1.0000   1.0000
     1.0000   1.0000   1.0000   1.0000   1.0000   1.0000   1.0000   1.0000
     1.0000   1.0000   1.0000   1.0000   1.0000   1.0000   1.0000   1.0000
     1.0000   1.0000   1.0000   1.0000   1.0000   1.0000   1.0000   1.0000
     1.0000   1.0000   1.0000   1.0000   1.0000   1.0000   1.0000   1.0000
     1.0000   1.0000   1.0000   1.0000   1.0000   1.0000   1.0000   1.0000
     1.0000   1.0000   1.0000   1.0000   1.0000   1.0000   1.0000   1.0000
     1.0000   1.0000   1.0000   1.0000   1.0000   1.0000   1.0000   1.0000
     1.0000   1.0000   1.0000   1.0000   1.0000   1.0000   1.0000   1.0000
     1.0000   1.0000   1.0000   1.0000   1.0000   1.0000   1.0000   1.0000
     1.0000   1.0000   1.0000   1.0000   1.0000   1.0000   1.0000   1.0000
     1.0000   1.0000   1.0000   1.0000   1.0000   1.0000   1.0000   1.0000
     1.0000   1.0000   1.0000   1.0000   1.0000   1.0000   1.0000   1.0000
     1.0000   1.0000   1.0000   1.0000   1.0000   1.0000   1.0000   1.0000
     1.0000   1.0000   1.0000   1.0000   1.0000   1.0000   1.0000   1.0000
     1.0000   1.0000   1.0000   1.0000   1.0000   1.0000   1.0000   1.0000
     1.0000   1.0000   1.0000   1.0000   1.0000   1.0000   1.0000   1.0000
     1.0000   1.0000   1.0000   1.0000   1.0000   0.9999   0.9999   0.9997
     0.9996   0.9989   0.9975   0.9972   0.9937   0.9927   0.9876   0.9847
     0.9800   0.8387   0.6262   0.5611   0.5479   0.5037   0.3941   0.2804
     0.1478   0.0646   0.0064   0.0059   0.0047   0.0031   0.0017   0.0008
     0.0001   0.0000   0.0000   0.0000   0.0000   0.0000   0.0000   0.0000
     0.0000   0.0000   0.0000   0.0000   0.0000   0.0000   0.0000   0.0000
     0.0000   0.0000   0.0000   0.0000   0.0000   0.0000   0.0000   0.0000
     0.0000   0.0000   0.0000   0.0000   0.0000   0.0000   0.0000   0.0000
     0.0000   0.0000   0.0000   0.0000   0.0000   0.0000   0.0000   0.0000
     0.0000   0.0000   0.0000   0.0000   0.0000   0.0000   0.0000   0.0000
     0.0000   0.0000   0.0000   0.0000   0.0000   0.0000   0.0000   0.0000

 ------ SPIN DOWN ----------


          k = 0.0000 0.0000 0.0000 ( 88097 PWs)   bands (ev):

   -95.4152 -95.4069 -95.4063 -95.4027 -95.3877 -95.3830 -95.3827 -95.3817
   -95.3816 -95.3814 -95.3748 -95.3746 -95.3739 -95.3734 -95.3696 -95.3695
   -95.3689 -95.2188 -95.1922 -95.1892 -95.1883 -95.0150 -95.0090 -95.0081
   -94.9542 -94.9445 -94.9442 -94.9414 -94.9369 -94.9368 -94.9352 -94.9312
   -94.9301 -94.9299 -94.9238 -94.9221 -49.6787 -49.6636 -49.6578 -49.6530
   -49.6518 -49.6509 -49.6496 -49.6445 -49.6441 -49.6414 -49.6376 -49.6371
   -49.6333 -49.6304 -49.6297 -49.6285 -49.6037 -49.6036 -49.6027 -49.5687
   -49.5681 -49.5638 -49.5634 -49.5588 -49.5396 -49.5389 -49.5316 -49.5272
   -49.5111 -49.5102 -49.4920 -49.4916 -49.4911 -49.4833 -49.4719 -49.4711
   -49.4684 -49.4662 -49.4634 -49.4631 -49.4627 -49.4544 -49.4495 -49.4492
   -49.4470 -49.4466 -49.4257 -49.4238 -49.4229 -49.4193 -49.4063 -49.4050
   -49.3871 -49.3860 -49.3582 -49.3577 -49.3526 -49.3334 -49.3327 -49.3070
   -49.2962 -49.2744 -49.2743 -49.2608 -49.2600 -49.2586 -49.2573 -49.2569
   -49.2568 -49.2543 -49.2541 -49.2519 -49.2475 -49.2446 -49.2378 -49.2377
   -49.2006 -49.1334 -49.1330 -49.1268 -49.1112 -49.1032 -49.1027 -49.0981
   -49.0959 -49.0957 -49.0929 -49.0928 -49.0913 -49.0705 -49.0704 -49.0391
   -49.0388 -48.9234 -48.9134 -48.9124 -48.8868 -48.8695 -48.8692 -48.8675
   -48.8624 -48.8623 -48.8610 -48.8570 -48.8526 -48.8523 -48.8445 -48.8429
   -14.2005  -6.0757  -4.7798  -3.7034  -3.6306  -3.6061  -3.6048  -3.5992
    -3.5814  -3.5812  -3.5396  -3.0537  -3.0522  -3.0302  -2.9991  -2.9987
    -2.9622  -2.5655  -2.5652  -2.5500  -2.5419  -2.5412  -2.5215  -2.3114
    -2.3110  -2.3094  -2.2857  -2.2801  -2.2798  -2.1055  -2.1005  -2.0997
    -2.0899  -2.0891  -2.0763  -2.0246  -2.0225  -2.0220  -1.9685  -1.9616
    -1.9597  -1.4351  -1.4275  -1.4230  -1.4229  -1.3859  -1.3765  -1.3759
    -1.3091  -1.3088  -1.2995  -1.1843  -1.1841  -1.1017  -1.1015  -0.7345
    -0.6348  -0.6337  -0.5932  -0.5926  -0.5682  -0.5053  -0.5036  -0.5033
    -0.4321  -0.4292  -0.3809  -0.3801  -0.3778  -0.3621  -0.3619  -0.3535
    -0.3330  -0.3325  -0.3322  -0.3246  -0.3229  -0.2545  -0.2353  -0.2342
    -0.1501  -0.1498  -0.1247  -0.0887  -0.0872  -0.0724   0.0713   0.0728
     0.0870   0.1250   0.1256   0.1275   0.1677   0.1691   0.2229   0.2234
     0.2462   0.2742   0.2820   0.2866   0.2877   0.3242   0.3242   0.3710
     0.4553   0.4577   0.4597   0.5020   0.6590   0.6624   0.6886   0.9626
     0.9631   1.0277   1.0369   1.0372   1.0375   1.0441   1.0451   1.0594
     1.1528   1.1660   1.1661   1.1880   1.1895   1.2214   1.2217   1.2539
     1.3481   1.3486   1.5346   1.5436   1.5462   1.5501   1.6007   1.6058
     1.7937   1.8196   1.8197   1.8202   1.8428   1.8433   1.8931   1.8935
     2.0335   2.0348   2.0367   2.0372   2.0645   2.0653   2.1015   2.2482
     2.2490   2.2592   2.2643   2.2675   2.2676   2.2711   2.2762   2.2767
     2.3288   2.3297   2.3347   2.4018   2.4020   2.4250   2.4261   2.4456
     2.5022   2.5025   2.5029   2.5391   2.5395   2.5730   2.5732   2.5964
     2.6612   2.6616   2.6620   2.6969   2.7098   2.7104   2.7220   2.7522
     2.7526   2.7850   2.7926   2.8017   2.8021   2.9015   2.9020   3.0325
     3.0366   3.0934   3.1308   3.1315   3.1504   3.1689   3.1697   3.3451
     3.8804   3.9514   3.9622   3.9632   4.1483   4.1494   4.8464   6.2800
     6.2823   6.2972   6.4176   6.4193   6.6045   7.7714   7.7717   7.7958
     7.8268   7.8278   7.8750   8.5624   8.5624   8.9949   9.1363   9.1396
     9.1465   9.2610   9.2638   9.3836   9.6074   9.7231   9.7235   9.8173
     9.8968  10.2838  10.4634  10.4643  10.7488  11.0400  11.0423  11.0561
    11.0862  11.0891  11.3883  11.4553  11.5479  11.5511  11.6344  11.8601

     occupation numbers 
     1.0000   1.0000   1.0000   1.0000   1.0000   1.0000   1.0000   1.0000
     1.0000   1.0000   1.0000   1.0000   1.0000   1.0000   1.0000   1.0000
     1.0000   1.0000   1.0000   1.0000   1.0000   1.0000   1.0000   1.0000
     1.0000   1.0000   1.0000   1.0000   1.0000   1.0000   1.0000   1.0000
     1.0000   1.0000   1.0000   1.0000   1.0000   1.0000   1.0000   1.0000
     1.0000   1.0000   1.0000   1.0000   1.0000   1.0000   1.0000   1.0000
     1.0000   1.0000   1.0000   1.0000   1.0000   1.0000   1.0000   1.0000
     1.0000   1.0000   1.0000   1.0000   1.0000   1.0000   1.0000   1.0000
     1.0000   1.0000   1.0000   1.0000   1.0000   1.0000   1.0000   1.0000
     1.0000   1.0000   1.0000   1.0000   1.0000   1.0000   1.0000   1.0000
     1.0000   1.0000   1.0000   1.0000   1.0000   1.0000   1.0000   1.0000
     1.0000   1.0000   1.0000   1.0000   1.0000   1.0000   1.0000   1.0000
     1.0000   1.0000   1.0000   1.0000   1.0000   1.0000   1.0000   1.0000
     1.0000   1.0000   1.0000   1.0000   1.0000   1.0000   1.0000   1.0000
     1.0000   1.0000   1.0000   1.0000   1.0000   1.0000   1.0000   1.0000
     1.0000   1.0000   1.0000   1.0000   1.0000   1.0000   1.0000   1.0000
     1.0000   1.0000   1.0000   1.0000   1.0000   1.0000   1.0000   1.0000
     1.0000   1.0000   1.0000   1.0000   1.0000   1.0000   1.0000   1.0000
     1.0000   1.0000   1.0000   1.0000   1.0000   1.0000   1.0000   1.0000
     1.0000   1.0000   1.0000   1.0000   1.0000   1.0000   1.0000   1.0000
     1.0000   1.0000   1.0000   1.0000   1.0000   1.0000   1.0000   1.0000
     1.0000   1.0000   1.0000   1.0000   1.0000   1.0000   1.0000   1.0000
     1.0000   1.0000   1.0000   1.0000   1.0000   1.0000   1.0000   1.0000
     1.0000   1.0000   1.0000   1.0000   1.0000   1.0000   1.0000   1.0000
     1.0000   1.0000   1.0000   1.0000   1.0000   1.0000   1.0000   1.0000
     1.0000   1.0000   1.0000   1.0000   1.0000   1.0000   1.0000   1.0000
     1.0000   1.0000   1.0000   1.0000   1.0000   1.0000   1.0000   1.0000
     1.0000   1.0000   1.0000   1.0000   1.0000   1.0000   1.0000   1.0000
     1.0000   1.0000   1.0000   1.0000   1.0000   1.0000   1.0000   1.0000
     1.0000   1.0000   1.0000   1.0000   1.0000   1.0000   1.0000   1.0000
     1.0000   1.0000   1.0000   1.0000   1.0000   1.0000   1.0000   1.0000
     1.0000   1.0000   1.0000   1.0000   1.0000   1.0000   1.0000   1.0000
     1.0000   1.0000   1.0000   1.0000   1.0000   1.0000   1.0000   1.0000
     1.0000   1.0000   1.0000   1.0000   1.0000   1.0000   1.0000   1.0000
     1.0000   1.0000   1.0000   1.0000   1.0000   1.0000   1.0000   1.0000
     1.0000   1.0000   1.0000   1.0000   1.0000   1.0000   1.0000   1.0000
     1.0000   1.0000   1.0000   1.0000   1.0000   1.0000   1.0000   1.0000
     1.0000   1.0000   1.0000   1.0000   1.0000   1.0000   1.0000   1.0000
     1.0000   1.0000   1.0000   1.0000   1.0000   1.0000   1.0000   1.0000
     1.0000   1.0000   1.0000   1.0000   1.0000   0.9999   0.9999   0.9999
     0.9996   0.9996   0.9996   0.9992   0.9990   0.9990   0.9987   0.9976
     0.9976   0.9955   0.9947   0.9937   0.9936   0.9554   0.9549   0.6092
     0.5894   0.3154   0.1791   0.1772   0.1286   0.0924   0.0911   0.0030
     0.0000   0.0000   0.0000   0.0000   0.0000   0.0000   0.0000   0.0000
     0.0000   0.0000   0.0000   0.0000   0.0000   0.0000   0.0000   0.0000
     0.0000   0.0000   0.0000   0.0000   0.0000   0.0000   0.0000   0.0000
     0.0000   0.0000   0.0000   0.0000   0.0000   0.0000   0.0000   0.0000
     0.0000   0.0000   0.0000   0.0000   0.0000   0.0000   0.0000   0.0000
     0.0000   0.0000   0.0000   0.0000   0.0000   0.0000   0.0000   0.0000

          k = 0.0000 0.1925 0.0000 ( 88230 PWs)   bands (ev):

   -95.4150 -95.4069 -95.4065 -95.4026 -95.3877 -95.3838 -95.3833 -95.3816
   -95.3806 -95.3806 -95.3754 -95.3750 -95.3737 -95.3734 -95.3698 -95.3692
   -95.3689 -95.2188 -95.1921 -95.1892 -95.1883 -95.0150 -95.0090 -95.0081
   -94.9538 -94.9454 -94.9444 -94.9408 -94.9379 -94.9367 -94.9342 -94.9312
   -94.9302 -94.9300 -94.9238 -94.9221 -49.6905 -49.6800 -49.6727 -49.6683
   -49.6626 -49.6570 -49.6558 -49.6492 -49.6480 -49.6391 -49.6385 -49.6347
   -49.6307 -49.6207 -49.6146 -49.6144 -49.6029 -49.5919 -49.5816 -49.5612
   -49.5612 -49.5558 -49.5554 -49.5487 -49.5413 -49.5369 -49.5293 -49.5239
   -49.5122 -49.5042 -49.4981 -49.4952 -49.4845 -49.4817 -49.4775 -49.4766
   -49.4723 -49.4668 -49.4662 -49.4624 -49.4565 -49.4559 -49.4515 -49.4494
   -49.4445 -49.4435 -49.4312 -49.4289 -49.4266 -49.4176 -49.4116 -49.4044
   -49.3941 -49.3877 -49.3648 -49.3612 -49.3465 -49.3382 -49.3337 -49.3187
   -49.2974 -49.2902 -49.2744 -49.2735 -49.2724 -49.2710 -49.2668 -49.2661
   -49.2564 -49.2493 -49.2438 -49.2337 -49.2331 -49.2134 -49.2129 -49.2087
   -49.2028 -49.1382 -49.1331 -49.1251 -49.1140 -49.1063 -49.1048 -49.1046
   -49.1031 -49.1012 -49.0927 -49.0926 -49.0821 -49.0762 -49.0717 -49.0480
   -49.0410 -48.9232 -48.9134 -48.9125 -48.8860 -48.8718 -48.8695 -48.8664
   -48.8637 -48.8617 -48.8590 -48.8569 -48.8528 -48.8526 -48.8445 -48.8429
   -14.2005  -5.9716  -4.6782  -4.0231  -3.7090  -3.7043  -3.5988  -3.5011
    -3.4039  -3.3933  -3.3777  -3.1376  -3.0653  -3.0068  -2.9739  -2.9459
    -2.9267  -2.5881  -2.5230  -2.5148  -2.5039  -2.4857  -2.4598  -2.4472
    -2.3654  -2.3604  -2.2676  -2.2304  -2.2279  -2.1521  -2.1465  -2.1335
    -2.1210  -2.1206  -2.1012  -2.0843  -1.9289  -1.9182  -1.8617  -1.8311
    -1.8052  -1.5204  -1.5141  -1.5062  -1.4691  -1.4684  -1.4279  -1.4120
    -1.2654  -1.2648  -1.1838  -1.1713  -1.1626  -1.0935  -1.0884  -0.8155
    -0.7666  -0.7362  -0.7036  -0.6805  -0.6793  -0.6234  -0.6221  -0.5985
    -0.5685  -0.5523  -0.4998  -0.4767  -0.4606  -0.4319  -0.3998  -0.3866
    -0.3603  -0.3400  -0.2675  -0.2586  -0.2315  -0.1941  -0.1838  -0.1682
    -0.1587  -0.1343  -0.0702  -0.0659  -0.0577  -0.0008   0.0539   0.0562
     0.0761   0.0859   0.1115   0.1164   0.1317   0.1604   0.1991   0.2167
     0.2338   0.2427   0.2474   0.3016   0.3118   0.3607   0.3712   0.3932
     0.4119   0.4248   0.4943   0.5183   0.5209   0.5232   0.5315   0.6114
     0.6188   0.6666   0.7971   0.9048   0.9978   1.0269   1.0293   1.0618
     1.0824   1.0940   1.0948   1.1343   1.2158   1.2775   1.3848   1.4051
     1.4208   1.4562   1.4773   1.4910   1.5097   1.5198   1.5790   1.5891
     1.6599   1.6651   1.7057   1.7165   1.7647   1.7679   1.9094   1.9229
     1.9270   1.9319   1.9889   2.0036   2.0419   2.0558   2.0846   2.1252
     2.1383   2.1739   2.1806   2.1934   2.2195   2.2430   2.3111   2.3243
     2.3529   2.3911   2.4298   2.4455   2.4714   2.5200   2.5316   2.5590
     2.5889   2.6254   2.6330   2.6617   2.6619   2.6851   2.6963   2.7214
     2.7284   2.7378   2.8023   2.8041   2.8182   2.8654   2.9683   2.9890
     2.9960   3.0197   3.0212   3.0328   3.0612   3.0713   3.0843   3.0865
     3.1147   3.1380   3.1534   3.2110   3.2236   3.2755   3.2885   3.5443
     3.6841   3.9387   4.0792   4.4101   4.4547   4.5039   5.0736   5.7938
     6.1306   6.1991   6.7585   6.8038   6.8855   6.9132   7.0902   7.8675
     7.9468   7.9698   7.9728   8.3923   8.6563   8.6784   8.9112   8.9472
     9.0623   9.0786   9.2230   9.3917   9.5434   9.6288   9.8162   9.8295
     9.9348  10.3091  10.3556  10.4585  10.6489  10.7249  10.7688  10.8072
    10.8910  10.9892  10.9902  11.0706  11.1108  11.2701  11.4732  11.4989

     occupation numbers 
     1.0000   1.0000   1.0000   1.0000   1.0000   1.0000   1.0000   1.0000
     1.0000   1.0000   1.0000   1.0000   1.0000   1.0000   1.0000   1.0000
     1.0000   1.0000   1.0000   1.0000   1.0000   1.0000   1.0000   1.0000
     1.0000   1.0000   1.0000   1.0000   1.0000   1.0000   1.0000   1.0000
     1.0000   1.0000   1.0000   1.0000   1.0000   1.0000   1.0000   1.0000
     1.0000   1.0000   1.0000   1.0000   1.0000   1.0000   1.0000   1.0000
     1.0000   1.0000   1.0000   1.0000   1.0000   1.0000   1.0000   1.0000
     1.0000   1.0000   1.0000   1.0000   1.0000   1.0000   1.0000   1.0000
     1.0000   1.0000   1.0000   1.0000   1.0000   1.0000   1.0000   1.0000
     1.0000   1.0000   1.0000   1.0000   1.0000   1.0000   1.0000   1.0000
     1.0000   1.0000   1.0000   1.0000   1.0000   1.0000   1.0000   1.0000
     1.0000   1.0000   1.0000   1.0000   1.0000   1.0000   1.0000   1.0000
     1.0000   1.0000   1.0000   1.0000   1.0000   1.0000   1.0000   1.0000
     1.0000   1.0000   1.0000   1.0000   1.0000   1.0000   1.0000   1.0000
     1.0000   1.0000   1.0000   1.0000   1.0000   1.0000   1.0000   1.0000
     1.0000   1.0000   1.0000   1.0000   1.0000   1.0000   1.0000   1.0000
     1.0000   1.0000   1.0000   1.0000   1.0000   1.0000   1.0000   1.0000
     1.0000   1.0000   1.0000   1.0000   1.0000   1.0000   1.0000   1.0000
     1.0000   1.0000   1.0000   1.0000   1.0000   1.0000   1.0000   1.0000
     1.0000   1.0000   1.0000   1.0000   1.0000   1.0000   1.0000   1.0000
     1.0000   1.0000   1.0000   1.0000   1.0000   1.0000   1.0000   1.0000
     1.0000   1.0000   1.0000   1.0000   1.0000   1.0000   1.0000   1.0000
     1.0000   1.0000   1.0000   1.0000   1.0000   1.0000   1.0000   1.0000
     1.0000   1.0000   1.0000   1.0000   1.0000   1.0000   1.0000   1.0000
     1.0000   1.0000   1.0000   1.0000   1.0000   1.0000   1.0000   1.0000
     1.0000   1.0000   1.0000   1.0000   1.0000   1.0000   1.0000   1.0000
     1.0000   1.0000   1.0000   1.0000   1.0000   1.0000   1.0000   1.0000
     1.0000   1.0000   1.0000   1.0000   1.0000   1.0000   1.0000   1.0000
     1.0000   1.0000   1.0000   1.0000   1.0000   1.0000   1.0000   1.0000
     1.0000   1.0000   1.0000   1.0000   1.0000   1.0000   1.0000   1.0000
     1.0000   1.0000   1.0000   1.0000   1.0000   1.0000   1.0000   1.0000
     1.0000   1.0000   1.0000   1.0000   1.0000   1.0000   1.0000   1.0000
     1.0000   1.0000   1.0000   1.0000   1.0000   1.0000   1.0000   1.0000
     1.0000   1.0000   1.0000   1.0000   1.0000   1.0000   1.0000   1.0000
     1.0000   1.0000   1.0000   1.0000   1.0000   1.0000   1.0000   1.0000
     1.0000   1.0000   1.0000   1.0000   1.0000   1.0000   1.0000   1.0000
     1.0000   1.0000   1.0000   1.0000   1.0000   1.0000   1.0000   1.0000
     1.0000   1.0000   1.0000   1.0000   1.0000   1.0000   1.0000   1.0000
     1.0000   1.0000   1.0000   1.0000   1.0000   1.0000   1.0000   1.0000
     0.9999   0.9998   0.9998   0.9996   0.9996   0.9994   0.9992   0.9987
     0.9985   0.9982   0.9936   0.9934   0.9912   0.9778   0.8491   0.7880
     0.7639   0.6683   0.6615   0.6079   0.4674   0.4176   0.3560   0.3460
     0.2314   0.1588   0.1220   0.0420   0.0330   0.0119   0.0092   0.0001
     0.0000   0.0000   0.0000   0.0000   0.0000   0.0000   0.0000   0.0000
     0.0000   0.0000   0.0000   0.0000   0.0000   0.0000   0.0000   0.0000
     0.0000   0.0000   0.0000   0.0000   0.0000   0.0000   0.0000   0.0000
     0.0000   0.0000   0.0000   0.0000   0.0000   0.0000   0.0000   0.0000
     0.0000   0.0000   0.0000   0.0000   0.0000   0.0000   0.0000   0.0000
     0.0000   0.0000   0.0000   0.0000   0.0000   0.0000   0.0000   0.0000

          k = 0.0000 0.3849 0.0000 ( 88170 PWs)   bands (ev):

   -95.4146 -95.4070 -95.4070 -95.4025 -95.3875 -95.3849 -95.3840 -95.3816
   -95.3794 -95.3791 -95.3762 -95.3760 -95.3736 -95.3733 -95.3696 -95.3689
   -95.3689 -95.2188 -95.1921 -95.1893 -95.1883 -95.0149 -95.0090 -95.0082
   -94.9527 -94.9472 -94.9445 -94.9401 -94.9388 -94.9362 -94.9332 -94.9312
   -94.9304 -94.9301 -94.9238 -94.9221 -49.7128 -49.6945 -49.6860 -49.6814
   -49.6696 -49.6695 -49.6625 -49.6585 -49.6542 -49.6488 -49.6469 -49.6382
   -49.6265 -49.6158 -49.5991 -49.5945 -49.5737 -49.5702 -49.5660 -49.5554
   -49.5469 -49.5422 -49.5398 -49.5349 -49.5342 -49.5306 -49.5253 -49.5159
   -49.5075 -49.4986 -49.4985 -49.4931 -49.4905 -49.4837 -49.4827 -49.4764
   -49.4733 -49.4703 -49.4668 -49.4629 -49.4580 -49.4559 -49.4541 -49.4498
   -49.4468 -49.4449 -49.4371 -49.4370 -49.4278 -49.4248 -49.4217 -49.4137
   -49.4022 -49.3910 -49.3714 -49.3674 -49.3484 -49.3408 -49.3356 -49.3299
   -49.3148 -49.2958 -49.2864 -49.2854 -49.2818 -49.2812 -49.2770 -49.2652
   -49.2491 -49.2273 -49.2152 -49.2150 -49.2144 -49.2076 -49.1812 -49.1809
   -49.1602 -49.1512 -49.1334 -49.1241 -49.1235 -49.1219 -49.1181 -49.1103
   -49.1092 -49.0989 -49.0966 -49.0965 -49.0890 -49.0746 -49.0735 -49.0695
   -49.0474 -48.9229 -48.9134 -48.9128 -48.8837 -48.8754 -48.8700 -48.8668
   -48.8631 -48.8605 -48.8571 -48.8568 -48.8535 -48.8531 -48.8445 -48.8430
   -14.2003  -5.6683  -4.6101  -4.3836  -3.7572  -3.7499  -3.4750  -3.3487
    -3.2993  -3.2234  -3.1472  -3.1130  -3.1079  -2.9121  -2.8680  -2.8023
    -2.7958  -2.6896  -2.5857  -2.5417  -2.4589  -2.4587  -2.4310  -2.4205
    -2.4022  -2.3963  -2.3820  -2.3355  -2.2674  -2.2551  -2.2195  -2.2099
    -1.9826  -1.9738  -1.9682  -1.9501  -1.9191  -1.9060  -1.7265  -1.7094
    -1.6392  -1.6354  -1.5987  -1.5086  -1.4920  -1.4750  -1.4431  -1.4352
    -1.2689  -1.2688  -1.2271  -1.2205  -1.1974  -1.1715  -1.1018  -1.0806
    -1.0140  -0.9624  -0.8562  -0.8476  -0.8251  -0.7724  -0.6937  -0.6828
    -0.6544  -0.6340  -0.6272  -0.5796  -0.5127  -0.4673  -0.4602  -0.3844
    -0.3522  -0.3283  -0.3257  -0.3167  -0.2837  -0.2522  -0.2297  -0.1991
    -0.1806  -0.1768  -0.1277  -0.1189  -0.1050  -0.0904  -0.0486  -0.0478
    -0.0365  -0.0172  -0.0067   0.0170   0.0352   0.0842   0.0860   0.1057
     0.2008   0.2419   0.2560   0.2650   0.2943   0.3059   0.3605   0.3887
     0.4071   0.4582   0.4643   0.5353   0.5500   0.5976   0.6065   0.7192
     0.7201   0.7415   0.7756   0.7795   0.9294   0.9780   0.9904   1.0087
     1.0129   1.0459   1.0479   1.0646   1.1017   1.1585   1.1808   1.1831
     1.2094   1.2174   1.2782   1.3277   1.3802   1.4148   1.4212   1.5796
     1.5874   1.6029   1.6110   1.6632   1.6697   1.7937   1.8539   1.8605
     1.8889   1.8997   1.9212   1.9445   1.9624   2.0070   2.0440   2.0827
     2.1140   2.1506   2.1709   2.2133   2.2240   2.2552   2.2585   2.3022
     2.3634   2.3912   2.4486   2.4948   2.5231   2.5388   2.5811   2.5838
     2.6417   2.6539   2.7267   2.7444   2.7579   2.8028   2.8739   2.8795
     2.9116   2.9336   2.9597   2.9678   2.9930   3.0132   3.0285   3.0680
     3.0753   3.1349   3.2196   3.2259   3.2322   3.2484   3.2846   3.3647
     3.3976   3.4578   3.5988   3.9006   3.9147   3.9393   3.9511   4.1109
     4.2323   4.3279   4.4956   5.1977   5.2315   5.2869   5.3440   5.6719
     5.9116   5.9205   6.0472   6.1503   6.6544   6.7732   7.1910   7.4193
     7.4539   7.5866   7.8640   8.0351   8.3418   8.3624   8.7047   8.7696
     8.8532   9.2320   9.2770   9.3222   9.3262   9.5774   9.6142   9.7347
     9.7598   9.9600  10.0983  10.1647  10.2897  10.3311  10.4508  10.4625
    10.5786  10.6420  10.7162  10.8610  11.0337  11.3082  11.3264  11.4093

     occupation numbers 
     1.0000   1.0000   1.0000   1.0000   1.0000   1.0000   1.0000   1.0000
     1.0000   1.0000   1.0000   1.0000   1.0000   1.0000   1.0000   1.0000
     1.0000   1.0000   1.0000   1.0000   1.0000   1.0000   1.0000   1.0000
     1.0000   1.0000   1.0000   1.0000   1.0000   1.0000   1.0000   1.0000
     1.0000   1.0000   1.0000   1.0000   1.0000   1.0000   1.0000   1.0000
     1.0000   1.0000   1.0000   1.0000   1.0000   1.0000   1.0000   1.0000
     1.0000   1.0000   1.0000   1.0000   1.0000   1.0000   1.0000   1.0000
     1.0000   1.0000   1.0000   1.0000   1.0000   1.0000   1.0000   1.0000
     1.0000   1.0000   1.0000   1.0000   1.0000   1.0000   1.0000   1.0000
     1.0000   1.0000   1.0000   1.0000   1.0000   1.0000   1.0000   1.0000
     1.0000   1.0000   1.0000   1.0000   1.0000   1.0000   1.0000   1.0000
     1.0000   1.0000   1.0000   1.0000   1.0000   1.0000   1.0000   1.0000
     1.0000   1.0000   1.0000   1.0000   1.0000   1.0000   1.0000   1.0000
     1.0000   1.0000   1.0000   1.0000   1.0000   1.0000   1.0000   1.0000
     1.0000   1.0000   1.0000   1.0000   1.0000   1.0000   1.0000   1.0000
     1.0000   1.0000   1.0000   1.0000   1.0000   1.0000   1.0000   1.0000
     1.0000   1.0000   1.0000   1.0000   1.0000   1.0000   1.0000   1.0000
     1.0000   1.0000   1.0000   1.0000   1.0000   1.0000   1.0000   1.0000
     1.0000   1.0000   1.0000   1.0000   1.0000   1.0000   1.0000   1.0000
     1.0000   1.0000   1.0000   1.0000   1.0000   1.0000   1.0000   1.0000
     1.0000   1.0000   1.0000   1.0000   1.0000   1.0000   1.0000   1.0000
     1.0000   1.0000   1.0000   1.0000   1.0000   1.0000   1.0000   1.0000
     1.0000   1.0000   1.0000   1.0000   1.0000   1.0000   1.0000   1.0000
     1.0000   1.0000   1.0000   1.0000   1.0000   1.0000   1.0000   1.0000
     1.0000   1.0000   1.0000   1.0000   1.0000   1.0000   1.0000   1.0000
     1.0000   1.0000   1.0000   1.0000   1.0000   1.0000   1.0000   1.0000
     1.0000   1.0000   1.0000   1.0000   1.0000   1.0000   1.0000   1.0000
     1.0000   1.0000   1.0000   1.0000   1.0000   1.0000   1.0000   1.0000
     1.0000   1.0000   1.0000   1.0000   1.0000   1.0000   1.0000   1.0000
     1.0000   1.0000   1.0000   1.0000   1.0000   1.0000   1.0000   1.0000
     1.0000   1.0000   1.0000   1.0000   1.0000   1.0000   1.0000   1.0000
     1.0000   1.0000   1.0000   1.0000   1.0000   1.0000   1.0000   1.0000
     1.0000   1.0000   1.0000   1.0000   1.0000   1.0000   1.0000   1.0000
     1.0000   1.0000   1.0000   1.0000   1.0000   1.0000   1.0000   1.0000
     1.0000   1.0000   1.0000   1.0000   1.0000   1.0000   1.0000   1.0000
     1.0000   1.0000   1.0000   1.0000   1.0000   1.0000   1.0000   1.0000
     1.0000   1.0000   1.0000   1.0000   1.0000   1.0000   1.0000   1.0000
     1.0000   1.0000   1.0000   1.0000   1.0000   1.0000   1.0000   1.0000
     1.0000   1.0000   1.0000   1.0000   1.0000   1.0000   0.9999   0.9999
     0.9997   0.9997   0.9986   0.9980   0.9974   0.9936   0.9738   0.9708
     0.9459   0.9185   0.8698   0.8504   0.7746   0.6963   0.6280   0.4339
     0.3986   0.1674   0.0356   0.0316   0.0279   0.0203   0.0100   0.0020
     0.0010   0.0003   0.0000   0.0000   0.0000   0.0000   0.0000   0.0000
     0.0000   0.0000   0.0000   0.0000   0.0000   0.0000   0.0000   0.0000
     0.0000   0.0000   0.0000   0.0000   0.0000   0.0000   0.0000   0.0000
     0.0000   0.0000   0.0000   0.0000   0.0000   0.0000   0.0000   0.0000
     0.0000   0.0000   0.0000   0.0000   0.0000   0.0000   0.0000   0.0000
     0.0000   0.0000   0.0000   0.0000   0.0000   0.0000   0.0000   0.0000
     0.0000   0.0000   0.0000   0.0000   0.0000   0.0000   0.0000   0.0000

          k = 0.0000-0.5774 0.0000 ( 88178 PWs)   bands (ev):

   -95.4143 -95.4073 -95.4070 -95.4024 -95.3874 -95.3853 -95.3842 -95.3816
   -95.3787 -95.3779 -95.3770 -95.3766 -95.3737 -95.3733 -95.3694 -95.3689
   -95.3688 -95.2188 -95.1920 -95.1893 -95.1883 -95.0149 -95.0090 -95.0082
   -94.9519 -94.9483 -94.9446 -94.9400 -94.9389 -94.9360 -94.9328 -94.9312
   -94.9306 -94.9302 -94.9238 -94.9221 -49.7210 -49.7010 -49.6905 -49.6861
   -49.6742 -49.6725 -49.6670 -49.6627 -49.6533 -49.6508 -49.6491 -49.6443
   -49.6253 -49.6164 -49.5903 -49.5844 -49.5688 -49.5611 -49.5545 -49.5497
   -49.5422 -49.5392 -49.5380 -49.5300 -49.5287 -49.5240 -49.5176 -49.5155
   -49.5048 -49.5020 -49.4974 -49.4890 -49.4838 -49.4831 -49.4819 -49.4746
   -49.4737 -49.4708 -49.4698 -49.4608 -49.4590 -49.4577 -49.4545 -49.4510
   -49.4490 -49.4476 -49.4447 -49.4363 -49.4356 -49.4296 -49.4282 -49.4232
   -49.4021 -49.3921 -49.3739 -49.3703 -49.3535 -49.3392 -49.3361 -49.3335
   -49.3224 -49.2963 -49.2905 -49.2895 -49.2870 -49.2862 -49.2788 -49.2618
   -49.2454 -49.2192 -49.2103 -49.2071 -49.2066 -49.1928 -49.1642 -49.1525
   -49.1515 -49.1482 -49.1481 -49.1343 -49.1196 -49.1194 -49.1151 -49.1135
   -49.1126 -49.1113 -49.0992 -49.0982 -49.0977 -49.0961 -49.0762 -49.0591
   -49.0556 -48.9227 -48.9134 -48.9130 -48.8815 -48.8781 -48.8702 -48.8672
   -48.8625 -48.8599 -48.8567 -48.8564 -48.8539 -48.8535 -48.8446 -48.8430
   -14.2003  -5.2180  -5.1694  -3.9833  -3.9177  -3.7684  -3.7511  -3.3438
    -3.1800  -2.9279  -2.8886  -2.8638  -2.8260  -2.8091  -2.7990  -2.7911
    -2.7797  -2.7668  -2.7641  -2.7096  -2.6516  -2.6255  -2.6070  -2.5865
    -2.5223  -2.4453  -2.2628  -2.2619  -2.2282  -2.2239  -2.0571  -2.0291
    -1.9869  -1.9763  -1.9450  -1.9362  -1.8441  -1.8427  -1.7281  -1.7233
    -1.6948  -1.6635  -1.6324  -1.5427  -1.5297  -1.4301  -1.4123  -1.3882
    -1.3752  -1.3100  -1.2901  -1.1862  -1.1431  -1.1424  -1.1275  -1.0365
    -1.0260  -1.0221  -1.0098  -0.8748  -0.8581  -0.8328  -0.8301  -0.8057
    -0.7894  -0.7149  -0.6323  -0.6317  -0.5586  -0.5359  -0.5205  -0.4959
    -0.4845  -0.4752  -0.4578  -0.3789  -0.3007  -0.2827  -0.2353  -0.2297
    -0.1976  -0.1952  -0.1734  -0.1641  -0.1474  -0.1415  -0.0700  -0.0555
    -0.0332  -0.0220  -0.0030   0.0046   0.0480   0.0705   0.1438   0.1862
     0.1951   0.2767   0.2822   0.2880   0.2925   0.3120   0.3511   0.3601
     0.4551   0.4645   0.5080   0.5225   0.5500   0.6248   0.6644   0.7397
     0.7608   0.8110   0.8416   0.8838   0.9103   0.9183   0.9487   0.9631
     0.9846   0.9930   0.9938   1.0292   1.0402   1.1016   1.1108   1.1393
     1.1479   1.1802   1.1889   1.2536   1.2657   1.2772   1.3448   1.4400
     1.4480   1.5717   1.5923   1.6895   1.7074   1.7451   1.7654   1.8386
     1.8466   1.9112   1.9248   1.9859   2.0166   2.0355   2.0501   2.0608
     2.0750   2.1118   2.1596   2.1868   2.2256   2.2465   2.2618   2.2715
     2.3372   2.3754   2.4317   2.5122   2.5418   2.5728   2.5879   2.6534
     2.6661   2.7134   2.7562   2.7617   2.8022   2.8101   2.8368   2.8483
     2.8614   2.9719   3.0272   3.0427   3.0462   3.0533   3.0739   3.1029
     3.1406   3.1893   3.3069   3.3107   3.3209   3.3417   3.3715   3.4088
     3.5096   3.5750   3.9036   3.9536   4.2044   4.5942   4.7266   4.9033
     4.9213   4.9214   4.9552   5.3610   5.4047   5.4137   5.4581   5.6285
     5.7304   5.9617   6.0154   6.1123   6.3459   6.4324   6.4538   6.5492
     6.6089   6.9963   8.3855   8.4529   8.4869   8.5375   8.7294   8.7957
     8.8572   8.9449   8.9600   8.9926   9.0283   9.0874   9.4813   9.6119
     9.6241   9.9033   9.9115  10.0217  10.0638  10.3997  10.4063  10.5477
    10.6281  10.7985  10.9324  10.9743  10.9996  11.0138  11.1109  11.1365

     occupation numbers 
     1.0000   1.0000   1.0000   1.0000   1.0000   1.0000   1.0000   1.0000
     1.0000   1.0000   1.0000   1.0000   1.0000   1.0000   1.0000   1.0000
     1.0000   1.0000   1.0000   1.0000   1.0000   1.0000   1.0000   1.0000
     1.0000   1.0000   1.0000   1.0000   1.0000   1.0000   1.0000   1.0000
     1.0000   1.0000   1.0000   1.0000   1.0000   1.0000   1.0000   1.0000
     1.0000   1.0000   1.0000   1.0000   1.0000   1.0000   1.0000   1.0000
     1.0000   1.0000   1.0000   1.0000   1.0000   1.0000   1.0000   1.0000
     1.0000   1.0000   1.0000   1.0000   1.0000   1.0000   1.0000   1.0000
     1.0000   1.0000   1.0000   1.0000   1.0000   1.0000   1.0000   1.0000
     1.0000   1.0000   1.0000   1.0000   1.0000   1.0000   1.0000   1.0000
     1.0000   1.0000   1.0000   1.0000   1.0000   1.0000   1.0000   1.0000
     1.0000   1.0000   1.0000   1.0000   1.0000   1.0000   1.0000   1.0000
     1.0000   1.0000   1.0000   1.0000   1.0000   1.0000   1.0000   1.0000
     1.0000   1.0000   1.0000   1.0000   1.0000   1.0000   1.0000   1.0000
     1.0000   1.0000   1.0000   1.0000   1.0000   1.0000   1.0000   1.0000
     1.0000   1.0000   1.0000   1.0000   1.0000   1.0000   1.0000   1.0000
     1.0000   1.0000   1.0000   1.0000   1.0000   1.0000   1.0000   1.0000
     1.0000   1.0000   1.0000   1.0000   1.0000   1.0000   1.0000   1.0000
     1.0000   1.0000   1.0000   1.0000   1.0000   1.0000   1.0000   1.0000
     1.0000   1.0000   1.0000   1.0000   1.0000   1.0000   1.0000   1.0000
     1.0000   1.0000   1.0000   1.0000   1.0000   1.0000   1.0000   1.0000
     1.0000   1.0000   1.0000   1.0000   1.0000   1.0000   1.0000   1.0000
     1.0000   1.0000   1.0000   1.0000   1.0000   1.0000   1.0000   1.0000
     1.0000   1.0000   1.0000   1.0000   1.0000   1.0000   1.0000   1.0000
     1.0000   1.0000   1.0000   1.0000   1.0000   1.0000   1.0000   1.0000
     1.0000   1.0000   1.0000   1.0000   1.0000   1.0000   1.0000   1.0000
     1.0000   1.0000   1.0000   1.0000   1.0000   1.0000   1.0000   1.0000
     1.0000   1.0000   1.0000   1.0000   1.0000   1.0000   1.0000   1.0000
     1.0000   1.0000   1.0000   1.0000   1.0000   1.0000   1.0000   1.0000
     1.0000   1.0000   1.0000   1.0000   1.0000   1.0000   1.0000   1.0000
     1.0000   1.0000   1.0000   1.0000   1.0000   1.0000   1.0000   1.0000
     1.0000   1.0000   1.0000   1.0000   1.0000   1.0000   1.0000   1.0000
     1.0000   1.0000   1.0000   1.0000   1.0000   1.0000   1.0000   1.0000
     1.0000   1.0000   1.0000   1.0000   1.0000   1.0000   1.0000   1.0000
     1.0000   1.0000   1.0000   1.0000   1.0000   1.0000   1.0000   1.0000
     1.0000   1.0000   1.0000   1.0000   1.0000   1.0000   1.0000   1.0000
     1.0000   1.0000   1.0000   1.0000   1.0000   1.0000   1.0000   1.0000
     1.0000   1.0000   1.0000   1.0000   1.0000   1.0000   1.0000   1.0000
     1.0000   1.0000   1.0000   1.0000   1.0000   0.9999   0.9999   0.9997
     0.9996   0.9989   0.9975   0.9972   0.9936   0.9925   0.9874   0.9841
     0.9795   0.8396   0.6342   0.5598   0.5422   0.5069   0.4053   0.2760
     0.1520   0.0635   0.0064   0.0059   0.0048   0.0032   0.0018   0.0008
     0.0001   0.0000   0.0000   0.0000   0.0000   0.0000   0.0000   0.0000
     0.0000   0.0000   0.0000   0.0000   0.0000   0.0000   0.0000   0.0000
     0.0000   0.0000   0.0000   0.0000   0.0000   0.0000   0.0000   0.0000
     0.0000   0.0000   0.0000   0.0000   0.0000   0.0000   0.0000   0.0000
     0.0000   0.0000   0.0000   0.0000   0.0000   0.0000   0.0000   0.0000
     0.0000   0.0000   0.0000   0.0000   0.0000   0.0000   0.0000   0.0000
     0.0000   0.0000   0.0000   0.0000   0.0000   0.0000   0.0000   0.0000

          k = 0.1667-0.0962 0.0000 ( 88230 PWs)   bands (ev):

   -95.4150 -95.4071 -95.4064 -95.4026 -95.3877 -95.3838 -95.3833 -95.3817
   -95.3807 -95.3804 -95.3753 -95.3750 -95.3740 -95.3731 -95.3698 -95.3694
   -95.3688 -95.2188 -95.1921 -95.1892 -95.1884 -95.0150 -95.0090 -95.0081
   -94.9538 -94.9453 -94.9445 -94.9408 -94.9378 -94.9367 -94.9342 -94.9312
   -94.9302 -94.9300 -94.9238 -94.9222 -49.6893 -49.6802 -49.6728 -49.6692
   -49.6627 -49.6573 -49.6552 -49.6494 -49.6481 -49.6395 -49.6384 -49.6346
   -49.6310 -49.6207 -49.6149 -49.6142 -49.6025 -49.5924 -49.5815 -49.5617
   -49.5610 -49.5557 -49.5553 -49.5486 -49.5411 -49.5374 -49.5293 -49.5233
   -49.5128 -49.5037 -49.4981 -49.4947 -49.4848 -49.4816 -49.4773 -49.4768
   -49.4727 -49.4667 -49.4660 -49.4619 -49.4569 -49.4561 -49.4511 -49.4495
   -49.4442 -49.4439 -49.4313 -49.4283 -49.4271 -49.4177 -49.4107 -49.4054
   -49.3934 -49.3884 -49.3647 -49.3614 -49.3463 -49.3378 -49.3341 -49.3187
   -49.2974 -49.2900 -49.2745 -49.2736 -49.2724 -49.2710 -49.2669 -49.2660
   -49.2571 -49.2488 -49.2438 -49.2339 -49.2333 -49.2134 -49.2129 -49.2085
   -49.2028 -49.1385 -49.1326 -49.1251 -49.1142 -49.1064 -49.1045 -49.1044
   -49.1033 -49.1015 -49.0926 -49.0924 -49.0823 -49.0761 -49.0717 -49.0478
   -49.0412 -48.9232 -48.9136 -48.9124 -48.8860 -48.8717 -48.8697 -48.8662
   -48.8637 -48.8618 -48.8590 -48.8569 -48.8528 -48.8526 -48.8446 -48.8429
   -14.2005  -5.9717  -4.6783  -4.0242  -3.7089  -3.7030  -3.5988  -3.5012
    -3.4045  -3.3927  -3.3776  -3.1369  -3.0647  -3.0078  -2.9742  -2.9463
    -2.9272  -2.5878  -2.5242  -2.5146  -2.5035  -2.4861  -2.4592  -2.4467
    -2.3652  -2.3600  -2.2681  -2.2319  -2.2273  -2.1521  -2.1465  -2.1334
    -2.1223  -2.1195  -2.1009  -2.0840  -1.9291  -1.9178  -1.8608  -1.8322
    -1.8042  -1.5205  -1.5138  -1.5064  -1.4692  -1.4683  -1.4277  -1.4122
    -1.2649  -1.2643  -1.1839  -1.1718  -1.1625  -1.0939  -1.0881  -0.8145
    -0.7650  -0.7358  -0.7021  -0.6805  -0.6791  -0.6232  -0.6219  -0.5988
    -0.5714  -0.5508  -0.5014  -0.4764  -0.4597  -0.4321  -0.3995  -0.3858
    -0.3616  -0.3405  -0.2683  -0.2581  -0.2306  -0.1946  -0.1840  -0.1693
    -0.1605  -0.1352  -0.0690  -0.0643  -0.0563  -0.0028   0.0535   0.0564
     0.0757   0.0868   0.1125   0.1170   0.1316   0.1606   0.1999   0.2153
     0.2328   0.2417   0.2501   0.3018   0.3116   0.3588   0.3706   0.3938
     0.4115   0.4248   0.4934   0.5182   0.5211   0.5231   0.5307   0.6115
     0.6190   0.6678   0.7953   0.9067   0.9989   1.0273   1.0289   1.0611
     1.0820   1.0928   1.0948   1.1340   1.2163   1.2770   1.3843   1.4047
     1.4195   1.4555   1.4770   1.4924   1.5109   1.5165   1.5789   1.5882
     1.6599   1.6664   1.7060   1.7159   1.7646   1.7683   1.9086   1.9228
     1.9269   1.9334   1.9892   2.0038   2.0417   2.0561   2.0854   2.1251
     2.1384   2.1735   2.1806   2.1937   2.2197   2.2426   2.3109   2.3252
     2.3530   2.3917   2.4293   2.4455   2.4708   2.5205   2.5311   2.5589
     2.5888   2.6244   2.6327   2.6614   2.6619   2.6851   2.6963   2.7218
     2.7287   2.7382   2.8018   2.8034   2.8170   2.8645   2.9693   2.9894
     2.9970   3.0189   3.0216   3.0335   3.0612   3.0722   3.0850   3.0875
     3.1162   3.1383   3.1533   3.2112   3.2238   3.2751   3.2890   3.5431
     3.6840   3.9403   4.0802   4.4096   4.4545   4.5031   5.0728   5.7921
     6.1328   6.1997   6.7589   6.8038   6.8854   6.9131   7.0892   7.8676
     7.9474   7.9689   7.9730   8.3883   8.6566   8.6788   8.9129   8.9495
     9.0624   9.0789   9.2237   9.3886   9.5455   9.6311   9.8163   9.8297
     9.9348  10.3077  10.3555  10.4597  10.6487  10.7244  10.7674  10.8071
    10.8905  10.9881  10.9903  11.0683  11.1104  11.2679  11.4737  11.4988

     occupation numbers 
     1.0000   1.0000   1.0000   1.0000   1.0000   1.0000   1.0000   1.0000
     1.0000   1.0000   1.0000   1.0000   1.0000   1.0000   1.0000   1.0000
     1.0000   1.0000   1.0000   1.0000   1.0000   1.0000   1.0000   1.0000
     1.0000   1.0000   1.0000   1.0000   1.0000   1.0000   1.0000   1.0000
     1.0000   1.0000   1.0000   1.0000   1.0000   1.0000   1.0000   1.0000
     1.0000   1.0000   1.0000   1.0000   1.0000   1.0000   1.0000   1.0000
     1.0000   1.0000   1.0000   1.0000   1.0000   1.0000   1.0000   1.0000
     1.0000   1.0000   1.0000   1.0000   1.0000   1.0000   1.0000   1.0000
     1.0000   1.0000   1.0000   1.0000   1.0000   1.0000   1.0000   1.0000
     1.0000   1.0000   1.0000   1.0000   1.0000   1.0000   1.0000   1.0000
     1.0000   1.0000   1.0000   1.0000   1.0000   1.0000   1.0000   1.0000
     1.0000   1.0000   1.0000   1.0000   1.0000   1.0000   1.0000   1.0000
     1.0000   1.0000   1.0000   1.0000   1.0000   1.0000   1.0000   1.0000
     1.0000   1.0000   1.0000   1.0000   1.0000   1.0000   1.0000   1.0000
     1.0000   1.0000   1.0000   1.0000   1.0000   1.0000   1.0000   1.0000
     1.0000   1.0000   1.0000   1.0000   1.0000   1.0000   1.0000   1.0000
     1.0000   1.0000   1.0000   1.0000   1.0000   1.0000   1.0000   1.0000
     1.0000   1.0000   1.0000   1.0000   1.0000   1.0000   1.0000   1.0000
     1.0000   1.0000   1.0000   1.0000   1.0000   1.0000   1.0000   1.0000
     1.0000   1.0000   1.0000   1.0000   1.0000   1.0000   1.0000   1.0000
     1.0000   1.0000   1.0000   1.0000   1.0000   1.0000   1.0000   1.0000
     1.0000   1.0000   1.0000   1.0000   1.0000   1.0000   1.0000   1.0000
     1.0000   1.0000   1.0000   1.0000   1.0000   1.0000   1.0000   1.0000
     1.0000   1.0000   1.0000   1.0000   1.0000   1.0000   1.0000   1.0000
     1.0000   1.0000   1.0000   1.0000   1.0000   1.0000   1.0000   1.0000
     1.0000   1.0000   1.0000   1.0000   1.0000   1.0000   1.0000   1.0000
     1.0000   1.0000   1.0000   1.0000   1.0000   1.0000   1.0000   1.0000
     1.0000   1.0000   1.0000   1.0000   1.0000   1.0000   1.0000   1.0000
     1.0000   1.0000   1.0000   1.0000   1.0000   1.0000   1.0000   1.0000
     1.0000   1.0000   1.0000   1.0000   1.0000   1.0000   1.0000   1.0000
     1.0000   1.0000   1.0000   1.0000   1.0000   1.0000   1.0000   1.0000
     1.0000   1.0000   1.0000   1.0000   1.0000   1.0000   1.0000   1.0000
     1.0000   1.0000   1.0000   1.0000   1.0000   1.0000   1.0000   1.0000
     1.0000   1.0000   1.0000   1.0000   1.0000   1.0000   1.0000   1.0000
     1.0000   1.0000   1.0000   1.0000   1.0000   1.0000   1.0000   1.0000
     1.0000   1.0000   1.0000   1.0000   1.0000   1.0000   1.0000   1.0000
     1.0000   1.0000   1.0000   1.0000   1.0000   1.0000   1.0000   1.0000
     1.0000   1.0000   1.0000   1.0000   1.0000   1.0000   1.0000   1.0000
     1.0000   1.0000   1.0000   1.0000   1.0000   1.0000   1.0000   1.0000
     0.9999   0.9998   0.9998   0.9996   0.9996   0.9994   0.9992   0.9987
     0.9985   0.9982   0.9937   0.9935   0.9914   0.9782   0.8466   0.7867
     0.7601   0.6718   0.6599   0.6044   0.4677   0.4133   0.3529   0.3416
     0.2260   0.1580   0.1222   0.0419   0.0329   0.0120   0.0091   0.0001
     0.0000   0.0000   0.0000   0.0000   0.0000   0.0000   0.0000   0.0000
     0.0000   0.0000   0.0000   0.0000   0.0000   0.0000   0.0000   0.0000
     0.0000   0.0000   0.0000   0.0000   0.0000   0.0000   0.0000   0.0000
     0.0000   0.0000   0.0000   0.0000   0.0000   0.0000   0.0000   0.0000
     0.0000   0.0000   0.0000   0.0000   0.0000   0.0000   0.0000   0.0000
     0.0000   0.0000   0.0000   0.0000   0.0000   0.0000   0.0000   0.0000

          k = 0.1667 0.0962 0.0000 ( 88230 PWs)   bands (ev):

   -95.4150 -95.4071 -95.4064 -95.4026 -95.3877 -95.3839 -95.3833 -95.3817
   -95.3807 -95.3804 -95.3753 -95.3750 -95.3740 -95.3731 -95.3697 -95.3694
   -95.3688 -95.2188 -95.1921 -95.1892 -95.1884 -95.0150 -95.0090 -95.0081
   -94.9538 -94.9453 -94.9445 -94.9408 -94.9378 -94.9367 -94.9342 -94.9312
   -94.9302 -94.9300 -94.9238 -94.9222 -49.6893 -49.6802 -49.6728 -49.6692
   -49.6628 -49.6573 -49.6552 -49.6494 -49.6481 -49.6395 -49.6384 -49.6346
   -49.6310 -49.6207 -49.6149 -49.6142 -49.6025 -49.5924 -49.5815 -49.5617
   -49.5610 -49.5557 -49.5553 -49.5486 -49.5411 -49.5374 -49.5293 -49.5233
   -49.5129 -49.5037 -49.4981 -49.4947 -49.4848 -49.4816 -49.4773 -49.4768
   -49.4727 -49.4667 -49.4660 -49.4619 -49.4569 -49.4561 -49.4511 -49.4496
   -49.4442 -49.4439 -49.4313 -49.4283 -49.4271 -49.4177 -49.4106 -49.4054
   -49.3934 -49.3884 -49.3647 -49.3614 -49.3463 -49.3378 -49.3341 -49.3187
   -49.2974 -49.2900 -49.2745 -49.2736 -49.2723 -49.2710 -49.2668 -49.2660
   -49.2571 -49.2488 -49.2438 -49.2339 -49.2333 -49.2134 -49.2129 -49.2085
   -49.2028 -49.1385 -49.1326 -49.1251 -49.1142 -49.1064 -49.1045 -49.1044
   -49.1032 -49.1016 -49.0926 -49.0924 -49.0823 -49.0762 -49.0717 -49.0478
   -49.0412 -48.9232 -48.9136 -48.9124 -48.8860 -48.8717 -48.8697 -48.8662
   -48.8637 -48.8618 -48.8590 -48.8569 -48.8528 -48.8526 -48.8446 -48.8429
   -14.2005  -5.9717  -4.6783  -4.0242  -3.7089  -3.7030  -3.5988  -3.5012
    -3.4045  -3.3927  -3.3776  -3.1369  -3.0647  -3.0078  -2.9741  -2.9463
    -2.9272  -2.5878  -2.5242  -2.5146  -2.5035  -2.4861  -2.4592  -2.4467
    -2.3652  -2.3600  -2.2681  -2.2319  -2.2273  -2.1521  -2.1464  -2.1333
    -2.1223  -2.1195  -2.1009  -2.0840  -1.9291  -1.9178  -1.8608  -1.8322
    -1.8042  -1.5205  -1.5138  -1.5064  -1.4692  -1.4683  -1.4277  -1.4122
    -1.2648  -1.2643  -1.1839  -1.1718  -1.1625  -1.0939  -1.0881  -0.8144
    -0.7650  -0.7358  -0.7021  -0.6806  -0.6791  -0.6232  -0.6219  -0.5989
    -0.5715  -0.5508  -0.5014  -0.4764  -0.4597  -0.4321  -0.3995  -0.3858
    -0.3616  -0.3405  -0.2684  -0.2581  -0.2306  -0.1946  -0.1840  -0.1694
    -0.1606  -0.1352  -0.0689  -0.0643  -0.0563  -0.0029   0.0535   0.0564
     0.0757   0.0868   0.1125   0.1170   0.1316   0.1606   0.1999   0.2153
     0.2328   0.2417   0.2502   0.3018   0.3116   0.3587   0.3706   0.3938
     0.4115   0.4248   0.4934   0.5182   0.5211   0.5231   0.5307   0.6115
     0.6190   0.6678   0.7953   0.9068   0.9989   1.0273   1.0289   1.0611
     1.0820   1.0928   1.0948   1.1340   1.2163   1.2769   1.3843   1.4047
     1.4195   1.4555   1.4769   1.4925   1.5109   1.5164   1.5789   1.5882
     1.6599   1.6664   1.7060   1.7159   1.7646   1.7683   1.9086   1.9228
     1.9269   1.9334   1.9892   2.0038   2.0417   2.0561   2.0854   2.1251
     2.1384   2.1735   2.1805   2.1937   2.2197   2.2426   2.3109   2.3253
     2.3530   2.3918   2.4293   2.4455   2.4707   2.5205   2.5310   2.5589
     2.5888   2.6244   2.6327   2.6614   2.6619   2.6851   2.6963   2.7218
     2.7287   2.7382   2.8018   2.8034   2.8170   2.8645   2.9693   2.9894
     2.9970   3.0189   3.0216   3.0335   3.0612   3.0722   3.0850   3.0875
     3.1162   3.1384   3.1533   3.2112   3.2238   3.2751   3.2889   3.5431
     3.6840   3.9403   4.0802   4.4096   4.4545   4.5031   5.0728   5.7921
     6.1328   6.1998   6.7588   6.8039   6.8854   6.9131   7.0892   7.8676
     7.9474   7.9689   7.9730   8.3882   8.6566   8.6788   8.9129   8.9496
     9.0624   9.0789   9.2237   9.3886   9.5456   9.6312   9.8163   9.8297
     9.9348  10.3077  10.3555  10.4597  10.6486  10.7244  10.7670  10.8071
    10.8905  10.9881  10.9902  11.0683  11.1103  11.2679  11.4737  11.4988

     occupation numbers 
     1.0000   1.0000   1.0000   1.0000   1.0000   1.0000   1.0000   1.0000
     1.0000   1.0000   1.0000   1.0000   1.0000   1.0000   1.0000   1.0000
     1.0000   1.0000   1.0000   1.0000   1.0000   1.0000   1.0000   1.0000
     1.0000   1.0000   1.0000   1.0000   1.0000   1.0000   1.0000   1.0000
     1.0000   1.0000   1.0000   1.0000   1.0000   1.0000   1.0000   1.0000
     1.0000   1.0000   1.0000   1.0000   1.0000   1.0000   1.0000   1.0000
     1.0000   1.0000   1.0000   1.0000   1.0000   1.0000   1.0000   1.0000
     1.0000   1.0000   1.0000   1.0000   1.0000   1.0000   1.0000   1.0000
     1.0000   1.0000   1.0000   1.0000   1.0000   1.0000   1.0000   1.0000
     1.0000   1.0000   1.0000   1.0000   1.0000   1.0000   1.0000   1.0000
     1.0000   1.0000   1.0000   1.0000   1.0000   1.0000   1.0000   1.0000
     1.0000   1.0000   1.0000   1.0000   1.0000   1.0000   1.0000   1.0000
     1.0000   1.0000   1.0000   1.0000   1.0000   1.0000   1.0000   1.0000
     1.0000   1.0000   1.0000   1.0000   1.0000   1.0000   1.0000   1.0000
     1.0000   1.0000   1.0000   1.0000   1.0000   1.0000   1.0000   1.0000
     1.0000   1.0000   1.0000   1.0000   1.0000   1.0000   1.0000   1.0000
     1.0000   1.0000   1.0000   1.0000   1.0000   1.0000   1.0000   1.0000
     1.0000   1.0000   1.0000   1.0000   1.0000   1.0000   1.0000   1.0000
     1.0000   1.0000   1.0000   1.0000   1.0000   1.0000   1.0000   1.0000
     1.0000   1.0000   1.0000   1.0000   1.0000   1.0000   1.0000   1.0000
     1.0000   1.0000   1.0000   1.0000   1.0000   1.0000   1.0000   1.0000
     1.0000   1.0000   1.0000   1.0000   1.0000   1.0000   1.0000   1.0000
     1.0000   1.0000   1.0000   1.0000   1.0000   1.0000   1.0000   1.0000
     1.0000   1.0000   1.0000   1.0000   1.0000   1.0000   1.0000   1.0000
     1.0000   1.0000   1.0000   1.0000   1.0000   1.0000   1.0000   1.0000
     1.0000   1.0000   1.0000   1.0000   1.0000   1.0000   1.0000   1.0000
     1.0000   1.0000   1.0000   1.0000   1.0000   1.0000   1.0000   1.0000
     1.0000   1.0000   1.0000   1.0000   1.0000   1.0000   1.0000   1.0000
     1.0000   1.0000   1.0000   1.0000   1.0000   1.0000   1.0000   1.0000
     1.0000   1.0000   1.0000   1.0000   1.0000   1.0000   1.0000   1.0000
     1.0000   1.0000   1.0000   1.0000   1.0000   1.0000   1.0000   1.0000
     1.0000   1.0000   1.0000   1.0000   1.0000   1.0000   1.0000   1.0000
     1.0000   1.0000   1.0000   1.0000   1.0000   1.0000   1.0000   1.0000
     1.0000   1.0000   1.0000   1.0000   1.0000   1.0000   1.0000   1.0000
     1.0000   1.0000   1.0000   1.0000   1.0000   1.0000   1.0000   1.0000
     1.0000   1.0000   1.0000   1.0000   1.0000   1.0000   1.0000   1.0000
     1.0000   1.0000   1.0000   1.0000   1.0000   1.0000   1.0000   1.0000
     1.0000   1.0000   1.0000   1.0000   1.0000   1.0000   1.0000   1.0000
     1.0000   1.0000   1.0000   1.0000   1.0000   1.0000   1.0000   1.0000
     0.9999   0.9998   0.9998   0.9996   0.9996   0.9994   0.9992   0.9987
     0.9985   0.9982   0.9937   0.9935   0.9915   0.9782   0.8465   0.7866
     0.7600   0.6718   0.6599   0.6044   0.4677   0.4132   0.3529   0.3415
     0.2260   0.1580   0.1222   0.0419   0.0329   0.0120   0.0091   0.0001
     0.0000   0.0000   0.0000   0.0000   0.0000   0.0000   0.0000   0.0000
     0.0000   0.0000   0.0000   0.0000   0.0000   0.0000   0.0000   0.0000
     0.0000   0.0000   0.0000   0.0000   0.0000   0.0000   0.0000   0.0000
     0.0000   0.0000   0.0000   0.0000   0.0000   0.0000   0.0000   0.0000
     0.0000   0.0000   0.0000   0.0000   0.0000   0.0000   0.0000   0.0000
     0.0000   0.0000   0.0000   0.0000   0.0000   0.0000   0.0000   0.0000

          k = 0.1667 0.2887 0.0000 ( 88188 PWs)   bands (ev):

   -95.4147 -95.4072 -95.4066 -95.4025 -95.3875 -95.3845 -95.3841 -95.3813
   -95.3801 -95.3793 -95.3761 -95.3755 -95.3740 -95.3730 -95.3697 -95.3692
   -95.3687 -95.2188 -95.1921 -95.1892 -95.1884 -95.0149 -95.0090 -95.0082
   -94.9531 -94.9466 -94.9447 -94.9401 -94.9386 -94.9364 -94.9334 -94.9312
   -94.9304 -94.9300 -94.9238 -94.9221 -49.7018 -49.6994 -49.6851 -49.6799
   -49.6709 -49.6628 -49.6589 -49.6557 -49.6466 -49.6439 -49.6434 -49.6348
   -49.6313 -49.6239 -49.6152 -49.5869 -49.5826 -49.5712 -49.5692 -49.5576
   -49.5529 -49.5461 -49.5439 -49.5403 -49.5363 -49.5272 -49.5226 -49.5162
   -49.5121 -49.5010 -49.4984 -49.4954 -49.4864 -49.4838 -49.4831 -49.4786
   -49.4740 -49.4718 -49.4673 -49.4611 -49.4580 -49.4553 -49.4514 -49.4481
   -49.4449 -49.4436 -49.4387 -49.4339 -49.4293 -49.4256 -49.4122 -49.4082
   -49.4043 -49.3914 -49.3713 -49.3635 -49.3455 -49.3435 -49.3362 -49.3260
   -49.3052 -49.3018 -49.2938 -49.2848 -49.2798 -49.2729 -49.2633 -49.2557
   -49.2523 -49.2496 -49.2312 -49.2256 -49.2064 -49.1932 -49.1890 -49.1865
   -49.1848 -49.1472 -49.1329 -49.1230 -49.1177 -49.1151 -49.1129 -49.1120
   -49.1093 -49.1074 -49.1000 -49.0845 -49.0800 -49.0791 -49.0745 -49.0649
   -49.0456 -48.9230 -48.9136 -48.9126 -48.8844 -48.8740 -48.8709 -48.8655
   -48.8637 -48.8610 -48.8575 -48.8568 -48.8534 -48.8529 -48.8446 -48.8429
   -14.2004  -5.7677  -4.4828  -4.2563  -4.2138  -3.4021  -3.3314  -3.3145
    -3.2966  -3.2913  -3.2756  -3.2344  -3.1706  -3.0467  -3.0292  -2.7774
    -2.7382  -2.6011  -2.5930  -2.4992  -2.4690  -2.4485  -2.4296  -2.4141
    -2.4044  -2.3321  -2.3197  -2.3146  -2.2644  -2.2535  -2.2137  -2.1356
    -2.1274  -2.1086  -2.0970  -1.9774  -1.9170  -1.7886  -1.7696  -1.6809
    -1.6696  -1.6300  -1.5725  -1.5424  -1.5354  -1.4591  -1.4343  -1.3710
    -1.3173  -1.2503  -1.2294  -1.2078  -1.1386  -1.1189  -1.0995  -1.0221
    -1.0016  -0.8428  -0.8046  -0.7841  -0.7398  -0.7297  -0.6988  -0.6567
    -0.6369  -0.6140  -0.5974  -0.5729  -0.5014  -0.4647  -0.4395  -0.4293
    -0.4102  -0.3834  -0.3481  -0.2986  -0.2744  -0.2079  -0.1987  -0.1847
    -0.1482  -0.1251  -0.0900  -0.0801  -0.0665  -0.0393  -0.0275  -0.0210
     0.0024   0.0063   0.0184   0.0871   0.1004   0.1565   0.1712   0.2003
     0.2247   0.2392   0.2507   0.2943   0.3028   0.3140   0.3255   0.3380
     0.3734   0.3983   0.4193   0.4419   0.4633   0.5467   0.5611   0.6125
     0.6345   0.6663   0.7152   0.8068   0.8894   0.9287   0.9635   0.9935
     1.0479   1.0815   1.1016   1.1117   1.1215   1.1360   1.1543   1.2481
     1.2807   1.3204   1.3973   1.4663   1.5022   1.5198   1.5724   1.5980
     1.5999   1.6368   1.6774   1.6944   1.7367   1.7959   1.8351   1.8384
     1.8779   1.8940   1.9306   1.9519   1.9811   2.0065   2.0137   2.0333
     2.0704   2.0996   2.1217   2.1393   2.1435   2.1775   2.2353   2.3156
     2.3378   2.4527   2.4758   2.5359   2.5780   2.6050   2.6451   2.6713
     2.7024   2.7286   2.7459   2.7557   2.7728   2.7866   2.8176   2.8543
     2.8642   2.9182   2.9506   2.9695   2.9820   3.0043   3.0148   3.0442
     3.0560   3.1005   3.1219   3.1661   3.2182   3.2441   3.2644   3.2950
     3.3095   3.3526   3.3690   3.5346   3.6516   3.6822   3.7502   3.9678
     4.1198   4.1871   4.5104   4.5968   5.1112   5.1325   5.4216   5.5437
     5.7627   5.9346   6.6574   6.6819   6.8103   6.9079   7.0990   7.3864
     7.5371   7.7990   7.9513   7.9713   8.0755   8.2638   8.9338   8.9449
     9.0584   9.1402   9.1861   9.3239   9.4072   9.6379   9.6671   9.7684
     9.8171   9.8698  10.0443  10.1921  10.2921  10.5144  10.5464  10.5848
    10.6727  10.7601  10.8503  10.9627  11.1881  11.2137  11.2576  11.3256

     occupation numbers 
     1.0000   1.0000   1.0000   1.0000   1.0000   1.0000   1.0000   1.0000
     1.0000   1.0000   1.0000   1.0000   1.0000   1.0000   1.0000   1.0000
     1.0000   1.0000   1.0000   1.0000   1.0000   1.0000   1.0000   1.0000
     1.0000   1.0000   1.0000   1.0000   1.0000   1.0000   1.0000   1.0000
     1.0000   1.0000   1.0000   1.0000   1.0000   1.0000   1.0000   1.0000
     1.0000   1.0000   1.0000   1.0000   1.0000   1.0000   1.0000   1.0000
     1.0000   1.0000   1.0000   1.0000   1.0000   1.0000   1.0000   1.0000
     1.0000   1.0000   1.0000   1.0000   1.0000   1.0000   1.0000   1.0000
     1.0000   1.0000   1.0000   1.0000   1.0000   1.0000   1.0000   1.0000
     1.0000   1.0000   1.0000   1.0000   1.0000   1.0000   1.0000   1.0000
     1.0000   1.0000   1.0000   1.0000   1.0000   1.0000   1.0000   1.0000
     1.0000   1.0000   1.0000   1.0000   1.0000   1.0000   1.0000   1.0000
     1.0000   1.0000   1.0000   1.0000   1.0000   1.0000   1.0000   1.0000
     1.0000   1.0000   1.0000   1.0000   1.0000   1.0000   1.0000   1.0000
     1.0000   1.0000   1.0000   1.0000   1.0000   1.0000   1.0000   1.0000
     1.0000   1.0000   1.0000   1.0000   1.0000   1.0000   1.0000   1.0000
     1.0000   1.0000   1.0000   1.0000   1.0000   1.0000   1.0000   1.0000
     1.0000   1.0000   1.0000   1.0000   1.0000   1.0000   1.0000   1.0000
     1.0000   1.0000   1.0000   1.0000   1.0000   1.0000   1.0000   1.0000
     1.0000   1.0000   1.0000   1.0000   1.0000   1.0000   1.0000   1.0000
     1.0000   1.0000   1.0000   1.0000   1.0000   1.0000   1.0000   1.0000
     1.0000   1.0000   1.0000   1.0000   1.0000   1.0000   1.0000   1.0000
     1.0000   1.0000   1.0000   1.0000   1.0000   1.0000   1.0000   1.0000
     1.0000   1.0000   1.0000   1.0000   1.0000   1.0000   1.0000   1.0000
     1.0000   1.0000   1.0000   1.0000   1.0000   1.0000   1.0000   1.0000
     1.0000   1.0000   1.0000   1.0000   1.0000   1.0000   1.0000   1.0000
     1.0000   1.0000   1.0000   1.0000   1.0000   1.0000   1.0000   1.0000
     1.0000   1.0000   1.0000   1.0000   1.0000   1.0000   1.0000   1.0000
     1.0000   1.0000   1.0000   1.0000   1.0000   1.0000   1.0000   1.0000
     1.0000   1.0000   1.0000   1.0000   1.0000   1.0000   1.0000   1.0000
     1.0000   1.0000   1.0000   1.0000   1.0000   1.0000   1.0000   1.0000
     1.0000   1.0000   1.0000   1.0000   1.0000   1.0000   1.0000   1.0000
     1.0000   1.0000   1.0000   1.0000   1.0000   1.0000   1.0000   1.0000
     1.0000   1.0000   1.0000   1.0000   1.0000   1.0000   1.0000   1.0000
     1.0000   1.0000   1.0000   1.0000   1.0000   1.0000   1.0000   1.0000
     1.0000   1.0000   1.0000   1.0000   1.0000   1.0000   1.0000   1.0000
     1.0000   1.0000   1.0000   1.0000   1.0000   1.0000   1.0000   1.0000
     1.0000   1.0000   1.0000   1.0000   1.0000   1.0000   1.0000   1.0000
     1.0000   1.0000   1.0000   1.0000   0.9999   0.9999   0.9997   0.9995
     0.9991   0.9985   0.9979   0.9975   0.9964   0.9953   0.9913   0.9821
     0.9783   0.9388   0.8890   0.8460   0.8105   0.7327   0.6895   0.5521
     0.4935   0.2856   0.2068   0.0973   0.0366   0.0221   0.0149   0.0081
     0.0061   0.0026   0.0019   0.0001   0.0000   0.0000   0.0000   0.0000
     0.0000   0.0000   0.0000   0.0000   0.0000   0.0000   0.0000   0.0000
     0.0000   0.0000   0.0000   0.0000   0.0000   0.0000   0.0000   0.0000
     0.0000   0.0000   0.0000   0.0000   0.0000   0.0000   0.0000   0.0000
     0.0000   0.0000   0.0000   0.0000   0.0000   0.0000   0.0000   0.0000
     0.0000   0.0000   0.0000   0.0000   0.0000   0.0000   0.0000   0.0000
     0.0000   0.0000   0.0000   0.0000   0.0000   0.0000   0.0000   0.0000

          k = 0.1667-0.6736 0.0000 ( 88140 PWs)   bands (ev):

   -95.4143 -95.4073 -95.4070 -95.4024 -95.3873 -95.3854 -95.3845 -95.3810
   -95.3790 -95.3782 -95.3769 -95.3763 -95.3743 -95.3728 -95.3694 -95.3691
   -95.3687 -95.2188 -95.1920 -95.1893 -95.1883 -95.0149 -95.0090 -95.0082
   -94.9520 -94.9479 -94.9451 -94.9397 -94.9389 -94.9362 -94.9328 -94.9312
   -94.9307 -94.9300 -94.9238 -94.9221 -49.7165 -49.7041 -49.6976 -49.6882
   -49.6779 -49.6710 -49.6635 -49.6559 -49.6505 -49.6469 -49.6441 -49.6402
   -49.6298 -49.6192 -49.6135 -49.5752 -49.5704 -49.5607 -49.5528 -49.5486
   -49.5454 -49.5410 -49.5346 -49.5278 -49.5222 -49.5216 -49.5160 -49.5108
   -49.5083 -49.5001 -49.4952 -49.4917 -49.4894 -49.4845 -49.4789 -49.4766
   -49.4743 -49.4729 -49.4703 -49.4678 -49.4612 -49.4580 -49.4551 -49.4509
   -49.4480 -49.4469 -49.4410 -49.4385 -49.4351 -49.4288 -49.4240 -49.4174
   -49.4046 -49.3958 -49.3761 -49.3657 -49.3504 -49.3437 -49.3390 -49.3310
   -49.3182 -49.3058 -49.2993 -49.2944 -49.2810 -49.2745 -49.2682 -49.2613
   -49.2408 -49.2398 -49.2187 -49.2106 -49.1982 -49.1724 -49.1651 -49.1599
   -49.1575 -49.1396 -49.1369 -49.1366 -49.1316 -49.1209 -49.1196 -49.1185
   -49.1174 -49.1127 -49.0986 -49.0969 -49.0914 -49.0806 -49.0784 -49.0662
   -49.0541 -48.9227 -48.9136 -48.9128 -48.8819 -48.8770 -48.8722 -48.8653
   -48.8627 -48.8603 -48.8567 -48.8565 -48.8542 -48.8532 -48.8446 -48.8430
   -14.2003  -5.3777  -4.8397  -4.3443  -4.1100  -3.6386  -3.2741  -3.2380
    -3.2126  -3.1037  -3.0700  -3.0260  -2.9659  -2.8924  -2.8792  -2.7636
    -2.6918  -2.6820  -2.6350  -2.5978  -2.5483  -2.5320  -2.5146  -2.4975
    -2.4524  -2.3853  -2.3513  -2.3169  -2.2843  -2.2415  -2.1601  -2.1208
    -2.0931  -2.0747  -2.0216  -1.9969  -1.9128  -1.8491  -1.7994  -1.7280
    -1.6060  -1.5616  -1.5309  -1.4559  -1.4456  -1.4300  -1.4156  -1.3418
    -1.3216  -1.3008  -1.2321  -1.2082  -1.1286  -1.1132  -1.0911  -1.0654
    -1.0133  -0.9830  -0.9718  -0.9392  -0.9027  -0.8288  -0.7941  -0.7811
    -0.7610  -0.7232  -0.6837  -0.6407  -0.5717  -0.5402  -0.5050  -0.4758
    -0.4544  -0.4167  -0.4106  -0.3933  -0.3571  -0.3403  -0.2973  -0.2472
    -0.2298  -0.1959  -0.1633  -0.1485  -0.1330  -0.0869  -0.0723  -0.0426
    -0.0202   0.0218   0.0570   0.0803   0.0940   0.1128   0.1684   0.1844
     0.2075   0.2158   0.2337   0.2509   0.2694   0.2813   0.3123   0.3241
     0.3622   0.3977   0.4283   0.4544   0.4836   0.5428   0.5746   0.5893
     0.6462   0.7060   0.7261   0.8103   0.8573   0.9372   0.9480   0.9807
     1.0162   1.0301   1.0384   1.0720   1.0912   1.1435   1.1787   1.1977
     1.2203   1.2537   1.2869   1.3291   1.3498   1.3718   1.4207   1.4726
     1.5813   1.6046   1.6282   1.6701   1.7083   1.7312   1.7577   1.7665
     1.7892   1.8182   1.8361   1.8791   1.9493   1.9705   1.9933   2.0136
     2.0259   2.0460   2.1199   2.1615   2.2119   2.2607   2.3067   2.3777
     2.3865   2.4538   2.4955   2.5110   2.5697   2.6068   2.6405   2.7021
     2.7437   2.7770   2.7950   2.8225   2.8340   2.8525   2.9093   2.9371
     2.9555   2.9780   3.0068   3.0210   3.0453   3.0698   3.1309   3.1471
     3.1960   3.2166   3.2630   3.2696   3.3125   3.3267   3.3496   3.3740
     3.4071   3.5106   3.6782   4.0679   4.3361   4.3882   4.4557   4.6179
     4.7856   4.9696   5.0384   5.2847   5.3481   5.4122   5.4696   5.5916
     5.8514   5.9033   6.0792   6.3255   6.5066   6.6508   6.7179   6.8305
     7.0698   7.3327   7.5030   7.6752   7.7636   7.9475   8.5482   8.7519
     8.8079   8.8527   9.0963   9.2885   9.4051   9.4329   9.6689   9.7260
     9.8058   9.8764  10.0377  10.1336  10.2499  10.2755  10.3685  10.5823
    10.6660  10.8091  11.0080  11.0520  11.1217  11.1829  11.2390  11.2767

     occupation numbers 
     1.0000   1.0000   1.0000   1.0000   1.0000   1.0000   1.0000   1.0000
     1.0000   1.0000   1.0000   1.0000   1.0000   1.0000   1.0000   1.0000
     1.0000   1.0000   1.0000   1.0000   1.0000   1.0000   1.0000   1.0000
     1.0000   1.0000   1.0000   1.0000   1.0000   1.0000   1.0000   1.0000
     1.0000   1.0000   1.0000   1.0000   1.0000   1.0000   1.0000   1.0000
     1.0000   1.0000   1.0000   1.0000   1.0000   1.0000   1.0000   1.0000
     1.0000   1.0000   1.0000   1.0000   1.0000   1.0000   1.0000   1.0000
     1.0000   1.0000   1.0000   1.0000   1.0000   1.0000   1.0000   1.0000
     1.0000   1.0000   1.0000   1.0000   1.0000   1.0000   1.0000   1.0000
     1.0000   1.0000   1.0000   1.0000   1.0000   1.0000   1.0000   1.0000
     1.0000   1.0000   1.0000   1.0000   1.0000   1.0000   1.0000   1.0000
     1.0000   1.0000   1.0000   1.0000   1.0000   1.0000   1.0000   1.0000
     1.0000   1.0000   1.0000   1.0000   1.0000   1.0000   1.0000   1.0000
     1.0000   1.0000   1.0000   1.0000   1.0000   1.0000   1.0000   1.0000
     1.0000   1.0000   1.0000   1.0000   1.0000   1.0000   1.0000   1.0000
     1.0000   1.0000   1.0000   1.0000   1.0000   1.0000   1.0000   1.0000
     1.0000   1.0000   1.0000   1.0000   1.0000   1.0000   1.0000   1.0000
     1.0000   1.0000   1.0000   1.0000   1.0000   1.0000   1.0000   1.0000
     1.0000   1.0000   1.0000   1.0000   1.0000   1.0000   1.0000   1.0000
     1.0000   1.0000   1.0000   1.0000   1.0000   1.0000   1.0000   1.0000
     1.0000   1.0000   1.0000   1.0000   1.0000   1.0000   1.0000   1.0000
     1.0000   1.0000   1.0000   1.0000   1.0000   1.0000   1.0000   1.0000
     1.0000   1.0000   1.0000   1.0000   1.0000   1.0000   1.0000   1.0000
     1.0000   1.0000   1.0000   1.0000   1.0000   1.0000   1.0000   1.0000
     1.0000   1.0000   1.0000   1.0000   1.0000   1.0000   1.0000   1.0000
     1.0000   1.0000   1.0000   1.0000   1.0000   1.0000   1.0000   1.0000
     1.0000   1.0000   1.0000   1.0000   1.0000   1.0000   1.0000   1.0000
     1.0000   1.0000   1.0000   1.0000   1.0000   1.0000   1.0000   1.0000
     1.0000   1.0000   1.0000   1.0000   1.0000   1.0000   1.0000   1.0000
     1.0000   1.0000   1.0000   1.0000   1.0000   1.0000   1.0000   1.0000
     1.0000   1.0000   1.0000   1.0000   1.0000   1.0000   1.0000   1.0000
     1.0000   1.0000   1.0000   1.0000   1.0000   1.0000   1.0000   1.0000
     1.0000   1.0000   1.0000   1.0000   1.0000   1.0000   1.0000   1.0000
     1.0000   1.0000   1.0000   1.0000   1.0000   1.0000   1.0000   1.0000
     1.0000   1.0000   1.0000   1.0000   1.0000   1.0000   1.0000   1.0000
     1.0000   1.0000   1.0000   1.0000   1.0000   1.0000   1.0000   1.0000
     1.0000   1.0000   1.0000   1.0000   1.0000   1.0000   1.0000   1.0000
     1.0000   1.0000   1.0000   1.0000   1.0000   1.0000   1.0000   1.0000
     1.0000   1.0000   1.0000   1.0000   0.9999   0.9999   0.9997   0.9991
     0.9980   0.9961   0.9945   0.9905   0.9880   0.9828   0.9483   0.9131
     0.8792   0.8227   0.7225   0.6622   0.5468   0.4249   0.1789   0.1361
     0.0559   0.0378   0.0153   0.0134   0.0057   0.0043   0.0027   0.0017
     0.0009   0.0001   0.0000   0.0000   0.0000   0.0000   0.0000   0.0000
     0.0000   0.0000   0.0000   0.0000   0.0000   0.0000   0.0000   0.0000
     0.0000   0.0000   0.0000   0.0000   0.0000   0.0000   0.0000   0.0000
     0.0000   0.0000   0.0000   0.0000   0.0000   0.0000   0.0000   0.0000
     0.0000   0.0000   0.0000   0.0000   0.0000   0.0000   0.0000   0.0000
     0.0000   0.0000   0.0000   0.0000   0.0000   0.0000   0.0000   0.0000
     0.0000   0.0000   0.0000   0.0000   0.0000   0.0000   0.0000   0.0000

          k = 0.1667-0.4811 0.0000 ( 88140 PWs)   bands (ev):

   -95.4143 -95.4073 -95.4070 -95.4024 -95.3873 -95.3854 -95.3845 -95.3810
   -95.3790 -95.3782 -95.3769 -95.3763 -95.3743 -95.3728 -95.3694 -95.3690
   -95.3687 -95.2188 -95.1920 -95.1893 -95.1883 -95.0149 -95.0090 -95.0082
   -94.9520 -94.9479 -94.9451 -94.9396 -94.9389 -94.9362 -94.9328 -94.9312
   -94.9307 -94.9300 -94.9238 -94.9221 -49.7165 -49.7041 -49.6976 -49.6882
   -49.6779 -49.6710 -49.6635 -49.6559 -49.6505 -49.6469 -49.6441 -49.6402
   -49.6298 -49.6192 -49.6135 -49.5752 -49.5704 -49.5607 -49.5528 -49.5486
   -49.5453 -49.5410 -49.5346 -49.5278 -49.5222 -49.5216 -49.5160 -49.5108
   -49.5083 -49.5001 -49.4952 -49.4917 -49.4894 -49.4845 -49.4789 -49.4766
   -49.4743 -49.4729 -49.4703 -49.4678 -49.4612 -49.4580 -49.4551 -49.4509
   -49.4480 -49.4469 -49.4410 -49.4385 -49.4351 -49.4288 -49.4240 -49.4174
   -49.4046 -49.3958 -49.3761 -49.3657 -49.3504 -49.3437 -49.3390 -49.3310
   -49.3182 -49.3058 -49.2993 -49.2944 -49.2810 -49.2745 -49.2682 -49.2613
   -49.2408 -49.2398 -49.2187 -49.2106 -49.1982 -49.1724 -49.1651 -49.1599
   -49.1575 -49.1396 -49.1369 -49.1366 -49.1316 -49.1209 -49.1196 -49.1185
   -49.1174 -49.1127 -49.0986 -49.0969 -49.0914 -49.0806 -49.0784 -49.0662
   -49.0541 -48.9227 -48.9136 -48.9128 -48.8819 -48.8770 -48.8722 -48.8653
   -48.8627 -48.8603 -48.8567 -48.8565 -48.8542 -48.8532 -48.8446 -48.8430
   -14.2003  -5.3777  -4.8397  -4.3443  -4.1099  -3.6386  -3.2741  -3.2380
    -3.2126  -3.1037  -3.0700  -3.0260  -2.9659  -2.8924  -2.8792  -2.7636
    -2.6918  -2.6820  -2.6350  -2.5978  -2.5483  -2.5320  -2.5146  -2.4975
    -2.4524  -2.3854  -2.3513  -2.3169  -2.2843  -2.2415  -2.1601  -2.1208
    -2.0931  -2.0747  -2.0216  -1.9969  -1.9128  -1.8491  -1.7994  -1.7280
    -1.6060  -1.5616  -1.5309  -1.4559  -1.4456  -1.4300  -1.4156  -1.3418
    -1.3215  -1.3008  -1.2321  -1.2082  -1.1285  -1.1132  -1.0912  -1.0654
    -1.0133  -0.9829  -0.9718  -0.9392  -0.9027  -0.8288  -0.7941  -0.7811
    -0.7610  -0.7232  -0.6837  -0.6407  -0.5717  -0.5402  -0.5050  -0.4758
    -0.4544  -0.4167  -0.4106  -0.3933  -0.3571  -0.3403  -0.2973  -0.2472
    -0.2298  -0.1959  -0.1633  -0.1485  -0.1330  -0.0869  -0.0723  -0.0426
    -0.0202   0.0218   0.0570   0.0803   0.0940   0.1128   0.1684   0.1844
     0.2076   0.2158   0.2337   0.2509   0.2694   0.2813   0.3122   0.3240
     0.3622   0.3977   0.4284   0.4544   0.4836   0.5428   0.5747   0.5893
     0.6462   0.7060   0.7261   0.8103   0.8573   0.9372   0.9480   0.9807
     1.0161   1.0301   1.0384   1.0720   1.0912   1.1435   1.1787   1.1977
     1.2203   1.2537   1.2869   1.3291   1.3498   1.3719   1.4208   1.4726
     1.5813   1.6046   1.6282   1.6701   1.7083   1.7312   1.7577   1.7665
     1.7892   1.8182   1.8361   1.8791   1.9493   1.9705   1.9933   2.0136
     2.0259   2.0460   2.1199   2.1615   2.2119   2.2607   2.3067   2.3777
     2.3865   2.4538   2.4956   2.5110   2.5697   2.6068   2.6404   2.7021
     2.7437   2.7770   2.7950   2.8225   2.8340   2.8525   2.9093   2.9371
     2.9555   2.9780   3.0068   3.0210   3.0453   3.0698   3.1309   3.1471
     3.1960   3.2166   3.2631   3.2696   3.3125   3.3267   3.3496   3.3740
     3.4071   3.5106   3.6782   4.0679   4.3361   4.3882   4.4558   4.6179
     4.7856   4.9696   5.0384   5.2847   5.3481   5.4122   5.4695   5.5917
     5.8514   5.9033   6.0793   6.3255   6.5066   6.6508   6.7179   6.8305
     7.0698   7.3327   7.5029   7.6753   7.7636   7.9475   8.5483   8.7520
     8.8080   8.8527   9.0963   9.2885   9.4051   9.4329   9.6688   9.7260
     9.8058   9.8764  10.0376  10.1336  10.2499  10.2755  10.3685  10.5822
    10.6660  10.8091  11.0080  11.0520  11.1218  11.1829  11.2394  11.2773

     occupation numbers 
     1.0000   1.0000   1.0000   1.0000   1.0000   1.0000   1.0000   1.0000
     1.0000   1.0000   1.0000   1.0000   1.0000   1.0000   1.0000   1.0000
     1.0000   1.0000   1.0000   1.0000   1.0000   1.0000   1.0000   1.0000
     1.0000   1.0000   1.0000   1.0000   1.0000   1.0000   1.0000   1.0000
     1.0000   1.0000   1.0000   1.0000   1.0000   1.0000   1.0000   1.0000
     1.0000   1.0000   1.0000   1.0000   1.0000   1.0000   1.0000   1.0000
     1.0000   1.0000   1.0000   1.0000   1.0000   1.0000   1.0000   1.0000
     1.0000   1.0000   1.0000   1.0000   1.0000   1.0000   1.0000   1.0000
     1.0000   1.0000   1.0000   1.0000   1.0000   1.0000   1.0000   1.0000
     1.0000   1.0000   1.0000   1.0000   1.0000   1.0000   1.0000   1.0000
     1.0000   1.0000   1.0000   1.0000   1.0000   1.0000   1.0000   1.0000
     1.0000   1.0000   1.0000   1.0000   1.0000   1.0000   1.0000   1.0000
     1.0000   1.0000   1.0000   1.0000   1.0000   1.0000   1.0000   1.0000
     1.0000   1.0000   1.0000   1.0000   1.0000   1.0000   1.0000   1.0000
     1.0000   1.0000   1.0000   1.0000   1.0000   1.0000   1.0000   1.0000
     1.0000   1.0000   1.0000   1.0000   1.0000   1.0000   1.0000   1.0000
     1.0000   1.0000   1.0000   1.0000   1.0000   1.0000   1.0000   1.0000
     1.0000   1.0000   1.0000   1.0000   1.0000   1.0000   1.0000   1.0000
     1.0000   1.0000   1.0000   1.0000   1.0000   1.0000   1.0000   1.0000
     1.0000   1.0000   1.0000   1.0000   1.0000   1.0000   1.0000   1.0000
     1.0000   1.0000   1.0000   1.0000   1.0000   1.0000   1.0000   1.0000
     1.0000   1.0000   1.0000   1.0000   1.0000   1.0000   1.0000   1.0000
     1.0000   1.0000   1.0000   1.0000   1.0000   1.0000   1.0000   1.0000
     1.0000   1.0000   1.0000   1.0000   1.0000   1.0000   1.0000   1.0000
     1.0000   1.0000   1.0000   1.0000   1.0000   1.0000   1.0000   1.0000
     1.0000   1.0000   1.0000   1.0000   1.0000   1.0000   1.0000   1.0000
     1.0000   1.0000   1.0000   1.0000   1.0000   1.0000   1.0000   1.0000
     1.0000   1.0000   1.0000   1.0000   1.0000   1.0000   1.0000   1.0000
     1.0000   1.0000   1.0000   1.0000   1.0000   1.0000   1.0000   1.0000
     1.0000   1.0000   1.0000   1.0000   1.0000   1.0000   1.0000   1.0000
     1.0000   1.0000   1.0000   1.0000   1.0000   1.0000   1.0000   1.0000
     1.0000   1.0000   1.0000   1.0000   1.0000   1.0000   1.0000   1.0000
     1.0000   1.0000   1.0000   1.0000   1.0000   1.0000   1.0000   1.0000
     1.0000   1.0000   1.0000   1.0000   1.0000   1.0000   1.0000   1.0000
     1.0000   1.0000   1.0000   1.0000   1.0000   1.0000   1.0000   1.0000
     1.0000   1.0000   1.0000   1.0000   1.0000   1.0000   1.0000   1.0000
     1.0000   1.0000   1.0000   1.0000   1.0000   1.0000   1.0000   1.0000
     1.0000   1.0000   1.0000   1.0000   1.0000   1.0000   1.0000   1.0000
     1.0000   1.0000   1.0000   1.0000   0.9999   0.9999   0.9997   0.9991
     0.9980   0.9961   0.9945   0.9905   0.9880   0.9828   0.9483   0.9131
     0.8792   0.8227   0.7226   0.6622   0.5467   0.4248   0.1789   0.1361
     0.0559   0.0378   0.0153   0.0134   0.0057   0.0043   0.0027   0.0017
     0.0009   0.0001   0.0000   0.0000   0.0000   0.0000   0.0000   0.0000
     0.0000   0.0000   0.0000   0.0000   0.0000   0.0000   0.0000   0.0000
     0.0000   0.0000   0.0000   0.0000   0.0000   0.0000   0.0000   0.0000
     0.0000   0.0000   0.0000   0.0000   0.0000   0.0000   0.0000   0.0000
     0.0000   0.0000   0.0000   0.0000   0.0000   0.0000   0.0000   0.0000
     0.0000   0.0000   0.0000   0.0000   0.0000   0.0000   0.0000   0.0000
     0.0000   0.0000   0.0000   0.0000   0.0000   0.0000   0.0000   0.0000

          k = 0.1667-0.2887 0.0000 ( 88188 PWs)   bands (ev):

   -95.4147 -95.4072 -95.4067 -95.4025 -95.3875 -95.3845 -95.3841 -95.3812
   -95.3801 -95.3793 -95.3761 -95.3755 -95.3740 -95.3730 -95.3697 -95.3691
   -95.3687 -95.2188 -95.1921 -95.1892 -95.1884 -95.0149 -95.0090 -95.0082
   -94.9531 -94.9465 -94.9448 -94.9401 -94.9386 -94.9364 -94.9334 -94.9312
   -94.9304 -94.9300 -94.9238 -94.9221 -49.7018 -49.6994 -49.6851 -49.6799
   -49.6709 -49.6628 -49.6589 -49.6558 -49.6466 -49.6439 -49.6434 -49.6348
   -49.6313 -49.6239 -49.6152 -49.5869 -49.5826 -49.5712 -49.5692 -49.5576
   -49.5529 -49.5461 -49.5439 -49.5403 -49.5363 -49.5272 -49.5226 -49.5162
   -49.5121 -49.5010 -49.4984 -49.4954 -49.4864 -49.4838 -49.4831 -49.4786
   -49.4740 -49.4718 -49.4673 -49.4611 -49.4580 -49.4553 -49.4514 -49.4481
   -49.4449 -49.4436 -49.4387 -49.4339 -49.4293 -49.4256 -49.4122 -49.4082
   -49.4043 -49.3914 -49.3713 -49.3635 -49.3455 -49.3435 -49.3362 -49.3260
   -49.3052 -49.3018 -49.2938 -49.2848 -49.2798 -49.2729 -49.2633 -49.2557
   -49.2523 -49.2495 -49.2312 -49.2256 -49.2063 -49.1932 -49.1890 -49.1865
   -49.1848 -49.1471 -49.1330 -49.1230 -49.1177 -49.1151 -49.1129 -49.1120
   -49.1094 -49.1075 -49.1000 -49.0845 -49.0800 -49.0791 -49.0745 -49.0649
   -49.0456 -48.9230 -48.9136 -48.9126 -48.8844 -48.8740 -48.8709 -48.8655
   -48.8637 -48.8610 -48.8575 -48.8568 -48.8534 -48.8529 -48.8446 -48.8429
   -14.2004  -5.7677  -4.4828  -4.2563  -4.2138  -3.4021  -3.3314  -3.3145
    -3.2966  -3.2913  -3.2756  -3.2344  -3.1706  -3.0467  -3.0292  -2.7773
    -2.7382  -2.6011  -2.5930  -2.4992  -2.4690  -2.4485  -2.4296  -2.4141
    -2.4044  -2.3321  -2.3197  -2.3146  -2.2645  -2.2535  -2.2137  -2.1356
    -2.1274  -2.1085  -2.0970  -1.9774  -1.9169  -1.7886  -1.7696  -1.6809
    -1.6696  -1.6300  -1.5725  -1.5424  -1.5354  -1.4591  -1.4343  -1.3710
    -1.3173  -1.2503  -1.2294  -1.2078  -1.1386  -1.1189  -1.0995  -1.0221
    -1.0016  -0.8428  -0.8046  -0.7842  -0.7398  -0.7297  -0.6988  -0.6567
    -0.6369  -0.6140  -0.5974  -0.5729  -0.5014  -0.4647  -0.4395  -0.4293
    -0.4102  -0.3833  -0.3481  -0.2986  -0.2744  -0.2079  -0.1986  -0.1846
    -0.1482  -0.1251  -0.0900  -0.0801  -0.0665  -0.0393  -0.0275  -0.0210
     0.0024   0.0063   0.0184   0.0871   0.1004   0.1565   0.1712   0.2003
     0.2247   0.2392   0.2507   0.2943   0.3028   0.3140   0.3255   0.3381
     0.3734   0.3983   0.4193   0.4419   0.4633   0.5467   0.5612   0.6125
     0.6345   0.6663   0.7152   0.8068   0.8894   0.9287   0.9634   0.9935
     1.0478   1.0815   1.1016   1.1117   1.1215   1.1359   1.1543   1.2481
     1.2807   1.3204   1.3972   1.4664   1.5022   1.5198   1.5724   1.5980
     1.5999   1.6368   1.6774   1.6944   1.7367   1.7959   1.8351   1.8384
     1.8779   1.8940   1.9306   1.9519   1.9811   2.0065   2.0137   2.0333
     2.0704   2.0995   2.1217   2.1393   2.1434   2.1775   2.2353   2.3156
     2.3378   2.4527   2.4758   2.5359   2.5780   2.6050   2.6451   2.6713
     2.7024   2.7286   2.7459   2.7557   2.7728   2.7866   2.8176   2.8543
     2.8642   2.9182   2.9507   2.9695   2.9821   3.0043   3.0148   3.0442
     3.0560   3.1005   3.1219   3.1661   3.2181   3.2441   3.2644   3.2950
     3.3095   3.3526   3.3690   3.5346   3.6516   3.6822   3.7502   3.9678
     4.1198   4.1871   4.5103   4.5968   5.1113   5.1325   5.4217   5.5437
     5.7626   5.9346   6.6573   6.6819   6.8103   6.9079   7.0990   7.3864
     7.5371   7.7990   7.9513   7.9713   8.0755   8.2638   8.9338   8.9449
     9.0583   9.1403   9.1861   9.3239   9.4072   9.6379   9.6670   9.7684
     9.8171   9.8698  10.0443  10.1921  10.2921  10.5144  10.5464  10.5848
    10.6727  10.7601  10.8503  10.9627  11.1880  11.2137  11.2579  11.3256

     occupation numbers 
     1.0000   1.0000   1.0000   1.0000   1.0000   1.0000   1.0000   1.0000
     1.0000   1.0000   1.0000   1.0000   1.0000   1.0000   1.0000   1.0000
     1.0000   1.0000   1.0000   1.0000   1.0000   1.0000   1.0000   1.0000
     1.0000   1.0000   1.0000   1.0000   1.0000   1.0000   1.0000   1.0000
     1.0000   1.0000   1.0000   1.0000   1.0000   1.0000   1.0000   1.0000
     1.0000   1.0000   1.0000   1.0000   1.0000   1.0000   1.0000   1.0000
     1.0000   1.0000   1.0000   1.0000   1.0000   1.0000   1.0000   1.0000
     1.0000   1.0000   1.0000   1.0000   1.0000   1.0000   1.0000   1.0000
     1.0000   1.0000   1.0000   1.0000   1.0000   1.0000   1.0000   1.0000
     1.0000   1.0000   1.0000   1.0000   1.0000   1.0000   1.0000   1.0000
     1.0000   1.0000   1.0000   1.0000   1.0000   1.0000   1.0000   1.0000
     1.0000   1.0000   1.0000   1.0000   1.0000   1.0000   1.0000   1.0000
     1.0000   1.0000   1.0000   1.0000   1.0000   1.0000   1.0000   1.0000
     1.0000   1.0000   1.0000   1.0000   1.0000   1.0000   1.0000   1.0000
     1.0000   1.0000   1.0000   1.0000   1.0000   1.0000   1.0000   1.0000
     1.0000   1.0000   1.0000   1.0000   1.0000   1.0000   1.0000   1.0000
     1.0000   1.0000   1.0000   1.0000   1.0000   1.0000   1.0000   1.0000
     1.0000   1.0000   1.0000   1.0000   1.0000   1.0000   1.0000   1.0000
     1.0000   1.0000   1.0000   1.0000   1.0000   1.0000   1.0000   1.0000
     1.0000   1.0000   1.0000   1.0000   1.0000   1.0000   1.0000   1.0000
     1.0000   1.0000   1.0000   1.0000   1.0000   1.0000   1.0000   1.0000
     1.0000   1.0000   1.0000   1.0000   1.0000   1.0000   1.0000   1.0000
     1.0000   1.0000   1.0000   1.0000   1.0000   1.0000   1.0000   1.0000
     1.0000   1.0000   1.0000   1.0000   1.0000   1.0000   1.0000   1.0000
     1.0000   1.0000   1.0000   1.0000   1.0000   1.0000   1.0000   1.0000
     1.0000   1.0000   1.0000   1.0000   1.0000   1.0000   1.0000   1.0000
     1.0000   1.0000   1.0000   1.0000   1.0000   1.0000   1.0000   1.0000
     1.0000   1.0000   1.0000   1.0000   1.0000   1.0000   1.0000   1.0000
     1.0000   1.0000   1.0000   1.0000   1.0000   1.0000   1.0000   1.0000
     1.0000   1.0000   1.0000   1.0000   1.0000   1.0000   1.0000   1.0000
     1.0000   1.0000   1.0000   1.0000   1.0000   1.0000   1.0000   1.0000
     1.0000   1.0000   1.0000   1.0000   1.0000   1.0000   1.0000   1.0000
     1.0000   1.0000   1.0000   1.0000   1.0000   1.0000   1.0000   1.0000
     1.0000   1.0000   1.0000   1.0000   1.0000   1.0000   1.0000   1.0000
     1.0000   1.0000   1.0000   1.0000   1.0000   1.0000   1.0000   1.0000
     1.0000   1.0000   1.0000   1.0000   1.0000   1.0000   1.0000   1.0000
     1.0000   1.0000   1.0000   1.0000   1.0000   1.0000   1.0000   1.0000
     1.0000   1.0000   1.0000   1.0000   1.0000   1.0000   1.0000   1.0000
     1.0000   1.0000   1.0000   1.0000   0.9999   0.9999   0.9997   0.9995
     0.9991   0.9985   0.9979   0.9975   0.9965   0.9953   0.9913   0.9821
     0.9783   0.9388   0.8890   0.8461   0.8104   0.7327   0.6895   0.5521
     0.4935   0.2856   0.2068   0.0973   0.0366   0.0222   0.0149   0.0081
     0.0061   0.0026   0.0019   0.0001   0.0000   0.0000   0.0000   0.0000
     0.0000   0.0000   0.0000   0.0000   0.0000   0.0000   0.0000   0.0000
     0.0000   0.0000   0.0000   0.0000   0.0000   0.0000   0.0000   0.0000
     0.0000   0.0000   0.0000   0.0000   0.0000   0.0000   0.0000   0.0000
     0.0000   0.0000   0.0000   0.0000   0.0000   0.0000   0.0000   0.0000
     0.0000   0.0000   0.0000   0.0000   0.0000   0.0000   0.0000   0.0000
     0.0000   0.0000   0.0000   0.0000   0.0000   0.0000   0.0000   0.0000

          k = 0.3333-0.1925 0.0000 ( 88170 PWs)   bands (ev):

   -95.4145 -95.4075 -95.4065 -95.4025 -95.3875 -95.3849 -95.3840 -95.3816
   -95.3794 -95.3790 -95.3763 -95.3760 -95.3739 -95.3729 -95.3696 -95.3693
   -95.3686 -95.2188 -95.1921 -95.1892 -95.1884 -95.0149 -95.0091 -95.0081
   -94.9527 -94.9471 -94.9447 -94.9400 -94.9388 -94.9363 -94.9332 -94.9312
   -94.9304 -94.9302 -94.9238 -94.9221 -49.7114 -49.6945 -49.6865 -49.6821
   -49.6701 -49.6690 -49.6625 -49.6580 -49.6543 -49.6488 -49.6469 -49.6381
   -49.6268 -49.6162 -49.5996 -49.5950 -49.5734 -49.5710 -49.5656 -49.5560
   -49.5468 -49.5420 -49.5402 -49.5349 -49.5339 -49.5306 -49.5252 -49.5162
   -49.5067 -49.4983 -49.4979 -49.4927 -49.4903 -49.4837 -49.4833 -49.4765
   -49.4737 -49.4698 -49.4669 -49.4623 -49.4584 -49.4556 -49.4535 -49.4502
   -49.4464 -49.4452 -49.4376 -49.4365 -49.4282 -49.4240 -49.4219 -49.4130
   -49.4031 -49.3918 -49.3714 -49.3675 -49.3479 -49.3406 -49.3360 -49.3300
   -49.3146 -49.2958 -49.2864 -49.2854 -49.2819 -49.2811 -49.2768 -49.2651
   -49.2498 -49.2272 -49.2152 -49.2151 -49.2144 -49.2077 -49.1812 -49.1808
   -49.1600 -49.1515 -49.1326 -49.1241 -49.1234 -49.1221 -49.1186 -49.1105
   -49.1087 -49.0993 -49.0965 -49.0963 -49.0891 -49.0746 -49.0733 -49.0697
   -49.0476 -48.9228 -48.9138 -48.9124 -48.8837 -48.8753 -48.8702 -48.8666
   -48.8630 -48.8606 -48.8571 -48.8568 -48.8535 -48.8532 -48.8446 -48.8429
   -14.2003  -5.6684  -4.6106  -4.3837  -3.7573  -3.7488  -3.4749  -3.3504
    -3.2994  -3.2238  -3.1468  -3.1124  -3.1066  -2.9129  -2.8689  -2.8032
    -2.7961  -2.6894  -2.5868  -2.5422  -2.4593  -2.4578  -2.4313  -2.4202
    -2.4020  -2.3961  -2.3817  -2.3371  -2.2670  -2.2543  -2.2188  -2.2095
    -1.9827  -1.9732  -1.9676  -1.9498  -1.9190  -1.9058  -1.7255  -1.7085
    -1.6391  -1.6348  -1.5986  -1.5070  -1.4923  -1.4752  -1.4437  -1.4356
    -1.2693  -1.2680  -1.2278  -1.2210  -1.1960  -1.1711  -1.1015  -1.0809
    -1.0131  -0.9622  -0.8545  -0.8452  -0.8227  -0.7712  -0.6931  -0.6831
    -0.6544  -0.6347  -0.6293  -0.5800  -0.5105  -0.4687  -0.4613  -0.3842
    -0.3544  -0.3288  -0.3284  -0.3175  -0.2843  -0.2522  -0.2290  -0.1976
    -0.1807  -0.1773  -0.1275  -0.1184  -0.1053  -0.0898  -0.0493  -0.0478
    -0.0367  -0.0161  -0.0074   0.0167   0.0362   0.0841   0.0868   0.1054
     0.2014   0.2402   0.2560   0.2633   0.2936   0.3056   0.3599   0.3877
     0.4076   0.4571   0.4632   0.5344   0.5501   0.5974   0.6072   0.7197
     0.7202   0.7416   0.7761   0.7791   0.9292   0.9782   0.9894   1.0089
     1.0133   1.0449   1.0492   1.0650   1.1014   1.1578   1.1785   1.1810
     1.2104   1.2171   1.2779   1.3291   1.3791   1.4153   1.4190   1.5792
     1.5864   1.6016   1.6103   1.6629   1.6696   1.7958   1.8543   1.8620
     1.8903   1.9001   1.9203   1.9458   1.9616   2.0080   2.0442   2.0827
     2.1145   2.1496   2.1708   2.2133   2.2240   2.2564   2.2584   2.3020
     2.3639   2.3911   2.4476   2.4944   2.5227   2.5384   2.5803   2.5832
     2.6414   2.6545   2.7262   2.7441   2.7576   2.8029   2.8729   2.8779
     2.9102   2.9335   2.9591   2.9676   2.9929   3.0152   3.0304   3.0700
     3.0752   3.1350   3.2207   3.2263   3.2335   3.2501   3.2861   3.3640
     3.3975   3.4578   3.5984   3.9007   3.9153   3.9399   3.9521   4.1110
     4.2327   4.3283   4.4973   5.1969   5.2306   5.2862   5.3430   5.6718
     5.9115   5.9207   6.0497   6.1508   6.6545   6.7728   7.1932   7.4162
     7.4536   7.5872   7.8627   8.0345   8.3415   8.3637   8.6998   8.7715
     8.8556   9.2317   9.2759   9.3232   9.3272   9.5779   9.6154   9.7342
     9.7596   9.9602  10.0984  10.1611  10.2914  10.3321  10.4512  10.4636
    10.5785  10.6405  10.7153  10.8612  11.0338  11.3088  11.3253  11.4088

     occupation numbers 
     1.0000   1.0000   1.0000   1.0000   1.0000   1.0000   1.0000   1.0000
     1.0000   1.0000   1.0000   1.0000   1.0000   1.0000   1.0000   1.0000
     1.0000   1.0000   1.0000   1.0000   1.0000   1.0000   1.0000   1.0000
     1.0000   1.0000   1.0000   1.0000   1.0000   1.0000   1.0000   1.0000
     1.0000   1.0000   1.0000   1.0000   1.0000   1.0000   1.0000   1.0000
     1.0000   1.0000   1.0000   1.0000   1.0000   1.0000   1.0000   1.0000
     1.0000   1.0000   1.0000   1.0000   1.0000   1.0000   1.0000   1.0000
     1.0000   1.0000   1.0000   1.0000   1.0000   1.0000   1.0000   1.0000
     1.0000   1.0000   1.0000   1.0000   1.0000   1.0000   1.0000   1.0000
     1.0000   1.0000   1.0000   1.0000   1.0000   1.0000   1.0000   1.0000
     1.0000   1.0000   1.0000   1.0000   1.0000   1.0000   1.0000   1.0000
     1.0000   1.0000   1.0000   1.0000   1.0000   1.0000   1.0000   1.0000
     1.0000   1.0000   1.0000   1.0000   1.0000   1.0000   1.0000   1.0000
     1.0000   1.0000   1.0000   1.0000   1.0000   1.0000   1.0000   1.0000
     1.0000   1.0000   1.0000   1.0000   1.0000   1.0000   1.0000   1.0000
     1.0000   1.0000   1.0000   1.0000   1.0000   1.0000   1.0000   1.0000
     1.0000   1.0000   1.0000   1.0000   1.0000   1.0000   1.0000   1.0000
     1.0000   1.0000   1.0000   1.0000   1.0000   1.0000   1.0000   1.0000
     1.0000   1.0000   1.0000   1.0000   1.0000   1.0000   1.0000   1.0000
     1.0000   1.0000   1.0000   1.0000   1.0000   1.0000   1.0000   1.0000
     1.0000   1.0000   1.0000   1.0000   1.0000   1.0000   1.0000   1.0000
     1.0000   1.0000   1.0000   1.0000   1.0000   1.0000   1.0000   1.0000
     1.0000   1.0000   1.0000   1.0000   1.0000   1.0000   1.0000   1.0000
     1.0000   1.0000   1.0000   1.0000   1.0000   1.0000   1.0000   1.0000
     1.0000   1.0000   1.0000   1.0000   1.0000   1.0000   1.0000   1.0000
     1.0000   1.0000   1.0000   1.0000   1.0000   1.0000   1.0000   1.0000
     1.0000   1.0000   1.0000   1.0000   1.0000   1.0000   1.0000   1.0000
     1.0000   1.0000   1.0000   1.0000   1.0000   1.0000   1.0000   1.0000
     1.0000   1.0000   1.0000   1.0000   1.0000   1.0000   1.0000   1.0000
     1.0000   1.0000   1.0000   1.0000   1.0000   1.0000   1.0000   1.0000
     1.0000   1.0000   1.0000   1.0000   1.0000   1.0000   1.0000   1.0000
     1.0000   1.0000   1.0000   1.0000   1.0000   1.0000   1.0000   1.0000
     1.0000   1.0000   1.0000   1.0000   1.0000   1.0000   1.0000   1.0000
     1.0000   1.0000   1.0000   1.0000   1.0000   1.0000   1.0000   1.0000
     1.0000   1.0000   1.0000   1.0000   1.0000   1.0000   1.0000   1.0000
     1.0000   1.0000   1.0000   1.0000   1.0000   1.0000   1.0000   1.0000
     1.0000   1.0000   1.0000   1.0000   1.0000   1.0000   1.0000   1.0000
     1.0000   1.0000   1.0000   1.0000   1.0000   1.0000   1.0000   1.0000
     1.0000   1.0000   1.0000   1.0000   1.0000   1.0000   0.9999   0.9999
     0.9997   0.9997   0.9986   0.9980   0.9974   0.9935   0.9743   0.9717
     0.9473   0.9186   0.8712   0.8509   0.7749   0.6879   0.6190   0.4242
     0.3987   0.1672   0.0349   0.0313   0.0272   0.0197   0.0097   0.0021
     0.0011   0.0003   0.0000   0.0000   0.0000   0.0000   0.0000   0.0000
     0.0000   0.0000   0.0000   0.0000   0.0000   0.0000   0.0000   0.0000
     0.0000   0.0000   0.0000   0.0000   0.0000   0.0000   0.0000   0.0000
     0.0000   0.0000   0.0000   0.0000   0.0000   0.0000   0.0000   0.0000
     0.0000   0.0000   0.0000   0.0000   0.0000   0.0000   0.0000   0.0000
     0.0000   0.0000   0.0000   0.0000   0.0000   0.0000   0.0000   0.0000
     0.0000   0.0000   0.0000   0.0000   0.0000   0.0000   0.0000   0.0000

          k = 0.3333 0.0000 0.0000 ( 88188 PWs)   bands (ev):

   -95.4147 -95.4074 -95.4064 -95.4025 -95.3875 -95.3846 -95.3841 -95.3811
   -95.3803 -95.3792 -95.3761 -95.3756 -95.3743 -95.3727 -95.3696 -95.3694
   -95.3686 -95.2188 -95.1921 -95.1892 -95.1884 -95.0149 -95.0091 -95.0081
   -94.9531 -94.9465 -94.9449 -94.9400 -94.9386 -94.9365 -94.9334 -94.9312
   -94.9304 -94.9301 -94.9238 -94.9222 -49.7009 -49.6988 -49.6859 -49.6799
   -49.6714 -49.6628 -49.6587 -49.6555 -49.6473 -49.6436 -49.6435 -49.6354
   -49.6313 -49.6238 -49.6155 -49.5876 -49.5822 -49.5711 -49.5690 -49.5579
   -49.5530 -49.5459 -49.5440 -49.5402 -49.5365 -49.5273 -49.5227 -49.5157
   -49.5121 -49.5010 -49.4980 -49.4951 -49.4865 -49.4841 -49.4830 -49.4785
   -49.4741 -49.4718 -49.4672 -49.4612 -49.4578 -49.4551 -49.4516 -49.4477
   -49.4447 -49.4435 -49.4387 -49.4341 -49.4298 -49.4250 -49.4119 -49.4086
   -49.4042 -49.3921 -49.3713 -49.3635 -49.3452 -49.3432 -49.3367 -49.3260
   -49.3051 -49.3016 -49.2937 -49.2850 -49.2798 -49.2727 -49.2633 -49.2559
   -49.2525 -49.2498 -49.2310 -49.2256 -49.2064 -49.1934 -49.1889 -49.1866
   -49.1846 -49.1471 -49.1327 -49.1230 -49.1180 -49.1151 -49.1129 -49.1120
   -49.1092 -49.1070 -49.1003 -49.0845 -49.0801 -49.0791 -49.0745 -49.0647
   -49.0458 -48.9229 -48.9138 -48.9124 -48.8844 -48.8739 -48.8710 -48.8653
   -48.8638 -48.8610 -48.8575 -48.8568 -48.8534 -48.8529 -48.8446 -48.8429
   -14.2004  -5.7678  -4.4829  -4.2563  -4.2144  -3.4022  -3.3298  -3.3146
    -3.2968  -3.2915  -3.2757  -3.2341  -3.1707  -3.0464  -3.0293  -2.7789
    -2.7399  -2.6005  -2.5927  -2.4999  -2.4693  -2.4497  -2.4296  -2.4145
    -2.4044  -2.3312  -2.3186  -2.3136  -2.2643  -2.2536  -2.2121  -2.1352
    -2.1273  -2.1095  -2.0979  -1.9768  -1.9192  -1.7876  -1.7691  -1.6801
    -1.6691  -1.6296  -1.5718  -1.5428  -1.5352  -1.4591  -1.4351  -1.3701
    -1.3173  -1.2505  -1.2282  -1.2082  -1.1377  -1.1193  -1.0993  -1.0222
    -1.0013  -0.8415  -0.8036  -0.7827  -0.7383  -0.7291  -0.6981  -0.6563
    -0.6372  -0.6144  -0.5967  -0.5725  -0.5024  -0.4646  -0.4408  -0.4304
    -0.4108  -0.3850  -0.3483  -0.2979  -0.2722  -0.2082  -0.1997  -0.1849
    -0.1494  -0.1249  -0.0916  -0.0808  -0.0660  -0.0394  -0.0286  -0.0217
     0.0023   0.0053   0.0186   0.0865   0.1012   0.1570   0.1725   0.2009
     0.2246   0.2394   0.2506   0.2946   0.3018   0.3144   0.3261   0.3368
     0.3724   0.3983   0.4188   0.4413   0.4643   0.5454   0.5606   0.6128
     0.6347   0.6664   0.7148   0.8067   0.8876   0.9288   0.9643   0.9931
     1.0486   1.0818   1.1010   1.1118   1.1203   1.1360   1.1532   1.2479
     1.2798   1.3200   1.4004   1.4632   1.5022   1.5197   1.5714   1.5981
     1.5990   1.6364   1.6776   1.6947   1.7365   1.7962   1.8349   1.8384
     1.8778   1.8941   1.9301   1.9534   1.9820   2.0075   2.0140   2.0336
     2.0714   2.1002   2.1222   2.1397   2.1441   2.1779   2.2344   2.3155
     2.3370   2.4516   2.4751   2.5353   2.5779   2.6056   2.6451   2.6708
     2.7020   2.7286   2.7462   2.7563   2.7732   2.7868   2.8173   2.8533
     2.8642   2.9174   2.9501   2.9708   2.9814   3.0038   3.0148   3.0445
     3.0557   3.1000   3.1219   3.1658   3.2187   3.2456   3.2651   3.2962
     3.3111   3.3528   3.3694   3.5351   3.6516   3.6819   3.7494   3.9681
     4.1206   4.1879   4.5119   4.5973   5.1104   5.1319   5.4206   5.5434
     5.7628   5.9347   6.6586   6.6833   6.8109   6.9076   7.0982   7.3861
     7.5368   7.7989   7.9502   7.9701   8.0733   8.2630   8.9341   8.9433
     9.0626   9.1390   9.1861   9.3239   9.4078   9.6422   9.6701   9.7686
     9.8165   9.8702  10.0444  10.1921  10.2927  10.5144  10.5476  10.5854
    10.6720  10.7593  10.8486  10.9626  11.1881  11.2127  11.2543  11.3227

     occupation numbers 
     1.0000   1.0000   1.0000   1.0000   1.0000   1.0000   1.0000   1.0000
     1.0000   1.0000   1.0000   1.0000   1.0000   1.0000   1.0000   1.0000
     1.0000   1.0000   1.0000   1.0000   1.0000   1.0000   1.0000   1.0000
     1.0000   1.0000   1.0000   1.0000   1.0000   1.0000   1.0000   1.0000
     1.0000   1.0000   1.0000   1.0000   1.0000   1.0000   1.0000   1.0000
     1.0000   1.0000   1.0000   1.0000   1.0000   1.0000   1.0000   1.0000
     1.0000   1.0000   1.0000   1.0000   1.0000   1.0000   1.0000   1.0000
     1.0000   1.0000   1.0000   1.0000   1.0000   1.0000   1.0000   1.0000
     1.0000   1.0000   1.0000   1.0000   1.0000   1.0000   1.0000   1.0000
     1.0000   1.0000   1.0000   1.0000   1.0000   1.0000   1.0000   1.0000
     1.0000   1.0000   1.0000   1.0000   1.0000   1.0000   1.0000   1.0000
     1.0000   1.0000   1.0000   1.0000   1.0000   1.0000   1.0000   1.0000
     1.0000   1.0000   1.0000   1.0000   1.0000   1.0000   1.0000   1.0000
     1.0000   1.0000   1.0000   1.0000   1.0000   1.0000   1.0000   1.0000
     1.0000   1.0000   1.0000   1.0000   1.0000   1.0000   1.0000   1.0000
     1.0000   1.0000   1.0000   1.0000   1.0000   1.0000   1.0000   1.0000
     1.0000   1.0000   1.0000   1.0000   1.0000   1.0000   1.0000   1.0000
     1.0000   1.0000   1.0000   1.0000   1.0000   1.0000   1.0000   1.0000
     1.0000   1.0000   1.0000   1.0000   1.0000   1.0000   1.0000   1.0000
     1.0000   1.0000   1.0000   1.0000   1.0000   1.0000   1.0000   1.0000
     1.0000   1.0000   1.0000   1.0000   1.0000   1.0000   1.0000   1.0000
     1.0000   1.0000   1.0000   1.0000   1.0000   1.0000   1.0000   1.0000
     1.0000   1.0000   1.0000   1.0000   1.0000   1.0000   1.0000   1.0000
     1.0000   1.0000   1.0000   1.0000   1.0000   1.0000   1.0000   1.0000
     1.0000   1.0000   1.0000   1.0000   1.0000   1.0000   1.0000   1.0000
     1.0000   1.0000   1.0000   1.0000   1.0000   1.0000   1.0000   1.0000
     1.0000   1.0000   1.0000   1.0000   1.0000   1.0000   1.0000   1.0000
     1.0000   1.0000   1.0000   1.0000   1.0000   1.0000   1.0000   1.0000
     1.0000   1.0000   1.0000   1.0000   1.0000   1.0000   1.0000   1.0000
     1.0000   1.0000   1.0000   1.0000   1.0000   1.0000   1.0000   1.0000
     1.0000   1.0000   1.0000   1.0000   1.0000   1.0000   1.0000   1.0000
     1.0000   1.0000   1.0000   1.0000   1.0000   1.0000   1.0000   1.0000
     1.0000   1.0000   1.0000   1.0000   1.0000   1.0000   1.0000   1.0000
     1.0000   1.0000   1.0000   1.0000   1.0000   1.0000   1.0000   1.0000
     1.0000   1.0000   1.0000   1.0000   1.0000   1.0000   1.0000   1.0000
     1.0000   1.0000   1.0000   1.0000   1.0000   1.0000   1.0000   1.0000
     1.0000   1.0000   1.0000   1.0000   1.0000   1.0000   1.0000   1.0000
     1.0000   1.0000   1.0000   1.0000   1.0000   1.0000   1.0000   1.0000
     1.0000   1.0000   1.0000   1.0000   0.9999   0.9999   0.9997   0.9995
     0.9991   0.9985   0.9979   0.9974   0.9964   0.9953   0.9914   0.9825
     0.9783   0.9397   0.8900   0.8426   0.8123   0.7345   0.6896   0.5507
     0.4950   0.2876   0.2068   0.0979   0.0363   0.0215   0.0146   0.0079
     0.0059   0.0026   0.0018   0.0001   0.0000   0.0000   0.0000   0.0000
     0.0000   0.0000   0.0000   0.0000   0.0000   0.0000   0.0000   0.0000
     0.0000   0.0000   0.0000   0.0000   0.0000   0.0000   0.0000   0.0000
     0.0000   0.0000   0.0000   0.0000   0.0000   0.0000   0.0000   0.0000
     0.0000   0.0000   0.0000   0.0000   0.0000   0.0000   0.0000   0.0000
     0.0000   0.0000   0.0000   0.0000   0.0000   0.0000   0.0000   0.0000
     0.0000   0.0000   0.0000   0.0000   0.0000   0.0000   0.0000   0.0000

          k = 0.3333 0.1925 0.0000 ( 88170 PWs)   bands (ev):

   -95.4145 -95.4075 -95.4064 -95.4025 -95.3875 -95.3849 -95.3840 -95.3816
   -95.3794 -95.3790 -95.3762 -95.3760 -95.3740 -95.3729 -95.3695 -95.3693
   -95.3686 -95.2188 -95.1921 -95.1892 -95.1884 -95.0149 -95.0091 -95.0081
   -94.9527 -94.9471 -94.9447 -94.9400 -94.9388 -94.9363 -94.9332 -94.9312
   -94.9304 -94.9302 -94.9238 -94.9221 -49.7114 -49.6945 -49.6865 -49.6821
   -49.6701 -49.6691 -49.6625 -49.6580 -49.6543 -49.6488 -49.6469 -49.6381
   -49.6268 -49.6162 -49.5996 -49.5950 -49.5734 -49.5710 -49.5656 -49.5560
   -49.5467 -49.5420 -49.5402 -49.5349 -49.5338 -49.5306 -49.5252 -49.5163
   -49.5067 -49.4983 -49.4979 -49.4927 -49.4903 -49.4837 -49.4834 -49.4765
   -49.4737 -49.4698 -49.4669 -49.4623 -49.4584 -49.4556 -49.4535 -49.4502
   -49.4464 -49.4452 -49.4376 -49.4365 -49.4282 -49.4240 -49.4219 -49.4130
   -49.4031 -49.3918 -49.3714 -49.3675 -49.3479 -49.3406 -49.3360 -49.3300
   -49.3146 -49.2958 -49.2864 -49.2854 -49.2819 -49.2811 -49.2768 -49.2651
   -49.2498 -49.2272 -49.2152 -49.2151 -49.2144 -49.2077 -49.1812 -49.1808
   -49.1600 -49.1515 -49.1326 -49.1241 -49.1234 -49.1221 -49.1186 -49.1105
   -49.1086 -49.0993 -49.0965 -49.0963 -49.0891 -49.0745 -49.0733 -49.0697
   -49.0476 -48.9228 -48.9138 -48.9124 -48.8837 -48.8753 -48.8701 -48.8666
   -48.8631 -48.8606 -48.8571 -48.8568 -48.8535 -48.8532 -48.8446 -48.8429
   -14.2003  -5.6684  -4.6106  -4.3837  -3.7573  -3.7488  -3.4749  -3.3504
    -3.2994  -3.2238  -3.1468  -3.1124  -3.1066  -2.9129  -2.8689  -2.8032
    -2.7961  -2.6894  -2.5868  -2.5421  -2.4593  -2.4578  -2.4313  -2.4201
    -2.4020  -2.3961  -2.3817  -2.3371  -2.2670  -2.2542  -2.2189  -2.2094
    -1.9827  -1.9732  -1.9676  -1.9498  -1.9190  -1.9057  -1.7255  -1.7085
    -1.6391  -1.6348  -1.5986  -1.5069  -1.4923  -1.4752  -1.4438  -1.4356
    -1.2693  -1.2680  -1.2278  -1.2210  -1.1960  -1.1711  -1.1015  -1.0810
    -1.0131  -0.9622  -0.8545  -0.8452  -0.8227  -0.7712  -0.6931  -0.6831
    -0.6544  -0.6347  -0.6294  -0.5800  -0.5105  -0.4687  -0.4613  -0.3842
    -0.3544  -0.3288  -0.3284  -0.3175  -0.2843  -0.2522  -0.2290  -0.1976
    -0.1807  -0.1773  -0.1275  -0.1184  -0.1053  -0.0898  -0.0493  -0.0478
    -0.0367  -0.0160  -0.0074   0.0167   0.0362   0.0841   0.0868   0.1054
     0.2014   0.2402   0.2560   0.2633   0.2936   0.3056   0.3599   0.3877
     0.4076   0.4571   0.4632   0.5344   0.5501   0.5974   0.6072   0.7197
     0.7202   0.7415   0.7762   0.7790   0.9293   0.9782   0.9894   1.0089
     1.0133   1.0449   1.0493   1.0650   1.1014   1.1578   1.1784   1.1810
     1.2104   1.2171   1.2779   1.3291   1.3791   1.4153   1.4189   1.5792
     1.5864   1.6015   1.6103   1.6628   1.6696   1.7958   1.8543   1.8620
     1.8903   1.9001   1.9203   1.9458   1.9615   2.0080   2.0442   2.0827
     2.1145   2.1496   2.1708   2.2133   2.2240   2.2564   2.2584   2.3020
     2.3640   2.3911   2.4476   2.4944   2.5227   2.5384   2.5803   2.5831
     2.6413   2.6545   2.7262   2.7441   2.7575   2.8029   2.8729   2.8779
     2.9102   2.9335   2.9591   2.9676   2.9929   3.0152   3.0305   3.0700
     3.0752   3.1350   3.2208   3.2263   3.2336   3.2501   3.2861   3.3640
     3.3975   3.4578   3.5984   3.9007   3.9153   3.9399   3.9521   4.1111
     4.2327   4.3283   4.4974   5.1969   5.2306   5.2862   5.3430   5.6718
     5.9115   5.9208   6.0497   6.1508   6.6545   6.7728   7.1932   7.4161
     7.4536   7.5872   7.8626   8.0345   8.3415   8.3637   8.6997   8.7715
     8.8557   9.2317   9.2759   9.3232   9.3272   9.5779   9.6154   9.7342
     9.7596   9.9602  10.0984  10.1611  10.2914  10.3322  10.4512  10.4636
    10.5785  10.6405  10.7153  10.8613  11.0338  11.3088  11.3253  11.4088

     occupation numbers 
     1.0000   1.0000   1.0000   1.0000   1.0000   1.0000   1.0000   1.0000
     1.0000   1.0000   1.0000   1.0000   1.0000   1.0000   1.0000   1.0000
     1.0000   1.0000   1.0000   1.0000   1.0000   1.0000   1.0000   1.0000
     1.0000   1.0000   1.0000   1.0000   1.0000   1.0000   1.0000   1.0000
     1.0000   1.0000   1.0000   1.0000   1.0000   1.0000   1.0000   1.0000
     1.0000   1.0000   1.0000   1.0000   1.0000   1.0000   1.0000   1.0000
     1.0000   1.0000   1.0000   1.0000   1.0000   1.0000   1.0000   1.0000
     1.0000   1.0000   1.0000   1.0000   1.0000   1.0000   1.0000   1.0000
     1.0000   1.0000   1.0000   1.0000   1.0000   1.0000   1.0000   1.0000
     1.0000   1.0000   1.0000   1.0000   1.0000   1.0000   1.0000   1.0000
     1.0000   1.0000   1.0000   1.0000   1.0000   1.0000   1.0000   1.0000
     1.0000   1.0000   1.0000   1.0000   1.0000   1.0000   1.0000   1.0000
     1.0000   1.0000   1.0000   1.0000   1.0000   1.0000   1.0000   1.0000
     1.0000   1.0000   1.0000   1.0000   1.0000   1.0000   1.0000   1.0000
     1.0000   1.0000   1.0000   1.0000   1.0000   1.0000   1.0000   1.0000
     1.0000   1.0000   1.0000   1.0000   1.0000   1.0000   1.0000   1.0000
     1.0000   1.0000   1.0000   1.0000   1.0000   1.0000   1.0000   1.0000
     1.0000   1.0000   1.0000   1.0000   1.0000   1.0000   1.0000   1.0000
     1.0000   1.0000   1.0000   1.0000   1.0000   1.0000   1.0000   1.0000
     1.0000   1.0000   1.0000   1.0000   1.0000   1.0000   1.0000   1.0000
     1.0000   1.0000   1.0000   1.0000   1.0000   1.0000   1.0000   1.0000
     1.0000   1.0000   1.0000   1.0000   1.0000   1.0000   1.0000   1.0000
     1.0000   1.0000   1.0000   1.0000   1.0000   1.0000   1.0000   1.0000
     1.0000   1.0000   1.0000   1.0000   1.0000   1.0000   1.0000   1.0000
     1.0000   1.0000   1.0000   1.0000   1.0000   1.0000   1.0000   1.0000
     1.0000   1.0000   1.0000   1.0000   1.0000   1.0000   1.0000   1.0000
     1.0000   1.0000   1.0000   1.0000   1.0000   1.0000   1.0000   1.0000
     1.0000   1.0000   1.0000   1.0000   1.0000   1.0000   1.0000   1.0000
     1.0000   1.0000   1.0000   1.0000   1.0000   1.0000   1.0000   1.0000
     1.0000   1.0000   1.0000   1.0000   1.0000   1.0000   1.0000   1.0000
     1.0000   1.0000   1.0000   1.0000   1.0000   1.0000   1.0000   1.0000
     1.0000   1.0000   1.0000   1.0000   1.0000   1.0000   1.0000   1.0000
     1.0000   1.0000   1.0000   1.0000   1.0000   1.0000   1.0000   1.0000
     1.0000   1.0000   1.0000   1.0000   1.0000   1.0000   1.0000   1.0000
     1.0000   1.0000   1.0000   1.0000   1.0000   1.0000   1.0000   1.0000
     1.0000   1.0000   1.0000   1.0000   1.0000   1.0000   1.0000   1.0000
     1.0000   1.0000   1.0000   1.0000   1.0000   1.0000   1.0000   1.0000
     1.0000   1.0000   1.0000   1.0000   1.0000   1.0000   1.0000   1.0000
     1.0000   1.0000   1.0000   1.0000   1.0000   1.0000   0.9999   0.9999
     0.9997   0.9997   0.9986   0.9980   0.9974   0.9935   0.9743   0.9717
     0.9474   0.9186   0.8712   0.8509   0.7748   0.6878   0.6189   0.4240
     0.3987   0.1672   0.0348   0.0313   0.0272   0.0197   0.0097   0.0021
     0.0011   0.0003   0.0000   0.0000   0.0000   0.0000   0.0000   0.0000
     0.0000   0.0000   0.0000   0.0000   0.0000   0.0000   0.0000   0.0000
     0.0000   0.0000   0.0000   0.0000   0.0000   0.0000   0.0000   0.0000
     0.0000   0.0000   0.0000   0.0000   0.0000   0.0000   0.0000   0.0000
     0.0000   0.0000   0.0000   0.0000   0.0000   0.0000   0.0000   0.0000
     0.0000   0.0000   0.0000   0.0000   0.0000   0.0000   0.0000   0.0000
     0.0000   0.0000   0.0000   0.0000   0.0000   0.0000   0.0000   0.0000

          k = 0.3333-0.7698 0.0000 ( 88140 PWs)   bands (ev):

   -95.4143 -95.4076 -95.4066 -95.4025 -95.3872 -95.3855 -95.3845 -95.3810
   -95.3791 -95.3780 -95.3771 -95.3763 -95.3744 -95.3727 -95.3694 -95.3692
   -95.3686 -95.2188 -95.1920 -95.1892 -95.1884 -95.0149 -95.0091 -95.0081
   -94.9520 -94.9479 -94.9452 -94.9396 -94.9389 -94.9362 -94.9328 -94.9312
   -94.9307 -94.9300 -94.9238 -94.9221 -49.7151 -49.7052 -49.6976 -49.6884
   -49.6776 -49.6708 -49.6639 -49.6561 -49.6505 -49.6465 -49.6439 -49.6401
   -49.6301 -49.6194 -49.6140 -49.5751 -49.5708 -49.5610 -49.5533 -49.5484
   -49.5459 -49.5412 -49.5342 -49.5277 -49.5224 -49.5212 -49.5158 -49.5109
   -49.5078 -49.5000 -49.4952 -49.4916 -49.4895 -49.4843 -49.4789 -49.4764
   -49.4744 -49.4730 -49.4700 -49.4678 -49.4615 -49.4577 -49.4547 -49.4510
   -49.4483 -49.4467 -49.4412 -49.4381 -49.4351 -49.4287 -49.4243 -49.4167
   -49.4053 -49.3963 -49.3761 -49.3657 -49.3500 -49.3437 -49.3393 -49.3310
   -49.3180 -49.3060 -49.2993 -49.2944 -49.2810 -49.2746 -49.2681 -49.2612
   -49.2411 -49.2400 -49.2187 -49.2106 -49.1980 -49.1726 -49.1650 -49.1601
   -49.1575 -49.1394 -49.1367 -49.1363 -49.1314 -49.1213 -49.1197 -49.1183
   -49.1176 -49.1123 -49.0989 -49.0968 -49.0915 -49.0804 -49.0784 -49.0664
   -49.0542 -48.9227 -48.9139 -48.9125 -48.8819 -48.8770 -48.8723 -48.8652
   -48.8627 -48.8604 -48.8567 -48.8564 -48.8541 -48.8532 -48.8446 -48.8429
   -14.2003  -5.3778  -4.8400  -4.3439  -4.1100  -3.6386  -3.2757  -3.2381
    -3.2125  -3.1033  -3.0686  -3.0262  -2.9662  -2.8932  -2.8788  -2.7634
    -2.6920  -2.6820  -2.6357  -2.5987  -2.5482  -2.5318  -2.5149  -2.4974
    -2.4530  -2.3864  -2.3514  -2.3166  -2.2832  -2.2410  -2.1601  -2.1198
    -2.0922  -2.0738  -2.0207  -1.9961  -1.9123  -1.8504  -1.7995  -1.7271
    -1.6060  -1.5614  -1.5308  -1.4559  -1.4467  -1.4309  -1.4162  -1.3420
    -1.3198  -1.2999  -1.2331  -1.2082  -1.1282  -1.1131  -1.0905  -1.0650
    -1.0122  -0.9811  -0.9714  -0.9385  -0.9020  -0.8295  -0.7936  -0.7816
    -0.7608  -0.7233  -0.6844  -0.6414  -0.5717  -0.5392  -0.5026  -0.4769
    -0.4550  -0.4192  -0.4129  -0.3941  -0.3569  -0.3407  -0.2969  -0.2466
    -0.2295  -0.1957  -0.1628  -0.1473  -0.1330  -0.0870  -0.0722  -0.0422
    -0.0207   0.0212   0.0575   0.0803   0.0943   0.1123   0.1689   0.1845
     0.2079   0.2142   0.2331   0.2499   0.2685   0.2802   0.3108   0.3229
     0.3639   0.3976   0.4291   0.4541   0.4842   0.5421   0.5754   0.5887
     0.6458   0.7051   0.7260   0.8112   0.8587   0.9379   0.9489   0.9806
     1.0160   1.0289   1.0370   1.0717   1.0905   1.1425   1.1793   1.1985
     1.2208   1.2531   1.2860   1.3274   1.3487   1.3715   1.4204   1.4725
     1.5814   1.6061   1.6278   1.6706   1.7093   1.7317   1.7584   1.7667
     1.7892   1.8183   1.8363   1.8792   1.9492   1.9708   1.9934   2.0127
     2.0260   2.0458   2.1202   2.1601   2.2121   2.2608   2.3068   2.3780
     2.3861   2.4533   2.4962   2.5110   2.5704   2.6065   2.6406   2.7017
     2.7436   2.7768   2.7947   2.8216   2.8331   2.8508   2.9096   2.9378
     2.9557   2.9793   3.0056   3.0214   3.0452   3.0703   3.1306   3.1469
     3.1959   3.2175   3.2645   3.2705   3.3131   3.3270   3.3502   3.3744
     3.4067   3.5112   3.6793   4.0678   4.3363   4.3874   4.4558   4.6185
     4.7858   4.9693   5.0370   5.2841   5.3500   5.4126   5.4695   5.5924
     5.8526   5.9037   6.0781   6.3249   6.5072   6.6521   6.7184   6.8320
     7.0681   7.3324   7.5019   7.6745   7.7623   7.9479   8.5487   8.7511
     8.8084   8.8532   9.0939   9.2896   9.4053   9.4329   9.6691   9.7228
     9.8061   9.8761  10.0391  10.1332  10.2512  10.2764  10.3711  10.5825
    10.6664  10.8090  11.0083  11.0513  11.1190  11.1808  11.2390  11.2768

     occupation numbers 
     1.0000   1.0000   1.0000   1.0000   1.0000   1.0000   1.0000   1.0000
     1.0000   1.0000   1.0000   1.0000   1.0000   1.0000   1.0000   1.0000
     1.0000   1.0000   1.0000   1.0000   1.0000   1.0000   1.0000   1.0000
     1.0000   1.0000   1.0000   1.0000   1.0000   1.0000   1.0000   1.0000
     1.0000   1.0000   1.0000   1.0000   1.0000   1.0000   1.0000   1.0000
     1.0000   1.0000   1.0000   1.0000   1.0000   1.0000   1.0000   1.0000
     1.0000   1.0000   1.0000   1.0000   1.0000   1.0000   1.0000   1.0000
     1.0000   1.0000   1.0000   1.0000   1.0000   1.0000   1.0000   1.0000
     1.0000   1.0000   1.0000   1.0000   1.0000   1.0000   1.0000   1.0000
     1.0000   1.0000   1.0000   1.0000   1.0000   1.0000   1.0000   1.0000
     1.0000   1.0000   1.0000   1.0000   1.0000   1.0000   1.0000   1.0000
     1.0000   1.0000   1.0000   1.0000   1.0000   1.0000   1.0000   1.0000
     1.0000   1.0000   1.0000   1.0000   1.0000   1.0000   1.0000   1.0000
     1.0000   1.0000   1.0000   1.0000   1.0000   1.0000   1.0000   1.0000
     1.0000   1.0000   1.0000   1.0000   1.0000   1.0000   1.0000   1.0000
     1.0000   1.0000   1.0000   1.0000   1.0000   1.0000   1.0000   1.0000
     1.0000   1.0000   1.0000   1.0000   1.0000   1.0000   1.0000   1.0000
     1.0000   1.0000   1.0000   1.0000   1.0000   1.0000   1.0000   1.0000
     1.0000   1.0000   1.0000   1.0000   1.0000   1.0000   1.0000   1.0000
     1.0000   1.0000   1.0000   1.0000   1.0000   1.0000   1.0000   1.0000
     1.0000   1.0000   1.0000   1.0000   1.0000   1.0000   1.0000   1.0000
     1.0000   1.0000   1.0000   1.0000   1.0000   1.0000   1.0000   1.0000
     1.0000   1.0000   1.0000   1.0000   1.0000   1.0000   1.0000   1.0000
     1.0000   1.0000   1.0000   1.0000   1.0000   1.0000   1.0000   1.0000
     1.0000   1.0000   1.0000   1.0000   1.0000   1.0000   1.0000   1.0000
     1.0000   1.0000   1.0000   1.0000   1.0000   1.0000   1.0000   1.0000
     1.0000   1.0000   1.0000   1.0000   1.0000   1.0000   1.0000   1.0000
     1.0000   1.0000   1.0000   1.0000   1.0000   1.0000   1.0000   1.0000
     1.0000   1.0000   1.0000   1.0000   1.0000   1.0000   1.0000   1.0000
     1.0000   1.0000   1.0000   1.0000   1.0000   1.0000   1.0000   1.0000
     1.0000   1.0000   1.0000   1.0000   1.0000   1.0000   1.0000   1.0000
     1.0000   1.0000   1.0000   1.0000   1.0000   1.0000   1.0000   1.0000
     1.0000   1.0000   1.0000   1.0000   1.0000   1.0000   1.0000   1.0000
     1.0000   1.0000   1.0000   1.0000   1.0000   1.0000   1.0000   1.0000
     1.0000   1.0000   1.0000   1.0000   1.0000   1.0000   1.0000   1.0000
     1.0000   1.0000   1.0000   1.0000   1.0000   1.0000   1.0000   1.0000
     1.0000   1.0000   1.0000   1.0000   1.0000   1.0000   1.0000   1.0000
     1.0000   1.0000   1.0000   1.0000   1.0000   1.0000   1.0000   1.0000
     1.0000   1.0000   1.0000   1.0000   0.9999   0.9999   0.9997   0.9991
     0.9980   0.9962   0.9945   0.9906   0.9882   0.9833   0.9480   0.9120
     0.8787   0.8188   0.7274   0.6604   0.5474   0.4224   0.1798   0.1365
     0.0561   0.0371   0.0148   0.0132   0.0057   0.0043   0.0027   0.0017
     0.0009   0.0001   0.0000   0.0000   0.0000   0.0000   0.0000   0.0000
     0.0000   0.0000   0.0000   0.0000   0.0000   0.0000   0.0000   0.0000
     0.0000   0.0000   0.0000   0.0000   0.0000   0.0000   0.0000   0.0000
     0.0000   0.0000   0.0000   0.0000   0.0000   0.0000   0.0000   0.0000
     0.0000   0.0000   0.0000   0.0000   0.0000   0.0000   0.0000   0.0000
     0.0000   0.0000   0.0000   0.0000   0.0000   0.0000   0.0000   0.0000
     0.0000   0.0000   0.0000   0.0000   0.0000   0.0000   0.0000   0.0000

          k = 0.3333-0.5774 0.0000 ( 88062 PWs)   bands (ev):

   -95.4142 -95.4075 -95.4068 -95.4024 -95.3869 -95.3860 -95.3847 -95.3805
   -95.3786 -95.3783 -95.3771 -95.3765 -95.3748 -95.3724 -95.3692 -95.3691
   -95.3687 -95.2188 -95.1920 -95.1892 -95.1884 -95.0149 -95.0091 -95.0082
   -94.9515 -94.9481 -94.9458 -94.9393 -94.9388 -94.9363 -94.9327 -94.9312
   -94.9308 -94.9300 -94.9238 -94.9221 -49.7122 -49.7099 -49.7087 -49.6874
   -49.6815 -49.6810 -49.6589 -49.6492 -49.6464 -49.6452 -49.6427 -49.6414
   -49.6312 -49.6227 -49.6221 -49.5744 -49.5734 -49.5553 -49.5526 -49.5456
   -49.5365 -49.5343 -49.5280 -49.5252 -49.5190 -49.5155 -49.5120 -49.5062
   -49.5031 -49.4975 -49.4935 -49.4913 -49.4903 -49.4861 -49.4829 -49.4778
   -49.4741 -49.4734 -49.4713 -49.4671 -49.4637 -49.4630 -49.4567 -49.4559
   -49.4504 -49.4467 -49.4416 -49.4415 -49.4392 -49.4302 -49.4232 -49.4103
   -49.4093 -49.4029 -49.3783 -49.3634 -49.3464 -49.3460 -49.3454 -49.3326
   -49.3151 -49.3117 -49.3106 -49.2944 -49.2818 -49.2621 -49.2604 -49.2595
   -49.2594 -49.2342 -49.2141 -49.2120 -49.1903 -49.1622 -49.1452 -49.1444
   -49.1436 -49.1422 -49.1355 -49.1336 -49.1331 -49.1326 -49.1297 -49.1289
   -49.1225 -49.1173 -49.1156 -49.0984 -49.0859 -49.0857 -49.0674 -49.0661
   -49.0644 -48.9226 -48.9139 -48.9126 -48.8805 -48.8776 -48.8741 -48.8641
   -48.8624 -48.8607 -48.8567 -48.8562 -48.8546 -48.8531 -48.8446 -48.8430
   -14.2002  -4.9505  -4.9312  -4.8719  -3.7455  -3.7086  -3.6282  -3.0810
    -3.0673  -3.0578  -2.9441  -2.9299  -2.9075  -2.7862  -2.7543  -2.7147
    -2.6735  -2.6230  -2.5969  -2.5897  -2.5883  -2.5730  -2.5724  -2.5537
    -2.5436  -2.4727  -2.4195  -2.4157  -2.2694  -2.2260  -2.2153  -2.1569
    -2.1419  -2.1372  -2.0927  -2.0763  -2.0362  -1.6496  -1.6477  -1.6439
    -1.6068  -1.5644  -1.5557  -1.5474  -1.5371  -1.5143  -1.2325  -1.2288
    -1.1849  -1.1623  -1.1603  -1.1436  -1.1056  -1.0995  -1.0840  -1.0694
    -1.0402  -0.9965  -0.9889  -0.9678  -0.9620  -0.9208  -0.9122  -0.8791
    -0.7348  -0.7002  -0.6924  -0.6615  -0.6068  -0.5933  -0.5734  -0.5267
    -0.5167  -0.4592  -0.4504  -0.4185  -0.3614  -0.3458  -0.2652  -0.2620
    -0.2542  -0.2153  -0.1794  -0.1785  -0.1304  -0.1078  -0.0975  -0.0845
    -0.0768  -0.0712  -0.0679  -0.0537   0.0413   0.0764   0.1418   0.1840
     0.2028   0.2681   0.2791   0.2989   0.3054   0.3176   0.3218   0.3413
     0.3617   0.3649   0.3842   0.4239   0.4262   0.5230   0.5344   0.5393
     0.5774   0.6824   0.8725   0.8817   0.9039   0.9175   0.9503   0.9736
     0.9870   0.9974   1.0079   1.0131   1.0446   1.0564   1.1345   1.2004
     1.2136   1.2275   1.2534   1.3220   1.3388   1.4041   1.4340   1.4438
     1.5256   1.5302   1.6350   1.7200   1.7284   1.7376   1.7912   1.7931
     1.7961   1.8374   1.8506   1.8736   1.8972   1.9314   1.9325   2.0265
     2.0508   2.0635   2.1316   2.1498   2.2011   2.2021   2.2221   2.2368
     2.3889   2.3967   2.6219   2.6228   2.6552   2.6565   2.7022   2.7445
     2.7860   2.8084   2.8250   2.8562   2.8777   2.9125   2.9545   2.9636
     2.9859   3.0143   3.0312   3.0481   3.0541   3.0570   3.1027   3.1527
     3.2158   3.2181   3.2321   3.2633   3.2768   3.3006   3.3456   3.3739
     3.5777   4.1099   4.1128   4.1185   4.3844   4.4037   4.4248   4.8627
     4.9257   5.0257   5.3791   5.3805   5.3940   5.4810   5.4942   5.6795
     6.1982   6.2070   6.2785   6.5941   6.6043   6.6553   6.6920   6.7080
     6.7793   6.8373   6.8666   7.1772   7.4754   7.5333   7.6798   8.7515
     8.8167   8.8226   9.0085   9.1135   9.1494   9.6601   9.6708   9.7750
     9.8381   9.8572   9.8682  10.5496  10.5742  10.5780  10.5938  10.6088
    10.6830  10.9610  10.9987  11.0249  11.1625  11.1636  11.2323  11.2462

     occupation numbers 
     1.0000   1.0000   1.0000   1.0000   1.0000   1.0000   1.0000   1.0000
     1.0000   1.0000   1.0000   1.0000   1.0000   1.0000   1.0000   1.0000
     1.0000   1.0000   1.0000   1.0000   1.0000   1.0000   1.0000   1.0000
     1.0000   1.0000   1.0000   1.0000   1.0000   1.0000   1.0000   1.0000
     1.0000   1.0000   1.0000   1.0000   1.0000   1.0000   1.0000   1.0000
     1.0000   1.0000   1.0000   1.0000   1.0000   1.0000   1.0000   1.0000
     1.0000   1.0000   1.0000   1.0000   1.0000   1.0000   1.0000   1.0000
     1.0000   1.0000   1.0000   1.0000   1.0000   1.0000   1.0000   1.0000
     1.0000   1.0000   1.0000   1.0000   1.0000   1.0000   1.0000   1.0000
     1.0000   1.0000   1.0000   1.0000   1.0000   1.0000   1.0000   1.0000
     1.0000   1.0000   1.0000   1.0000   1.0000   1.0000   1.0000   1.0000
     1.0000   1.0000   1.0000   1.0000   1.0000   1.0000   1.0000   1.0000
     1.0000   1.0000   1.0000   1.0000   1.0000   1.0000   1.0000   1.0000
     1.0000   1.0000   1.0000   1.0000   1.0000   1.0000   1.0000   1.0000
     1.0000   1.0000   1.0000   1.0000   1.0000   1.0000   1.0000   1.0000
     1.0000   1.0000   1.0000   1.0000   1.0000   1.0000   1.0000   1.0000
     1.0000   1.0000   1.0000   1.0000   1.0000   1.0000   1.0000   1.0000
     1.0000   1.0000   1.0000   1.0000   1.0000   1.0000   1.0000   1.0000
     1.0000   1.0000   1.0000   1.0000   1.0000   1.0000   1.0000   1.0000
     1.0000   1.0000   1.0000   1.0000   1.0000   1.0000   1.0000   1.0000
     1.0000   1.0000   1.0000   1.0000   1.0000   1.0000   1.0000   1.0000
     1.0000   1.0000   1.0000   1.0000   1.0000   1.0000   1.0000   1.0000
     1.0000   1.0000   1.0000   1.0000   1.0000   1.0000   1.0000   1.0000
     1.0000   1.0000   1.0000   1.0000   1.0000   1.0000   1.0000   1.0000
     1.0000   1.0000   1.0000   1.0000   1.0000   1.0000   1.0000   1.0000
     1.0000   1.0000   1.0000   1.0000   1.0000   1.0000   1.0000   1.0000
     1.0000   1.0000   1.0000   1.0000   1.0000   1.0000   1.0000   1.0000
     1.0000   1.0000   1.0000   1.0000   1.0000   1.0000   1.0000   1.0000
     1.0000   1.0000   1.0000   1.0000   1.0000   1.0000   1.0000   1.0000
     1.0000   1.0000   1.0000   1.0000   1.0000   1.0000   1.0000   1.0000
     1.0000   1.0000   1.0000   1.0000   1.0000   1.0000   1.0000   1.0000
     1.0000   1.0000   1.0000   1.0000   1.0000   1.0000   1.0000   1.0000
     1.0000   1.0000   1.0000   1.0000   1.0000   1.0000   1.0000   1.0000
     1.0000   1.0000   1.0000   1.0000   1.0000   1.0000   1.0000   1.0000
     1.0000   1.0000   1.0000   1.0000   1.0000   1.0000   1.0000   1.0000
     1.0000   1.0000   1.0000   1.0000   1.0000   1.0000   1.0000   1.0000
     1.0000   1.0000   1.0000   1.0000   1.0000   1.0000   1.0000   1.0000
     1.0000   1.0000   1.0000   1.0000   1.0000   1.0000   1.0000   1.0000
     1.0000   1.0000   0.9998   0.9998   0.9997   0.9997   0.9991   0.9980
     0.9954   0.9928   0.9900   0.9815   0.9718   0.9450   0.8812   0.8607
     0.7983   0.6915   0.6154   0.5329   0.5030   0.4884   0.2770   0.1235
     0.0384   0.0367   0.0280   0.0152   0.0116   0.0073   0.0030   0.0017
     0.0000   0.0000   0.0000   0.0000   0.0000   0.0000   0.0000   0.0000
     0.0000   0.0000   0.0000   0.0000   0.0000   0.0000   0.0000   0.0000
     0.0000   0.0000   0.0000   0.0000   0.0000   0.0000   0.0000   0.0000
     0.0000   0.0000   0.0000   0.0000   0.0000   0.0000   0.0000   0.0000
     0.0000   0.0000   0.0000   0.0000   0.0000   0.0000   0.0000   0.0000
     0.0000   0.0000   0.0000   0.0000   0.0000   0.0000   0.0000   0.0000
     0.0000   0.0000   0.0000   0.0000   0.0000   0.0000   0.0000   0.0000

          k = 0.3333-0.3849 0.0000 ( 88140 PWs)   bands (ev):

   -95.4143 -95.4076 -95.4067 -95.4024 -95.3872 -95.3854 -95.3845 -95.3810
   -95.3791 -95.3780 -95.3771 -95.3763 -95.3743 -95.3727 -95.3694 -95.3692
   -95.3687 -95.2188 -95.1920 -95.1892 -95.1884 -95.0149 -95.0091 -95.0082
   -94.9520 -94.9478 -94.9452 -94.9396 -94.9389 -94.9362 -94.9328 -94.9312
   -94.9307 -94.9300 -94.9238 -94.9221 -49.7152 -49.7052 -49.6976 -49.6884
   -49.6776 -49.6708 -49.6639 -49.6561 -49.6505 -49.6465 -49.6439 -49.6401
   -49.6301 -49.6194 -49.6140 -49.5751 -49.5708 -49.5610 -49.5533 -49.5484
   -49.5459 -49.5412 -49.5342 -49.5277 -49.5224 -49.5212 -49.5158 -49.5109
   -49.5078 -49.5000 -49.4952 -49.4916 -49.4895 -49.4843 -49.4789 -49.4764
   -49.4744 -49.4730 -49.4700 -49.4678 -49.4615 -49.4577 -49.4547 -49.4510
   -49.4483 -49.4467 -49.4412 -49.4381 -49.4351 -49.4287 -49.4243 -49.4167
   -49.4053 -49.3963 -49.3761 -49.3657 -49.3500 -49.3437 -49.3393 -49.3310
   -49.3180 -49.3060 -49.2993 -49.2944 -49.2810 -49.2746 -49.2681 -49.2612
   -49.2411 -49.2400 -49.2187 -49.2106 -49.1980 -49.1726 -49.1650 -49.1601
   -49.1575 -49.1394 -49.1367 -49.1363 -49.1314 -49.1213 -49.1197 -49.1183
   -49.1176 -49.1124 -49.0988 -49.0969 -49.0915 -49.0804 -49.0784 -49.0664
   -49.0542 -48.9227 -48.9139 -48.9125 -48.8819 -48.8769 -48.8723 -48.8653
   -48.8627 -48.8604 -48.8567 -48.8565 -48.8541 -48.8532 -48.8446 -48.8429
   -14.2003  -5.3778  -4.8400  -4.3439  -4.1100  -3.6386  -3.2756  -3.2381
    -3.2125  -3.1033  -3.0686  -3.0262  -2.9662  -2.8932  -2.8788  -2.7634
    -2.6920  -2.6820  -2.6357  -2.5987  -2.5482  -2.5318  -2.5149  -2.4974
    -2.4530  -2.3865  -2.3514  -2.3166  -2.2832  -2.2410  -2.1601  -2.1198
    -2.0922  -2.0739  -2.0207  -1.9961  -1.9123  -1.8504  -1.7995  -1.7271
    -1.6060  -1.5614  -1.5308  -1.4559  -1.4467  -1.4309  -1.4162  -1.3420
    -1.3198  -1.2999  -1.2330  -1.2081  -1.1282  -1.1131  -1.0905  -1.0650
    -1.0122  -0.9811  -0.9714  -0.9385  -0.9020  -0.8295  -0.7936  -0.7816
    -0.7608  -0.7233  -0.6844  -0.6414  -0.5717  -0.5392  -0.5026  -0.4769
    -0.4549  -0.4192  -0.4128  -0.3941  -0.3569  -0.3407  -0.2969  -0.2466
    -0.2295  -0.1957  -0.1628  -0.1473  -0.1330  -0.0870  -0.0722  -0.0422
    -0.0207   0.0212   0.0575   0.0803   0.0943   0.1123   0.1689   0.1845
     0.2080   0.2142   0.2331   0.2499   0.2686   0.2802   0.3108   0.3229
     0.3638   0.3976   0.4291   0.4542   0.4842   0.5421   0.5754   0.5887
     0.6458   0.7052   0.7260   0.8112   0.8587   0.9379   0.9489   0.9806
     1.0160   1.0289   1.0371   1.0717   1.0905   1.1425   1.1793   1.1985
     1.2208   1.2531   1.2860   1.3274   1.3487   1.3715   1.4204   1.4725
     1.5814   1.6061   1.6278   1.6706   1.7093   1.7317   1.7584   1.7666
     1.7892   1.8183   1.8363   1.8792   1.9492   1.9708   1.9934   2.0127
     2.0259   2.0458   2.1202   2.1601   2.2121   2.2608   2.3068   2.3780
     2.3862   2.4533   2.4962   2.5110   2.5704   2.6065   2.6406   2.7017
     2.7436   2.7768   2.7947   2.8216   2.8331   2.8508   2.9096   2.9378
     2.9557   2.9793   3.0056   3.0214   3.0452   3.0703   3.1306   3.1469
     3.1959   3.2175   3.2645   3.2705   3.3131   3.3270   3.3502   3.3743
     3.4067   3.5111   3.6793   4.0678   4.3363   4.3874   4.4558   4.6185
     4.7858   4.9693   5.0371   5.2841   5.3499   5.4126   5.4695   5.5924
     5.8526   5.9037   6.0781   6.3249   6.5072   6.6521   6.7184   6.8320
     7.0682   7.3324   7.5019   7.6746   7.7623   7.9479   8.5487   8.7511
     8.8084   8.8532   9.0939   9.2896   9.4053   9.4329   9.6691   9.7228
     9.8061   9.8761  10.0390  10.1332  10.2512  10.2764  10.3711  10.5824
    10.6664  10.8090  11.0083  11.0513  11.1191  11.1809  11.2389  11.2768

     occupation numbers 
     1.0000   1.0000   1.0000   1.0000   1.0000   1.0000   1.0000   1.0000
     1.0000   1.0000   1.0000   1.0000   1.0000   1.0000   1.0000   1.0000
     1.0000   1.0000   1.0000   1.0000   1.0000   1.0000   1.0000   1.0000
     1.0000   1.0000   1.0000   1.0000   1.0000   1.0000   1.0000   1.0000
     1.0000   1.0000   1.0000   1.0000   1.0000   1.0000   1.0000   1.0000
     1.0000   1.0000   1.0000   1.0000   1.0000   1.0000   1.0000   1.0000
     1.0000   1.0000   1.0000   1.0000   1.0000   1.0000   1.0000   1.0000
     1.0000   1.0000   1.0000   1.0000   1.0000   1.0000   1.0000   1.0000
     1.0000   1.0000   1.0000   1.0000   1.0000   1.0000   1.0000   1.0000
     1.0000   1.0000   1.0000   1.0000   1.0000   1.0000   1.0000   1.0000
     1.0000   1.0000   1.0000   1.0000   1.0000   1.0000   1.0000   1.0000
     1.0000   1.0000   1.0000   1.0000   1.0000   1.0000   1.0000   1.0000
     1.0000   1.0000   1.0000   1.0000   1.0000   1.0000   1.0000   1.0000
     1.0000   1.0000   1.0000   1.0000   1.0000   1.0000   1.0000   1.0000
     1.0000   1.0000   1.0000   1.0000   1.0000   1.0000   1.0000   1.0000
     1.0000   1.0000   1.0000   1.0000   1.0000   1.0000   1.0000   1.0000
     1.0000   1.0000   1.0000   1.0000   1.0000   1.0000   1.0000   1.0000
     1.0000   1.0000   1.0000   1.0000   1.0000   1.0000   1.0000   1.0000
     1.0000   1.0000   1.0000   1.0000   1.0000   1.0000   1.0000   1.0000
     1.0000   1.0000   1.0000   1.0000   1.0000   1.0000   1.0000   1.0000
     1.0000   1.0000   1.0000   1.0000   1.0000   1.0000   1.0000   1.0000
     1.0000   1.0000   1.0000   1.0000   1.0000   1.0000   1.0000   1.0000
     1.0000   1.0000   1.0000   1.0000   1.0000   1.0000   1.0000   1.0000
     1.0000   1.0000   1.0000   1.0000   1.0000   1.0000   1.0000   1.0000
     1.0000   1.0000   1.0000   1.0000   1.0000   1.0000   1.0000   1.0000
     1.0000   1.0000   1.0000   1.0000   1.0000   1.0000   1.0000   1.0000
     1.0000   1.0000   1.0000   1.0000   1.0000   1.0000   1.0000   1.0000
     1.0000   1.0000   1.0000   1.0000   1.0000   1.0000   1.0000   1.0000
     1.0000   1.0000   1.0000   1.0000   1.0000   1.0000   1.0000   1.0000
     1.0000   1.0000   1.0000   1.0000   1.0000   1.0000   1.0000   1.0000
     1.0000   1.0000   1.0000   1.0000   1.0000   1.0000   1.0000   1.0000
     1.0000   1.0000   1.0000   1.0000   1.0000   1.0000   1.0000   1.0000
     1.0000   1.0000   1.0000   1.0000   1.0000   1.0000   1.0000   1.0000
     1.0000   1.0000   1.0000   1.0000   1.0000   1.0000   1.0000   1.0000
     1.0000   1.0000   1.0000   1.0000   1.0000   1.0000   1.0000   1.0000
     1.0000   1.0000   1.0000   1.0000   1.0000   1.0000   1.0000   1.0000
     1.0000   1.0000   1.0000   1.0000   1.0000   1.0000   1.0000   1.0000
     1.0000   1.0000   1.0000   1.0000   1.0000   1.0000   1.0000   1.0000
     1.0000   1.0000   1.0000   1.0000   0.9999   0.9999   0.9997   0.9991
     0.9980   0.9962   0.9945   0.9906   0.9882   0.9833   0.9480   0.9120
     0.8787   0.8188   0.7274   0.6604   0.5473   0.4223   0.1798   0.1365
     0.0560   0.0371   0.0148   0.0132   0.0057   0.0043   0.0027   0.0017
     0.0009   0.0001   0.0000   0.0000   0.0000   0.0000   0.0000   0.0000
     0.0000   0.0000   0.0000   0.0000   0.0000   0.0000   0.0000   0.0000
     0.0000   0.0000   0.0000   0.0000   0.0000   0.0000   0.0000   0.0000
     0.0000   0.0000   0.0000   0.0000   0.0000   0.0000   0.0000   0.0000
     0.0000   0.0000   0.0000   0.0000   0.0000   0.0000   0.0000   0.0000
     0.0000   0.0000   0.0000   0.0000   0.0000   0.0000   0.0000   0.0000
     0.0000   0.0000   0.0000   0.0000   0.0000   0.0000   0.0000   0.0000

          k =-0.5000 0.2887 0.0000 ( 88178 PWs)   bands (ev):

   -95.4143 -95.4077 -95.4065 -95.4025 -95.3873 -95.3854 -95.3842 -95.3815
   -95.3787 -95.3776 -95.3775 -95.3766 -95.3739 -95.3729 -95.3694 -95.3693
   -95.3686 -95.2188 -95.1920 -95.1892 -95.1884 -95.0149 -95.0091 -95.0081
   -94.9519 -94.9482 -94.9448 -94.9399 -94.9389 -94.9361 -94.9328 -94.9312
   -94.9305 -94.9302 -94.9238 -94.9221 -49.7196 -49.7009 -49.6910 -49.6867
   -49.6748 -49.6719 -49.6672 -49.6621 -49.6532 -49.6509 -49.6493 -49.6439
   -49.6257 -49.6168 -49.5909 -49.5852 -49.5684 -49.5620 -49.5548 -49.5506
   -49.5421 -49.5393 -49.5378 -49.5297 -49.5286 -49.5236 -49.5177 -49.5146
   -49.5047 -49.5019 -49.4968 -49.4897 -49.4828 -49.4825 -49.4817 -49.4749
   -49.4736 -49.4705 -49.4703 -49.4607 -49.4590 -49.4576 -49.4542 -49.4513
   -49.4496 -49.4463 -49.4443 -49.4368 -49.4350 -49.4290 -49.4278 -49.4243
   -49.4029 -49.3930 -49.3739 -49.3702 -49.3530 -49.3392 -49.3363 -49.3336
   -49.3222 -49.2963 -49.2905 -49.2895 -49.2871 -49.2861 -49.2786 -49.2617
   -49.2461 -49.2190 -49.2104 -49.2073 -49.2069 -49.1925 -49.1644 -49.1525
   -49.1514 -49.1482 -49.1480 -49.1333 -49.1204 -49.1196 -49.1149 -49.1128
   -49.1127 -49.1111 -49.0991 -49.0981 -49.0980 -49.0963 -49.0762 -49.0593
   -49.0558 -48.9226 -48.9140 -48.9124 -48.8816 -48.8780 -48.8704 -48.8671
   -48.8624 -48.8600 -48.8567 -48.8564 -48.8539 -48.8535 -48.8446 -48.8429
   -14.2003  -5.2185  -5.1693  -3.9836  -3.9176  -3.7685  -3.7501  -3.3454
    -3.1798  -2.9290  -2.8888  -2.8643  -2.8271  -2.8097  -2.7984  -2.7902
    -2.7795  -2.7664  -2.7639  -2.7094  -2.6531  -2.6254  -2.6076  -2.5874
    -2.5228  -2.4452  -2.2623  -2.2609  -2.2276  -2.2237  -2.0571  -2.0267
    -1.9852  -1.9753  -1.9451  -1.9351  -1.8439  -1.8412  -1.7275  -1.7233
    -1.6945  -1.6633  -1.6326  -1.5449  -1.5314  -1.4309  -1.4126  -1.3884
    -1.3754  -1.3093  -1.2896  -1.1847  -1.1435  -1.1406  -1.1246  -1.0352
    -1.0256  -1.0203  -1.0076  -0.8754  -0.8576  -0.8321  -0.8293  -0.8054
    -0.7897  -0.7142  -0.6342  -0.6329  -0.5560  -0.5360  -0.5225  -0.4983
    -0.4862  -0.4763  -0.4585  -0.3802  -0.3016  -0.2818  -0.2348  -0.2287
    -0.1967  -0.1948  -0.1733  -0.1648  -0.1474  -0.1416  -0.0708  -0.0573
    -0.0346  -0.0207   0.0001   0.0041   0.0495   0.0702   0.1418   0.1865
     0.1941   0.2751   0.2812   0.2858   0.2913   0.3122   0.3509   0.3633
     0.4570   0.4619   0.5077   0.5232   0.5473   0.6244   0.6623   0.7396
     0.7603   0.8107   0.8413   0.8847   0.9102   0.9189   0.9478   0.9640
     0.9844   0.9951   0.9963   1.0288   1.0424   1.1017   1.1101   1.1368
     1.1460   1.1789   1.1882   1.2521   1.2645   1.2768   1.3433   1.4394
     1.4471   1.5698   1.5916   1.6906   1.7099   1.7451   1.7664   1.8394
     1.8472   1.9094   1.9243   1.9865   2.0179   2.0372   2.0509   2.0623
     2.0753   2.1116   2.1595   2.1879   2.2249   2.2452   2.2625   2.2711
     2.3377   2.3748   2.4305   2.5121   2.5411   2.5725   2.5871   2.6530
     2.6669   2.7129   2.7556   2.7612   2.8019   2.8094   2.8360   2.8465
     2.8602   2.9725   3.0290   3.0426   3.0453   3.0541   3.0763   3.1024
     3.1424   3.1890   3.3073   3.3109   3.3230   3.3435   3.3729   3.4100
     3.5095   3.5749   3.9053   3.9554   4.2027   4.5926   4.7260   4.9027
     4.9211   4.9217   4.9554   5.3614   5.4047   5.4139   5.4582   5.6285
     5.7379   5.9620   6.0180   6.1135   6.3439   6.4300   6.4529   6.5485
     6.6080   6.9958   8.3842   8.4531   8.4848   8.5376   8.7311   8.7919
     8.8591   8.9463   8.9608   8.9921   9.0294   9.0859   9.4808   9.6115
     9.6198   9.9044   9.9124  10.0219  10.0651  10.3999  10.4064  10.5461
    10.6270  10.7959  10.9325  10.9753  11.0023  11.0155  11.1132  11.1380

     occupation numbers 
     1.0000   1.0000   1.0000   1.0000   1.0000   1.0000   1.0000   1.0000
     1.0000   1.0000   1.0000   1.0000   1.0000   1.0000   1.0000   1.0000
     1.0000   1.0000   1.0000   1.0000   1.0000   1.0000   1.0000   1.0000
     1.0000   1.0000   1.0000   1.0000   1.0000   1.0000   1.0000   1.0000
     1.0000   1.0000   1.0000   1.0000   1.0000   1.0000   1.0000   1.0000
     1.0000   1.0000   1.0000   1.0000   1.0000   1.0000   1.0000   1.0000
     1.0000   1.0000   1.0000   1.0000   1.0000   1.0000   1.0000   1.0000
     1.0000   1.0000   1.0000   1.0000   1.0000   1.0000   1.0000   1.0000
     1.0000   1.0000   1.0000   1.0000   1.0000   1.0000   1.0000   1.0000
     1.0000   1.0000   1.0000   1.0000   1.0000   1.0000   1.0000   1.0000
     1.0000   1.0000   1.0000   1.0000   1.0000   1.0000   1.0000   1.0000
     1.0000   1.0000   1.0000   1.0000   1.0000   1.0000   1.0000   1.0000
     1.0000   1.0000   1.0000   1.0000   1.0000   1.0000   1.0000   1.0000
     1.0000   1.0000   1.0000   1.0000   1.0000   1.0000   1.0000   1.0000
     1.0000   1.0000   1.0000   1.0000   1.0000   1.0000   1.0000   1.0000
     1.0000   1.0000   1.0000   1.0000   1.0000   1.0000   1.0000   1.0000
     1.0000   1.0000   1.0000   1.0000   1.0000   1.0000   1.0000   1.0000
     1.0000   1.0000   1.0000   1.0000   1.0000   1.0000   1.0000   1.0000
     1.0000   1.0000   1.0000   1.0000   1.0000   1.0000   1.0000   1.0000
     1.0000   1.0000   1.0000   1.0000   1.0000   1.0000   1.0000   1.0000
     1.0000   1.0000   1.0000   1.0000   1.0000   1.0000   1.0000   1.0000
     1.0000   1.0000   1.0000   1.0000   1.0000   1.0000   1.0000   1.0000
     1.0000   1.0000   1.0000   1.0000   1.0000   1.0000   1.0000   1.0000
     1.0000   1.0000   1.0000   1.0000   1.0000   1.0000   1.0000   1.0000
     1.0000   1.0000   1.0000   1.0000   1.0000   1.0000   1.0000   1.0000
     1.0000   1.0000   1.0000   1.0000   1.0000   1.0000   1.0000   1.0000
     1.0000   1.0000   1.0000   1.0000   1.0000   1.0000   1.0000   1.0000
     1.0000   1.0000   1.0000   1.0000   1.0000   1.0000   1.0000   1.0000
     1.0000   1.0000   1.0000   1.0000   1.0000   1.0000   1.0000   1.0000
     1.0000   1.0000   1.0000   1.0000   1.0000   1.0000   1.0000   1.0000
     1.0000   1.0000   1.0000   1.0000   1.0000   1.0000   1.0000   1.0000
     1.0000   1.0000   1.0000   1.0000   1.0000   1.0000   1.0000   1.0000
     1.0000   1.0000   1.0000   1.0000   1.0000   1.0000   1.0000   1.0000
     1.0000   1.0000   1.0000   1.0000   1.0000   1.0000   1.0000   1.0000
     1.0000   1.0000   1.0000   1.0000   1.0000   1.0000   1.0000   1.0000
     1.0000   1.0000   1.0000   1.0000   1.0000   1.0000   1.0000   1.0000
     1.0000   1.0000   1.0000   1.0000   1.0000   1.0000   1.0000   1.0000
     1.0000   1.0000   1.0000   1.0000   1.0000   1.0000   1.0000   1.0000
     1.0000   1.0000   1.0000   1.0000   1.0000   0.9999   0.9999   0.9997
     0.9996   0.9989   0.9975   0.9972   0.9937   0.9926   0.9875   0.9847
     0.9799   0.8380   0.6256   0.5601   0.5466   0.5027   0.3934   0.2779
     0.1474   0.0638   0.0064   0.0059   0.0047   0.0031   0.0017   0.0008
     0.0001   0.0000   0.0000   0.0000   0.0000   0.0000   0.0000   0.0000
     0.0000   0.0000   0.0000   0.0000   0.0000   0.0000   0.0000   0.0000
     0.0000   0.0000   0.0000   0.0000   0.0000   0.0000   0.0000   0.0000
     0.0000   0.0000   0.0000   0.0000   0.0000   0.0000   0.0000   0.0000
     0.0000   0.0000   0.0000   0.0000   0.0000   0.0000   0.0000   0.0000
     0.0000   0.0000   0.0000   0.0000   0.0000   0.0000   0.0000   0.0000
     0.0000   0.0000   0.0000   0.0000   0.0000   0.0000   0.0000   0.0000

          k =-0.5000 0.4811 0.0000 ( 88140 PWs)   bands (ev):

   -95.4143 -95.4077 -95.4066 -95.4025 -95.3872 -95.3855 -95.3845 -95.3809
   -95.3792 -95.3781 -95.3769 -95.3764 -95.3744 -95.3726 -95.3694 -95.3692
   -95.3686 -95.2188 -95.1920 -95.1892 -95.1884 -95.0149 -95.0091 -95.0081
   -94.9520 -94.9478 -94.9453 -94.9396 -94.9389 -94.9363 -94.9328 -94.9312
   -94.9306 -94.9301 -94.9238 -94.9221 -49.7151 -49.7041 -49.6984 -49.6885
   -49.6776 -49.6709 -49.6638 -49.6559 -49.6508 -49.6464 -49.6439 -49.6401
   -49.6303 -49.6197 -49.6139 -49.5752 -49.5712 -49.5610 -49.5533 -49.5482
   -49.5455 -49.5410 -49.5344 -49.5278 -49.5223 -49.5213 -49.5158 -49.5107
   -49.5083 -49.5001 -49.4949 -49.4918 -49.4895 -49.4841 -49.4790 -49.4764
   -49.4741 -49.4729 -49.4700 -49.4681 -49.4611 -49.4575 -49.4547 -49.4511
   -49.4479 -49.4469 -49.4409 -49.4381 -49.4352 -49.4288 -49.4243 -49.4170
   -49.4052 -49.3966 -49.3761 -49.3657 -49.3498 -49.3436 -49.3395 -49.3311
   -49.3180 -49.3057 -49.2995 -49.2944 -49.2810 -49.2743 -49.2683 -49.2612
   -49.2412 -49.2400 -49.2186 -49.2107 -49.1981 -49.1726 -49.1652 -49.1599
   -49.1573 -49.1395 -49.1365 -49.1363 -49.1316 -49.1212 -49.1200 -49.1183
   -49.1176 -49.1121 -49.0988 -49.0967 -49.0916 -49.0805 -49.0784 -49.0663
   -49.0544 -48.9226 -48.9140 -48.9124 -48.8819 -48.8769 -48.8723 -48.8652
   -48.8627 -48.8604 -48.8567 -48.8565 -48.8541 -48.8532 -48.8446 -48.8429
   -14.2003  -5.3779  -4.8399  -4.3441  -4.1101  -3.6385  -3.2756  -3.2379
    -3.2120  -3.1034  -3.0699  -3.0265  -2.9664  -2.8925  -2.8780  -2.7627
    -2.6929  -2.6820  -2.6356  -2.5995  -2.5498  -2.5315  -2.5146  -2.4976
    -2.4528  -2.3844  -2.3513  -2.3165  -2.2838  -2.2412  -2.1594  -2.1204
    -2.0922  -2.0738  -2.0217  -1.9968  -1.9122  -1.8492  -1.7992  -1.7271
    -1.6060  -1.5611  -1.5312  -1.4560  -1.4457  -1.4304  -1.4156  -1.3408
    -1.3205  -1.2997  -1.2334  -1.2089  -1.1285  -1.1125  -1.0900  -1.0648
    -1.0134  -0.9812  -0.9709  -0.9385  -0.9015  -0.8284  -0.7927  -0.7812
    -0.7605  -0.7237  -0.6834  -0.6403  -0.5722  -0.5389  -0.5044  -0.4767
    -0.4557  -0.4189  -0.4127  -0.3943  -0.3577  -0.3408  -0.2974  -0.2477
    -0.2301  -0.1956  -0.1642  -0.1471  -0.1324  -0.0871  -0.0716  -0.0432
    -0.0205   0.0206   0.0555   0.0802   0.0946   0.1135   0.1674   0.1844
     0.2065   0.2143   0.2326   0.2508   0.2683   0.2803   0.3122   0.3261
     0.3641   0.3975   0.4289   0.4542   0.4839   0.5426   0.5750   0.5890
     0.6455   0.7040   0.7255   0.8105   0.8578   0.9374   0.9485   0.9805
     1.0170   1.0295   1.0365   1.0713   1.0905   1.1431   1.1800   1.1987
     1.2205   1.2535   1.2867   1.3271   1.3488   1.3712   1.4201   1.4721
     1.5809   1.6052   1.6280   1.6706   1.7086   1.7308   1.7580   1.7673
     1.7889   1.8185   1.8364   1.8795   1.9499   1.9707   1.9940   2.0132
     2.0266   2.0465   2.1201   2.1602   2.2120   2.2608   2.3085   2.3774
     2.3856   2.4534   2.4954   2.5108   2.5695   2.6070   2.6410   2.7019
     2.7433   2.7768   2.7950   2.8215   2.8333   2.8515   2.9096   2.9373
     2.9554   2.9791   3.0063   3.0212   3.0446   3.0693   3.1307   3.1470
     3.1954   3.2168   3.2633   3.2700   3.3132   3.3272   3.3516   3.3762
     3.4081   3.5115   3.6792   4.0677   4.3358   4.3867   4.4558   4.6182
     4.7853   4.9696   5.0380   5.2854   5.3507   5.4128   5.4702   5.5925
     5.8526   5.9036   6.0778   6.3250   6.5062   6.6518   6.7181   6.8320
     7.0682   7.3312   7.5034   7.6727   7.7634   7.9477   8.5478   8.7503
     8.8062   8.8550   9.0941   9.2887   9.4055   9.4329   9.6702   9.7233
     9.8063   9.8786  10.0426  10.1337  10.2517  10.2757  10.3697  10.5845
    10.6663  10.8091  11.0064  11.0513  11.1185  11.1799  11.2387  11.2768

     occupation numbers 
     1.0000   1.0000   1.0000   1.0000   1.0000   1.0000   1.0000   1.0000
     1.0000   1.0000   1.0000   1.0000   1.0000   1.0000   1.0000   1.0000
     1.0000   1.0000   1.0000   1.0000   1.0000   1.0000   1.0000   1.0000
     1.0000   1.0000   1.0000   1.0000   1.0000   1.0000   1.0000   1.0000
     1.0000   1.0000   1.0000   1.0000   1.0000   1.0000   1.0000   1.0000
     1.0000   1.0000   1.0000   1.0000   1.0000   1.0000   1.0000   1.0000
     1.0000   1.0000   1.0000   1.0000   1.0000   1.0000   1.0000   1.0000
     1.0000   1.0000   1.0000   1.0000   1.0000   1.0000   1.0000   1.0000
     1.0000   1.0000   1.0000   1.0000   1.0000   1.0000   1.0000   1.0000
     1.0000   1.0000   1.0000   1.0000   1.0000   1.0000   1.0000   1.0000
     1.0000   1.0000   1.0000   1.0000   1.0000   1.0000   1.0000   1.0000
     1.0000   1.0000   1.0000   1.0000   1.0000   1.0000   1.0000   1.0000
     1.0000   1.0000   1.0000   1.0000   1.0000   1.0000   1.0000   1.0000
     1.0000   1.0000   1.0000   1.0000   1.0000   1.0000   1.0000   1.0000
     1.0000   1.0000   1.0000   1.0000   1.0000   1.0000   1.0000   1.0000
     1.0000   1.0000   1.0000   1.0000   1.0000   1.0000   1.0000   1.0000
     1.0000   1.0000   1.0000   1.0000   1.0000   1.0000   1.0000   1.0000
     1.0000   1.0000   1.0000   1.0000   1.0000   1.0000   1.0000   1.0000
     1.0000   1.0000   1.0000   1.0000   1.0000   1.0000   1.0000   1.0000
     1.0000   1.0000   1.0000   1.0000   1.0000   1.0000   1.0000   1.0000
     1.0000   1.0000   1.0000   1.0000   1.0000   1.0000   1.0000   1.0000
     1.0000   1.0000   1.0000   1.0000   1.0000   1.0000   1.0000   1.0000
     1.0000   1.0000   1.0000   1.0000   1.0000   1.0000   1.0000   1.0000
     1.0000   1.0000   1.0000   1.0000   1.0000   1.0000   1.0000   1.0000
     1.0000   1.0000   1.0000   1.0000   1.0000   1.0000   1.0000   1.0000
     1.0000   1.0000   1.0000   1.0000   1.0000   1.0000   1.0000   1.0000
     1.0000   1.0000   1.0000   1.0000   1.0000   1.0000   1.0000   1.0000
     1.0000   1.0000   1.0000   1.0000   1.0000   1.0000   1.0000   1.0000
     1.0000   1.0000   1.0000   1.0000   1.0000   1.0000   1.0000   1.0000
     1.0000   1.0000   1.0000   1.0000   1.0000   1.0000   1.0000   1.0000
     1.0000   1.0000   1.0000   1.0000   1.0000   1.0000   1.0000   1.0000
     1.0000   1.0000   1.0000   1.0000   1.0000   1.0000   1.0000   1.0000
     1.0000   1.0000   1.0000   1.0000   1.0000   1.0000   1.0000   1.0000
     1.0000   1.0000   1.0000   1.0000   1.0000   1.0000   1.0000   1.0000
     1.0000   1.0000   1.0000   1.0000   1.0000   1.0000   1.0000   1.0000
     1.0000   1.0000   1.0000   1.0000   1.0000   1.0000   1.0000   1.0000
     1.0000   1.0000   1.0000   1.0000   1.0000   1.0000   1.0000   1.0000
     1.0000   1.0000   1.0000   1.0000   1.0000   1.0000   1.0000   1.0000
     1.0000   1.0000   1.0000   1.0000   0.9999   0.9999   0.9997   0.9991
     0.9980   0.9962   0.9945   0.9907   0.9882   0.9831   0.9479   0.9128
     0.8794   0.8194   0.7249   0.6613   0.5501   0.4275   0.1793   0.1364
     0.0565   0.0376   0.0152   0.0133   0.0056   0.0043   0.0026   0.0016
     0.0009   0.0001   0.0000   0.0000   0.0000   0.0000   0.0000   0.0000
     0.0000   0.0000   0.0000   0.0000   0.0000   0.0000   0.0000   0.0000
     0.0000   0.0000   0.0000   0.0000   0.0000   0.0000   0.0000   0.0000
     0.0000   0.0000   0.0000   0.0000   0.0000   0.0000   0.0000   0.0000
     0.0000   0.0000   0.0000   0.0000   0.0000   0.0000   0.0000   0.0000
     0.0000   0.0000   0.0000   0.0000   0.0000   0.0000   0.0000   0.0000
     0.0000   0.0000   0.0000   0.0000   0.0000   0.0000   0.0000   0.0000

          k =-0.5000 0.6736 0.0000 ( 88140 PWs)   bands (ev):

   -95.4143 -95.4077 -95.4065 -95.4025 -95.3872 -95.3855 -95.3845 -95.3809
   -95.3792 -95.3781 -95.3769 -95.3764 -95.3744 -95.3726 -95.3694 -95.3693
   -95.3686 -95.2188 -95.1920 -95.1892 -95.1884 -95.0149 -95.0091 -95.0081
   -94.9520 -94.9478 -94.9453 -94.9395 -94.9389 -94.9363 -94.9328 -94.9312
   -94.9306 -94.9301 -94.9238 -94.9221 -49.7151 -49.7041 -49.6984 -49.6885
   -49.6776 -49.6708 -49.6638 -49.6559 -49.6508 -49.6464 -49.6439 -49.6401
   -49.6303 -49.6197 -49.6140 -49.5751 -49.5712 -49.5610 -49.5533 -49.5482
   -49.5455 -49.5410 -49.5344 -49.5278 -49.5223 -49.5213 -49.5158 -49.5107
   -49.5083 -49.5001 -49.4949 -49.4918 -49.4895 -49.4841 -49.4790 -49.4764
   -49.4741 -49.4729 -49.4700 -49.4680 -49.4611 -49.4575 -49.4547 -49.4511
   -49.4479 -49.4469 -49.4409 -49.4381 -49.4352 -49.4288 -49.4243 -49.4170
   -49.4053 -49.3966 -49.3761 -49.3657 -49.3498 -49.3436 -49.3395 -49.3311
   -49.3180 -49.3057 -49.2995 -49.2944 -49.2809 -49.2743 -49.2683 -49.2612
   -49.2412 -49.2400 -49.2186 -49.2107 -49.1981 -49.1726 -49.1652 -49.1599
   -49.1573 -49.1395 -49.1365 -49.1363 -49.1316 -49.1212 -49.1200 -49.1183
   -49.1176 -49.1121 -49.0989 -49.0967 -49.0916 -49.0804 -49.0784 -49.0663
   -49.0544 -48.9226 -48.9140 -48.9124 -48.8819 -48.8769 -48.8723 -48.8652
   -48.8627 -48.8604 -48.8567 -48.8565 -48.8541 -48.8532 -48.8446 -48.8429
   -14.2003  -5.3779  -4.8399  -4.3441  -4.1101  -3.6385  -3.2757  -3.2379
    -3.2120  -3.1034  -3.0699  -3.0265  -2.9664  -2.8925  -2.8780  -2.7627
    -2.6929  -2.6820  -2.6356  -2.5995  -2.5498  -2.5315  -2.5147  -2.4976
    -2.4528  -2.3844  -2.3513  -2.3165  -2.2838  -2.2412  -2.1594  -2.1204
    -2.0922  -2.0738  -2.0217  -1.9968  -1.9122  -1.8492  -1.7992  -1.7271
    -1.6060  -1.5611  -1.5312  -1.4560  -1.4457  -1.4304  -1.4156  -1.3408
    -1.3204  -1.2997  -1.2334  -1.2089  -1.1284  -1.1125  -1.0899  -1.0648
    -1.0134  -0.9812  -0.9709  -0.9384  -0.9014  -0.8284  -0.7927  -0.7812
    -0.7605  -0.7237  -0.6834  -0.6403  -0.5722  -0.5389  -0.5043  -0.4767
    -0.4557  -0.4190  -0.4128  -0.3944  -0.3577  -0.3408  -0.2974  -0.2476
    -0.2301  -0.1956  -0.1642  -0.1470  -0.1324  -0.0870  -0.0716  -0.0431
    -0.0205   0.0206   0.0555   0.0802   0.0946   0.1135   0.1674   0.1844
     0.2066   0.2142   0.2326   0.2507   0.2682   0.2803   0.3122   0.3261
     0.3641   0.3975   0.4289   0.4542   0.4839   0.5426   0.5750   0.5889
     0.6455   0.7040   0.7255   0.8105   0.8578   0.9374   0.9485   0.9805
     1.0170   1.0295   1.0365   1.0713   1.0905   1.1431   1.1800   1.1987
     1.2205   1.2535   1.2867   1.3271   1.3488   1.3711   1.4201   1.4721
     1.5809   1.6052   1.6280   1.6706   1.7086   1.7308   1.7580   1.7673
     1.7889   1.8186   1.8365   1.8795   1.9499   1.9707   1.9940   2.0131
     2.0266   2.0465   2.1201   2.1601   2.2120   2.2608   2.3085   2.3774
     2.3856   2.4534   2.4954   2.5108   2.5695   2.6070   2.6410   2.7018
     2.7433   2.7768   2.7950   2.8215   2.8333   2.8515   2.9096   2.9373
     2.9554   2.9791   3.0062   3.0212   3.0446   3.0693   3.1307   3.1470
     3.1954   3.2168   3.2633   3.2700   3.3133   3.3272   3.3516   3.3762
     3.4080   3.5115   3.6792   4.0677   4.3358   4.3867   4.4558   4.6182
     4.7853   4.9696   5.0380   5.2854   5.3507   5.4128   5.4702   5.5925
     5.8526   5.9036   6.0778   6.3249   6.5062   6.6518   6.7181   6.8320
     7.0682   7.3312   7.5034   7.6726   7.7634   7.9477   8.5478   8.7502
     8.8062   8.8550   9.0940   9.2888   9.4055   9.4329   9.6702   9.7233
     9.8064   9.8786  10.0426  10.1336  10.2517  10.2757  10.3697  10.5845
    10.6664  10.8091  11.0064  11.0513  11.1185  11.1799  11.2387  11.2768

     occupation numbers 
     1.0000   1.0000   1.0000   1.0000   1.0000   1.0000   1.0000   1.0000
     1.0000   1.0000   1.0000   1.0000   1.0000   1.0000   1.0000   1.0000
     1.0000   1.0000   1.0000   1.0000   1.0000   1.0000   1.0000   1.0000
     1.0000   1.0000   1.0000   1.0000   1.0000   1.0000   1.0000   1.0000
     1.0000   1.0000   1.0000   1.0000   1.0000   1.0000   1.0000   1.0000
     1.0000   1.0000   1.0000   1.0000   1.0000   1.0000   1.0000   1.0000
     1.0000   1.0000   1.0000   1.0000   1.0000   1.0000   1.0000   1.0000
     1.0000   1.0000   1.0000   1.0000   1.0000   1.0000   1.0000   1.0000
     1.0000   1.0000   1.0000   1.0000   1.0000   1.0000   1.0000   1.0000
     1.0000   1.0000   1.0000   1.0000   1.0000   1.0000   1.0000   1.0000
     1.0000   1.0000   1.0000   1.0000   1.0000   1.0000   1.0000   1.0000
     1.0000   1.0000   1.0000   1.0000   1.0000   1.0000   1.0000   1.0000
     1.0000   1.0000   1.0000   1.0000   1.0000   1.0000   1.0000   1.0000
     1.0000   1.0000   1.0000   1.0000   1.0000   1.0000   1.0000   1.0000
     1.0000   1.0000   1.0000   1.0000   1.0000   1.0000   1.0000   1.0000
     1.0000   1.0000   1.0000   1.0000   1.0000   1.0000   1.0000   1.0000
     1.0000   1.0000   1.0000   1.0000   1.0000   1.0000   1.0000   1.0000
     1.0000   1.0000   1.0000   1.0000   1.0000   1.0000   1.0000   1.0000
     1.0000   1.0000   1.0000   1.0000   1.0000   1.0000   1.0000   1.0000
     1.0000   1.0000   1.0000   1.0000   1.0000   1.0000   1.0000   1.0000
     1.0000   1.0000   1.0000   1.0000   1.0000   1.0000   1.0000   1.0000
     1.0000   1.0000   1.0000   1.0000   1.0000   1.0000   1.0000   1.0000
     1.0000   1.0000   1.0000   1.0000   1.0000   1.0000   1.0000   1.0000
     1.0000   1.0000   1.0000   1.0000   1.0000   1.0000   1.0000   1.0000
     1.0000   1.0000   1.0000   1.0000   1.0000   1.0000   1.0000   1.0000
     1.0000   1.0000   1.0000   1.0000   1.0000   1.0000   1.0000   1.0000
     1.0000   1.0000   1.0000   1.0000   1.0000   1.0000   1.0000   1.0000
     1.0000   1.0000   1.0000   1.0000   1.0000   1.0000   1.0000   1.0000
     1.0000   1.0000   1.0000   1.0000   1.0000   1.0000   1.0000   1.0000
     1.0000   1.0000   1.0000   1.0000   1.0000   1.0000   1.0000   1.0000
     1.0000   1.0000   1.0000   1.0000   1.0000   1.0000   1.0000   1.0000
     1.0000   1.0000   1.0000   1.0000   1.0000   1.0000   1.0000   1.0000
     1.0000   1.0000   1.0000   1.0000   1.0000   1.0000   1.0000   1.0000
     1.0000   1.0000   1.0000   1.0000   1.0000   1.0000   1.0000   1.0000
     1.0000   1.0000   1.0000   1.0000   1.0000   1.0000   1.0000   1.0000
     1.0000   1.0000   1.0000   1.0000   1.0000   1.0000   1.0000   1.0000
     1.0000   1.0000   1.0000   1.0000   1.0000   1.0000   1.0000   1.0000
     1.0000   1.0000   1.0000   1.0000   1.0000   1.0000   1.0000   1.0000
     1.0000   1.0000   1.0000   1.0000   0.9999   0.9999   0.9997   0.9991
     0.9980   0.9962   0.9945   0.9907   0.9882   0.9831   0.9479   0.9127
     0.8794   0.8193   0.7250   0.6612   0.5501   0.4274   0.1793   0.1364
     0.0565   0.0376   0.0152   0.0133   0.0056   0.0043   0.0026   0.0016
     0.0009   0.0001   0.0000   0.0000   0.0000   0.0000   0.0000   0.0000
     0.0000   0.0000   0.0000   0.0000   0.0000   0.0000   0.0000   0.0000
     0.0000   0.0000   0.0000   0.0000   0.0000   0.0000   0.0000   0.0000
     0.0000   0.0000   0.0000   0.0000   0.0000   0.0000   0.0000   0.0000
     0.0000   0.0000   0.0000   0.0000   0.0000   0.0000   0.0000   0.0000
     0.0000   0.0000   0.0000   0.0000   0.0000   0.0000   0.0000   0.0000
     0.0000   0.0000   0.0000   0.0000   0.0000   0.0000   0.0000   0.0000

          k =-0.5000-0.2887 0.0000 ( 88178 PWs)   bands (ev):

   -95.4143 -95.4078 -95.4065 -95.4025 -95.3873 -95.3854 -95.3842 -95.3815
   -95.3788 -95.3776 -95.3774 -95.3766 -95.3739 -95.3729 -95.3694 -95.3693
   -95.3686 -95.2188 -95.1920 -95.1892 -95.1884 -95.0149 -95.0091 -95.0081
   -94.9519 -94.9482 -94.9448 -94.9399 -94.9389 -94.9361 -94.9328 -94.9312
   -94.9305 -94.9302 -94.9238 -94.9221 -49.7196 -49.7009 -49.6910 -49.6867
   -49.6748 -49.6719 -49.6672 -49.6621 -49.6532 -49.6509 -49.6493 -49.6439
   -49.6257 -49.6168 -49.5909 -49.5852 -49.5684 -49.5621 -49.5548 -49.5506
   -49.5421 -49.5393 -49.5378 -49.5298 -49.5286 -49.5236 -49.5177 -49.5146
   -49.5047 -49.5019 -49.4968 -49.4897 -49.4828 -49.4825 -49.4817 -49.4749
   -49.4736 -49.4704 -49.4703 -49.4607 -49.4590 -49.4576 -49.4542 -49.4513
   -49.4496 -49.4463 -49.4443 -49.4368 -49.4349 -49.4290 -49.4278 -49.4243
   -49.4029 -49.3930 -49.3739 -49.3703 -49.3530 -49.3392 -49.3363 -49.3336
   -49.3222 -49.2963 -49.2905 -49.2895 -49.2871 -49.2861 -49.2785 -49.2617
   -49.2461 -49.2190 -49.2104 -49.2073 -49.2069 -49.1925 -49.1644 -49.1525
   -49.1514 -49.1482 -49.1480 -49.1333 -49.1204 -49.1197 -49.1149 -49.1128
   -49.1126 -49.1111 -49.0991 -49.0981 -49.0980 -49.0963 -49.0762 -49.0593
   -49.0558 -48.9226 -48.9140 -48.9124 -48.8816 -48.8780 -48.8703 -48.8671
   -48.8624 -48.8600 -48.8567 -48.8564 -48.8539 -48.8535 -48.8446 -48.8429
   -14.2003  -5.2185  -5.1693  -3.9836  -3.9176  -3.7685  -3.7501  -3.3454
    -3.1798  -2.9290  -2.8888  -2.8643  -2.8271  -2.8097  -2.7984  -2.7902
    -2.7795  -2.7664  -2.7639  -2.7094  -2.6532  -2.6254  -2.6077  -2.5875
    -2.5227  -2.4452  -2.2623  -2.2609  -2.2276  -2.2237  -2.0572  -2.0266
    -1.9851  -1.9753  -1.9451  -1.9351  -1.8439  -1.8412  -1.7275  -1.7233
    -1.6945  -1.6633  -1.6326  -1.5449  -1.5314  -1.4309  -1.4126  -1.3884
    -1.3754  -1.3093  -1.2896  -1.1846  -1.1435  -1.1405  -1.1246  -1.0352
    -1.0256  -1.0203  -1.0076  -0.8754  -0.8576  -0.8321  -0.8293  -0.8054
    -0.7897  -0.7142  -0.6342  -0.6329  -0.5559  -0.5360  -0.5226  -0.4983
    -0.4862  -0.4764  -0.4585  -0.3803  -0.3016  -0.2818  -0.2348  -0.2286
    -0.1967  -0.1948  -0.1733  -0.1648  -0.1474  -0.1416  -0.0708  -0.0574
    -0.0347  -0.0207   0.0001   0.0041   0.0496   0.0702   0.1417   0.1865
     0.1940   0.2750   0.2811   0.2857   0.2913   0.3122   0.3509   0.3634
     0.4571   0.4619   0.5077   0.5232   0.5473   0.6244   0.6623   0.7396
     0.7602   0.8107   0.8413   0.8847   0.9102   0.9189   0.9478   0.9641
     0.9844   0.9951   0.9964   1.0288   1.0424   1.1017   1.1101   1.1368
     1.1460   1.1789   1.1882   1.2521   1.2645   1.2767   1.3432   1.4394
     1.4471   1.5698   1.5916   1.6906   1.7099   1.7450   1.7664   1.8394
     1.8472   1.9094   1.9242   1.9865   2.0179   2.0373   2.0509   2.0623
     2.0753   2.1116   2.1595   2.1879   2.2249   2.2452   2.2625   2.2711
     2.3377   2.3748   2.4304   2.5121   2.5411   2.5725   2.5871   2.6530
     2.6669   2.7129   2.7555   2.7612   2.8019   2.8094   2.8360   2.8465
     2.8602   2.9725   3.0291   3.0426   3.0453   3.0542   3.0764   3.1024
     3.1425   3.1890   3.3073   3.3109   3.3230   3.3435   3.3729   3.4100
     3.5095   3.5749   3.9053   3.9554   4.2027   4.5926   4.7260   4.9026
     4.9211   4.9217   4.9554   5.3614   5.4047   5.4139   5.4582   5.6285
     5.7381   5.9620   6.0180   6.1136   6.3439   6.4300   6.4529   6.5485
     6.6080   6.9958   8.3842   8.4531   8.4848   8.5377   8.7312   8.7918
     8.8592   8.9463   8.9608   8.9921   9.0294   9.0858   9.4807   9.6116
     9.6198   9.9043   9.9125  10.0219  10.0652  10.3999  10.4065  10.5464
    10.6270  10.7958  10.9324  10.9753  11.0024  11.0156  11.1135  11.1380

     occupation numbers 
     1.0000   1.0000   1.0000   1.0000   1.0000   1.0000   1.0000   1.0000
     1.0000   1.0000   1.0000   1.0000   1.0000   1.0000   1.0000   1.0000
     1.0000   1.0000   1.0000   1.0000   1.0000   1.0000   1.0000   1.0000
     1.0000   1.0000   1.0000   1.0000   1.0000   1.0000   1.0000   1.0000
     1.0000   1.0000   1.0000   1.0000   1.0000   1.0000   1.0000   1.0000
     1.0000   1.0000   1.0000   1.0000   1.0000   1.0000   1.0000   1.0000
     1.0000   1.0000   1.0000   1.0000   1.0000   1.0000   1.0000   1.0000
     1.0000   1.0000   1.0000   1.0000   1.0000   1.0000   1.0000   1.0000
     1.0000   1.0000   1.0000   1.0000   1.0000   1.0000   1.0000   1.0000
     1.0000   1.0000   1.0000   1.0000   1.0000   1.0000   1.0000   1.0000
     1.0000   1.0000   1.0000   1.0000   1.0000   1.0000   1.0000   1.0000
     1.0000   1.0000   1.0000   1.0000   1.0000   1.0000   1.0000   1.0000
     1.0000   1.0000   1.0000   1.0000   1.0000   1.0000   1.0000   1.0000
     1.0000   1.0000   1.0000   1.0000   1.0000   1.0000   1.0000   1.0000
     1.0000   1.0000   1.0000   1.0000   1.0000   1.0000   1.0000   1.0000
     1.0000   1.0000   1.0000   1.0000   1.0000   1.0000   1.0000   1.0000
     1.0000   1.0000   1.0000   1.0000   1.0000   1.0000   1.0000   1.0000
     1.0000   1.0000   1.0000   1.0000   1.0000   1.0000   1.0000   1.0000
     1.0000   1.0000   1.0000   1.0000   1.0000   1.0000   1.0000   1.0000
     1.0000   1.0000   1.0000   1.0000   1.0000   1.0000   1.0000   1.0000
     1.0000   1.0000   1.0000   1.0000   1.0000   1.0000   1.0000   1.0000
     1.0000   1.0000   1.0000   1.0000   1.0000   1.0000   1.0000   1.0000
     1.0000   1.0000   1.0000   1.0000   1.0000   1.0000   1.0000   1.0000
     1.0000   1.0000   1.0000   1.0000   1.0000   1.0000   1.0000   1.0000
     1.0000   1.0000   1.0000   1.0000   1.0000   1.0000   1.0000   1.0000
     1.0000   1.0000   1.0000   1.0000   1.0000   1.0000   1.0000   1.0000
     1.0000   1.0000   1.0000   1.0000   1.0000   1.0000   1.0000   1.0000
     1.0000   1.0000   1.0000   1.0000   1.0000   1.0000   1.0000   1.0000
     1.0000   1.0000   1.0000   1.0000   1.0000   1.0000   1.0000   1.0000
     1.0000   1.0000   1.0000   1.0000   1.0000   1.0000   1.0000   1.0000
     1.0000   1.0000   1.0000   1.0000   1.0000   1.0000   1.0000   1.0000
     1.0000   1.0000   1.0000   1.0000   1.0000   1.0000   1.0000   1.0000
     1.0000   1.0000   1.0000   1.0000   1.0000   1.0000   1.0000   1.0000
     1.0000   1.0000   1.0000   1.0000   1.0000   1.0000   1.0000   1.0000
     1.0000   1.0000   1.0000   1.0000   1.0000   1.0000   1.0000   1.0000
     1.0000   1.0000   1.0000   1.0000   1.0000   1.0000   1.0000   1.0000
     1.0000   1.0000   1.0000   1.0000   1.0000   1.0000   1.0000   1.0000
     1.0000   1.0000   1.0000   1.0000   1.0000   1.0000   1.0000   1.0000
     1.0000   1.0000   1.0000   1.0000   1.0000   0.9999   0.9999   0.9997
     0.9996   0.9989   0.9975   0.9972   0.9937   0.9926   0.9875   0.9847
     0.9800   0.8380   0.6254   0.5601   0.5467   0.5027   0.3932   0.2779
     0.1474   0.0638   0.0064   0.0059   0.0046   0.0031   0.0017   0.0008
     0.0001   0.0000   0.0000   0.0000   0.0000   0.0000   0.0000   0.0000
     0.0000   0.0000   0.0000   0.0000   0.0000   0.0000   0.0000   0.0000
     0.0000   0.0000   0.0000   0.0000   0.0000   0.0000   0.0000   0.0000
     0.0000   0.0000   0.0000   0.0000   0.0000   0.0000   0.0000   0.0000
     0.0000   0.0000   0.0000   0.0000   0.0000   0.0000   0.0000   0.0000
     0.0000   0.0000   0.0000   0.0000   0.0000   0.0000   0.0000   0.0000
     0.0000   0.0000   0.0000   0.0000   0.0000   0.0000   0.0000   0.0000

     the Fermi energy is     3.0547 ev

!    total energy              =  -33082.03237746 Ry
     total all-electron energy =  -1325975.718027 Ry
     estimated scf accuracy    <       0.00000030 Ry
     smearing contrib. (-TS)   =      -0.04610032 Ry
     internal energy E=F+TS    =  -33081.98627714 Ry

     The total energy is F=E-TS. E is the sum of the following terms:
     one-electron contribution =  -91700.41459203 Ry
     hartree contribution      =   45920.08048846 Ry
     xc contribution           =   -1381.11665093 Ry
     ewald contribution        =   38231.26883573 Ry
     electric field correction =       0.00490423 Ry
     one-center paw contrib.   =  -24151.80926260 Ry
      -> PAW hartree energy AE =     350.75904910 Ry
      -> PAW hartree energy PS =    -349.07532989 Ry
      -> PAW xc energy AE      =   -1416.47659722 Ry
      -> PAW xc energy PS      =      73.56700157 Ry
      -> total E_H with PAW    =   45921.76420767 Ry
      -> total E_XC with PAW   =   -2724.02624658 Ry

     total magnetization       =     0.01 Bohr mag/cell
     absolute magnetization    =     0.01 Bohr mag/cell

     convergence has been achieved in  22 iterations

     negative rho (up, down):  7.061E-04 7.061E-04

     Forces acting on atoms (cartesian axes, Ry/au):

     atom    1 type  1   force =    -0.00038586    0.00017165   -0.00532843
     atom    2 type  1   force =     0.00036654    0.00015710   -0.00533923
     atom    3 type  1   force =     0.00001675   -0.00022185   -0.00441948
     atom    4 type  1   force =    -0.00002010   -0.00007777   -0.00347722
     atom    5 type  1   force =    -0.00011435    0.00006115   -0.00447108
     atom    6 type  1   force =     0.00013424    0.00005601   -0.00445738
     atom    7 type  1   force =     0.00004205   -0.00004876   -0.00348035
     atom    8 type  1   force =     0.00000319   -0.00052153   -0.00536186
     atom    9 type  1   force =    -0.00005004   -0.00007208   -0.00348070
     atom   10 type  1   force =    -0.00003122    0.00086947    0.00374460
     atom   11 type  1   force =     0.00039073    0.00026859    0.00602511
     atom   12 type  1   force =    -0.00035567    0.00027201    0.00602582
     atom   13 type  1   force =     0.00214205   -0.00103578    0.00435262
     atom   14 type  1   force =     0.00002095   -0.00034630    0.00580233
     atom   15 type  1   force =    -0.00215622   -0.00106427    0.00433751
     atom   16 type  1   force =    -0.00072977   -0.00019214    0.00388108
     atom   17 type  1   force =     0.00071904   -0.00022131    0.00386328
     atom   18 type  1   force =     0.00001761    0.00273051    0.00458559
     atom   19 type  1   force =    -0.00260909    0.00038260    0.00357851
     atom   20 type  1   force =     0.00257823    0.00038884    0.00357031
     atom   21 type  1   force =     0.00003377    0.00018121    0.00444921
     atom   22 type  1   force =     0.00000017   -0.00022295    0.00072053
     atom   23 type  1   force =     0.00063368   -0.00241537    0.00384233
     atom   24 type  1   force =    -0.00063581   -0.00245754    0.00385221
     atom   25 type  1   force =    -0.00144048    0.00187223    0.00304187
     atom   26 type  1   force =    -0.00003296   -0.00012663    0.00127279
     atom   27 type  1   force =     0.00146688    0.00186686    0.00304168
     atom   28 type  1   force =    -0.00103068    0.00071396    0.00106581
     atom   29 type  1   force =     0.00101214    0.00071334    0.00108944
     atom   30 type  1   force =     0.00002108    0.04269384    0.02556241
     atom   31 type  1   force =    -0.00002159   -0.00090776    0.00097870
     atom   32 type  1   force =     0.03704670   -0.02106807    0.02546700
     atom   33 type  1   force =    -0.03703028   -0.02108491    0.02544849
     atom   34 type  1   force =     0.00089177    0.00036813    0.00126545
     atom   35 type  1   force =    -0.00000895   -0.00174168    0.00070720
     atom   36 type  1   force =    -0.00088157    0.00033962    0.00126304
     atom   37 type  2   force =    -0.00000292   -0.00028042   -0.11301921
     The non-local contrib.  to forces
     atom    1 type  1   force =     0.00378846   -0.00216449   -0.08611901
     atom    2 type  1   force =    -0.00380621   -0.00217969   -0.08613386
     atom    3 type  1   force =     0.00001746    0.00027425   -0.08674404
     atom    4 type  1   force =    -0.00002024    0.00001522   -0.08764809
     atom    5 type  1   force =     0.00022580   -0.00011788   -0.08667028
     atom    6 type  1   force =    -0.00020404   -0.00012390   -0.08665207
     atom    7 type  1   force =    -0.00000972    0.00002619   -0.08763123
     atom    8 type  1   force =     0.00000437    0.00439989   -0.08609254
     atom    9 type  1   force =     0.00000430    0.00000326   -0.08762993
     atom   10 type  1   force =    -0.00003252    0.00482436   -0.00275313
     atom   11 type  1   force =     0.00058049    0.00049529   -0.00272436
     atom   12 type  1   force =    -0.00054353    0.00050161   -0.00272038
     atom   13 type  1   force =    -0.00067773    0.00057415   -0.00527959
     atom   14 type  1   force =     0.00002429   -0.00059581   -0.00287649
     atom   15 type  1   force =     0.00066104    0.00054578   -0.00529424
     atom   16 type  1   force =    -0.00407098   -0.00213748   -0.00249069
     atom   17 type  1   force =     0.00406172   -0.00216915   -0.00250973
     atom   18 type  1   force =     0.00001617   -0.00056449   -0.00506303
     atom   19 type  1   force =     0.00912337   -0.00582998    0.00637372
     atom   20 type  1   force =    -0.00915277   -0.00582254    0.00636806
     atom   21 type  1   force =     0.00003511    0.00021399    0.03853888
     atom   22 type  1   force =     0.00000166   -0.00023088    0.01812606
     atom   23 type  1   force =     0.00013352    0.01088346    0.00661473
     atom   24 type  1   force =    -0.00013851    0.01084132    0.00662346
     atom   25 type  1   force =     0.00982884   -0.00518389    0.00576743
     atom   26 type  1   force =    -0.00003126    0.00003453    0.02010097
     atom   27 type  1   force =    -0.00980210   -0.00518697    0.00576927
     atom   28 type  1   force =    -0.02376049    0.01380481    0.09392323
     atom   29 type  1   force =     0.02374096    0.01380624    0.09393719
     atom   30 type  1   force =     0.00001645    0.06426789    0.04515543
     atom   31 type  1   force =    -0.00002661    0.00777529    0.08170699
     atom   32 type  1   force =     0.05651242   -0.03239726    0.04575458
     atom   33 type  1   force =    -0.05650989   -0.03241735    0.04575306
     atom   34 type  1   force =    -0.00688620   -0.00412718    0.08175696
     atom   35 type  1   force =    -0.00001175   -0.02838683    0.09403229
     atom   36 type  1   force =     0.00689371   -0.00415873    0.08176455
     atom   37 type  2   force =    -0.00003729   -0.00304349   -1.35048553
     The ionic contribution  to forces
     atom    1 type  1   force =    -0.04675250    0.02502194 -328.08128920
     atom    2 type  1   force =     0.04675107    0.02509417 -328.08127921
     atom    3 type  1   force =     0.00000258    0.06625266 -328.00187565
     atom    4 type  1   force =     0.00005693   -0.02999145 -328.12057308
     atom    5 type  1   force =     0.05884558   -0.03523442 -328.00647315
     atom    6 type  1   force =    -0.05890239   -0.03527074 -328.00657112
     atom    7 type  1   force =     0.02512086    0.01747992 -328.11755338
     atom    8 type  1   force =    -0.00006381   -0.05072642 -328.08392342
     atom    9 type  1   force =    -0.02505624    0.01750913 -328.11767376
     atom   10 type  1   force =     0.00047604    0.31469600 -112.28679741
     atom   11 type  1   force =     0.32554711    0.17506104 -111.71231023
     atom   12 type  1   force =    -0.32585995    0.17486916 -111.71243884
     atom   13 type  1   force =     0.40468581   -0.22446399 -112.51543658
     atom   14 type  1   force =    -0.00033203   -0.38160457 -111.73089532
     atom   15 type  1   force =    -0.40405272   -0.22457050 -112.51596336
     atom   16 type  1   force =    -0.29233796   -0.13826526 -112.26638656
     atom   17 type  1   force =     0.29222866   -0.13763209 -112.26721841
     atom   18 type  1   force =     0.00038739    0.49134452 -112.49651291
     atom   19 type  1   force =    -1.04152038   -0.59453746  105.77527970
     atom   20 type  1   force =     1.04074897   -0.59568637  105.77688298
     atom   21 type  1   force =     0.00116590    0.02559351  109.89794821
     atom   22 type  1   force =    -0.00038274   -0.01490053  103.22015229
     atom   23 type  1   force =     1.02565168   -0.59953020  105.77942660
     atom   24 type  1   force =    -1.02539104   -0.60107726  105.77712151
     atom   25 type  1   force =     0.02115545    1.18758256  105.88425551
     atom   26 type  1   force =    -0.00035635   -0.00389084  101.88845132
     atom   27 type  1   force =    -0.02104824    1.18798354  105.88380168
     atom   28 type  1   force =     0.13756362   -0.05446175  318.90848639
     atom   29 type  1   force =    -0.13804559   -0.05616102  318.90784105
     atom   30 type  1   force =     0.00058138   -1.46194604  320.99867422
     atom   31 type  1   force =    -0.00320462   -0.19539271  319.89645555
     atom   32 type  1   force =    -1.21830569    0.76376168  320.79957873
     atom   33 type  1   force =     1.22036342    0.76412916  320.79601169
     atom   34 type  1   force =     0.18839927    0.05817966  319.84238799
     atom   35 type  1   force =     0.00113348    0.05492258  318.96220249
     atom   36 type  1   force =    -0.18968219    0.05544645  319.84350535
     atom   37 type  2   force =     0.00042920    0.03041596  133.28270832
     The local contribution  to forces
     atom    1 type  1   force =     0.04262831   -0.02273561  328.07189990
     atom    2 type  1   force =    -0.04273120   -0.02289312  328.07181173
     atom    3 type  1   force =     0.00009687   -0.06688911  327.99446637
     atom    4 type  1   force =    -0.00017902    0.02992111  328.11509989
     atom    5 type  1   force =    -0.05921024    0.03562192  327.99895374
     atom    6 type  1   force =     0.05938748    0.03561587  327.99913361
     atom    7 type  1   force =    -0.02498798   -0.01756631  328.11209457
     atom    8 type  1   force =     0.00008598    0.04578744  328.07451551
     atom    9 type  1   force =     0.02489347   -0.01772451  328.11221498
     atom   10 type  1   force =    -0.00067599   -0.31858071  112.21280516
     atom   11 type  1   force =    -0.32601212   -0.17547426  111.64027738
     atom   12 type  1   force =     0.32652033   -0.17526059  111.64044213
     atom   13 type  1   force =    -0.40183383    0.22302753  112.44437740
     atom   14 type  1   force =     0.00044948    0.38244346  111.65880754
     atom   15 type  1   force =     0.40108033    0.22297228  112.44487015
     atom   16 type  1   force =     0.29562065    0.14006271  112.19236855
     atom   17 type  1   force =    -0.29559364    0.13924622  112.19313015
     atom   18 type  1   force =    -0.00030660   -0.48816630  112.42552142
     atom   19 type  1   force =     1.02897755    0.60070826 -105.86224004
     atom   20 type  1   force =    -1.02836233    0.60196149 -105.86375338
     atom   21 type  1   force =    -0.00101313   -0.02550138 -110.01598152
     atom   22 type  1   force =     0.00039231    0.01500157 -103.32248839
     atom   23 type  1   force =    -1.02467887    0.58584158 -105.86631997
     atom   24 type  1   force =     1.02440997    0.58720401 -105.86408676
     atom   25 type  1   force =    -0.03261336   -1.17999010 -105.97107101
     atom   26 type  1   force =     0.00018835    0.00352967 -101.99309161
     atom   27 type  1   force =     0.03267508   -1.18047628 -105.97060127
     atom   28 type  1   force =    -0.11483297    0.04122297 -319.07918464
     atom   29 type  1   force =     0.11520148    0.04295154 -319.07843715
     atom   30 type  1   force =    -0.00047222    1.43103083 -321.10409620
     atom   31 type  1   force =     0.00318415    0.18668681 -320.05428411
     atom   32 type  1   force =     1.19084583   -0.74765322 -320.90570021
     atom   33 type  1   force =    -1.19287019   -0.74812695 -320.90220241
     atom   34 type  1   force =    -0.18045743   -0.05353609 -320.00007301
     atom   35 type  1   force =    -0.00121494   -0.02817625 -319.13341193
     atom   36 type  1   force =     0.18182651   -0.05087799 -320.00116113
     atom   37 type  2   force =    -0.00039259   -0.02768897 -132.08672474
     The core correction contribution to forces
     atom    1 type  1   force =    -0.00001228    0.00001649    0.00763281
     atom    2 type  1   force =     0.00001267    0.00001656    0.00763233
     atom    3 type  1   force =     0.00000017    0.00013367    0.00711515
     atom    4 type  1   force =     0.00000027    0.00000304    0.00703986
     atom    5 type  1   force =     0.00010593   -0.00005122    0.00711565
     atom    6 type  1   force =    -0.00010576   -0.00005125    0.00711626
     atom    7 type  1   force =     0.00000624    0.00001552    0.00704182
     atom    8 type  1   force =     0.00000014   -0.00000322    0.00764357
     atom    9 type  1   force =    -0.00000591    0.00001558    0.00704201
     atom   10 type  1   force =     0.00000012   -0.00018058   -0.00200563
     atom   11 type  1   force =     0.00034293    0.00021862   -0.00168243
     atom   12 type  1   force =    -0.00034254    0.00021875   -0.00168176
     atom   13 type  1   force =     0.00001188    0.00000878   -0.00176791
     atom   14 type  1   force =     0.00000032   -0.00039022   -0.00166613
     atom   15 type  1   force =    -0.00001163    0.00000872   -0.00176734
     atom   16 type  1   force =     0.00016862    0.00010089   -0.00200266
     atom   17 type  1   force =    -0.00016835    0.00010090   -0.00200250
     atom   18 type  1   force =     0.00000013    0.00001245   -0.00177788
     atom   19 type  1   force =     0.00070870   -0.00002335    0.00098654
     atom   20 type  1   force =    -0.00070909   -0.00002341    0.00098738
     atom   21 type  1   force =    -0.00000012   -0.00000387    0.00072813
     atom   22 type  1   force =    -0.00000005   -0.00000323    0.00181599
     atom   23 type  1   force =    -0.00034797    0.00061859    0.00097208
     atom   24 type  1   force =     0.00034773    0.00061853    0.00097157
     atom   25 type  1   force =     0.00037563   -0.00061808    0.00099198
     atom   26 type  1   force =    -0.00000001   -0.00001002    0.00273187
     atom   27 type  1   force =    -0.00037589   -0.00061799    0.00099229
     atom   28 type  1   force =     0.00007075   -0.00006288   -0.00600651
     atom   29 type  1   force =    -0.00007117   -0.00006261   -0.00600625
     atom   30 type  1   force =    -0.00000018    0.00905017    0.00185640
     atom   31 type  1   force =    -0.00000023    0.00003165   -0.00665525
     atom   32 type  1   force =     0.00785572   -0.00453876    0.00187059
     atom   33 type  1   force =    -0.00785652   -0.00453915    0.00187119
     atom   34 type  1   force =    -0.00004140   -0.00004525   -0.00664764
     atom   35 type  1   force =    -0.00000042    0.00005947   -0.00600627
     atom   36 type  1   force =     0.00004095   -0.00004522   -0.00664757
     atom   37 type  2   force =     0.00000034    0.00003096    0.01390453
     The Hubbard contrib.    to forces
     atom    1 type  1   force =     0.00000000    0.00000000    0.00000000
     atom    2 type  1   force =     0.00000000    0.00000000    0.00000000
     atom    3 type  1   force =     0.00000000    0.00000000    0.00000000
     atom    4 type  1   force =     0.00000000    0.00000000    0.00000000
     atom    5 type  1   force =     0.00000000    0.00000000    0.00000000
     atom    6 type  1   force =     0.00000000    0.00000000    0.00000000
     atom    7 type  1   force =     0.00000000    0.00000000    0.00000000
     atom    8 type  1   force =     0.00000000    0.00000000    0.00000000
     atom    9 type  1   force =     0.00000000    0.00000000    0.00000000
     atom   10 type  1   force =     0.00000000    0.00000000    0.00000000
     atom   11 type  1   force =     0.00000000    0.00000000    0.00000000
     atom   12 type  1   force =     0.00000000    0.00000000    0.00000000
     atom   13 type  1   force =     0.00000000    0.00000000    0.00000000
     atom   14 type  1   force =     0.00000000    0.00000000    0.00000000
     atom   15 type  1   force =     0.00000000    0.00000000    0.00000000
     atom   16 type  1   force =     0.00000000    0.00000000    0.00000000
     atom   17 type  1   force =     0.00000000    0.00000000    0.00000000
     atom   18 type  1   force =     0.00000000    0.00000000    0.00000000
     atom   19 type  1   force =     0.00000000    0.00000000    0.00000000
     atom   20 type  1   force =     0.00000000    0.00000000    0.00000000
     atom   21 type  1   force =     0.00000000    0.00000000    0.00000000
     atom   22 type  1   force =     0.00000000    0.00000000    0.00000000
     atom   23 type  1   force =     0.00000000    0.00000000    0.00000000
     atom   24 type  1   force =     0.00000000    0.00000000    0.00000000
     atom   25 type  1   force =     0.00000000    0.00000000    0.00000000
     atom   26 type  1   force =     0.00000000    0.00000000    0.00000000
     atom   27 type  1   force =     0.00000000    0.00000000    0.00000000
     atom   28 type  1   force =     0.00000000    0.00000000    0.00000000
     atom   29 type  1   force =     0.00000000    0.00000000    0.00000000
     atom   30 type  1   force =     0.00000000    0.00000000    0.00000000
     atom   31 type  1   force =     0.00000000    0.00000000    0.00000000
     atom   32 type  1   force =     0.00000000    0.00000000    0.00000000
     atom   33 type  1   force =     0.00000000    0.00000000    0.00000000
     atom   34 type  1   force =     0.00000000    0.00000000    0.00000000
     atom   35 type  1   force =     0.00000000    0.00000000    0.00000000
     atom   36 type  1   force =     0.00000000    0.00000000    0.00000000
     atom   37 type  2   force =     0.00000000    0.00000000    0.00000000
     The SCF correction term to forces
     atom    1 type  1   force =    -0.00000000    0.00000000   -0.00000000
     atom    2 type  1   force =     0.00000000    0.00000000   -0.00000000
     atom    3 type  1   force =    -0.00000000    0.00000000   -0.00000000
     atom    4 type  1   force =     0.00000000   -0.00000000   -0.00000000
     atom    5 type  1   force =    -0.00000000   -0.00000000   -0.00000000
     atom    6 type  1   force =    -0.00000000   -0.00000000   -0.00000000
     atom    7 type  1   force =    -0.00000000   -0.00000000   -0.00000000
     atom    8 type  1   force =    -0.00000000    0.00000000   -0.00000000
     atom    9 type  1   force =     0.00000000    0.00000000   -0.00000000
     atom   10 type  1   force =     0.00000000    0.00000000   -0.00000000
     atom   11 type  1   force =    -0.00000000   -0.00000000   -0.00000000
     atom   12 type  1   force =    -0.00000000   -0.00000000   -0.00000000
     atom   13 type  1   force =    -0.00000000   -0.00000000   -0.00000000
     atom   14 type  1   force =    -0.00000000   -0.00000000   -0.00000000
     atom   15 type  1   force =     0.00000000   -0.00000000   -0.00000000
     atom   16 type  1   force =    -0.00000000    0.00000000   -0.00000000
     atom   17 type  1   force =     0.00000000    0.00000000   -0.00000000
     atom   18 type  1   force =    -0.00000000    0.00000000   -0.00000000
     atom   19 type  1   force =     0.00010137    0.00006493   -0.00046534
     atom   20 type  1   force =     0.00005314   -0.00004053   -0.00055867
     atom   21 type  1   force =    -0.00015427   -0.00012126   -0.00042842
     atom   22 type  1   force =    -0.00001131   -0.00009009   -0.00052937
     atom   23 type  1   force =    -0.00012499   -0.00022900   -0.00049506
     atom   24 type  1   force =     0.00013573   -0.00004435   -0.00042151
     atom   25 type  1   force =    -0.00018733    0.00008152   -0.00054598
     atom   26 type  1   force =     0.00016601    0.00020983   -0.00056370
     atom   27 type  1   force =     0.00001773    0.00016436   -0.00056424
     atom   28 type  1   force =    -0.00007190    0.00021060    0.00020339
     atom   29 type  1   force =     0.00018615    0.00017898    0.00011066
     atom   30 type  1   force =    -0.00010466    0.00029080    0.00032861
     atom   31 type  1   force =     0.00002541   -0.00000901    0.00011157
     atom   32 type  1   force =     0.00013811   -0.00024072    0.00031937
     atom   33 type  1   force =    -0.00015741   -0.00013083    0.00037101
     atom   34 type  1   force =    -0.00012277   -0.00010321    0.00019720
     atom   35 type  1   force =     0.00008439   -0.00016086    0.00024668
     atom   36 type  1   force =     0.00003914   -0.00002509    0.00015791
     atom   37 type  2   force =    -0.00000288    0.00000492    0.00014702

     Total force =     0.142573     Total SCF correction =     0.001896

     Writing all to output data dir ./output/pt-o-1p6.save/ :
     XML data file, charge density, pseudopotentials, collected wavefunctions

     init_run     :    337.35s CPU    340.71s WALL (       1 calls)
     electrons    :  24370.19s CPU  24522.25s WALL (       1 calls)
     forces       :    199.14s CPU    199.67s WALL (       1 calls)

     Called by init_run:
     wfcinit      :    327.30s CPU    330.00s WALL (       1 calls)
     wfcinit:atom :      1.05s CPU      1.59s WALL (      40 calls)
     wfcinit:wfcr :    322.00s CPU    323.58s WALL (      40 calls)
     potinit      :      5.00s CPU      5.26s WALL (       1 calls)
     hinit0       :      0.87s CPU      0.93s WALL (       1 calls)

     Called by electrons:
     c_bands      :  22150.48s CPU  22283.02s WALL (      22 calls)
     sum_band     :   1994.70s CPU   2008.22s WALL (      22 calls)
     v_of_rho     :     49.62s CPU     50.03s WALL (      23 calls)
     v_h          :      1.60s CPU      1.61s WALL (      23 calls)
     v_xc         :     48.40s CPU     48.79s WALL (      24 calls)
     newd         :     63.93s CPU     68.83s WALL (      23 calls)
     PAW_pot      :     74.98s CPU     75.25s WALL (      23 calls)
     mix_rho      :     40.00s CPU     40.23s WALL (      22 calls)

     Called by c_bands:
     init_us_2    :    129.50s CPU    130.27s WALL (    1840 calls)
     cegterg      :  21869.55s CPU  22000.30s WALL (     880 calls)

     Called by sum_band:
     sum_band:wei :      0.52s CPU      0.52s WALL (      22 calls)
     sum_band:loo :   1878.70s CPU   1885.38s WALL (      22 calls)
     sum_band:buf :     25.10s CPU     25.36s WALL (     880 calls)
     sum_band:ini :     61.78s CPU     62.07s WALL (     880 calls)
     sum_band:cal :    885.26s CPU    886.57s WALL (     880 calls)
     sum_band:bec :      4.66s CPU      4.68s WALL (     880 calls)
     addusdens    :    111.82s CPU    118.61s WALL (      22 calls)
                                        0.00s GPU  (      22 calls)
     addusd:skk   :      1.18s CPU      1.87s WALL (      44 calls)
                                        0.00s GPU  (      44 calls)

     Called by *egterg:
     cdiaghg      :   1755.00s CPU   1757.57s WALL (    6140 calls)
     cegterg:over :   2219.24s CPU   2223.54s WALL (    5260 calls)
     cegterg:upda :   1454.49s CPU   1469.94s WALL (    5260 calls)
     cegterg:last :   3325.03s CPU   3331.84s WALL (    1537 calls)
     cdiaghg:chol :     88.95s CPU     89.14s WALL (    6140 calls)
     cdiaghg:inve :     25.78s CPU     25.83s WALL (    6140 calls)
     cdiaghg:para :    283.38s CPU    283.83s WALL (   12280 calls)
     h_psi        :  10565.13s CPU  10630.95s WALL (    6180 calls)
     s_psi        :   1923.22s CPU   1926.55s WALL (    6180 calls)
     g_psi        :     30.02s CPU     30.13s WALL (    5260 calls)

     Called by h_psi:
     h_psi:calbec :   1998.81s CPU   2003.08s WALL (    6180 calls)
     vloc_psi     :   6590.80s CPU   6629.26s WALL (    6180 calls)
     add_vuspsi   :   1935.80s CPU   1939.53s WALL (    6180 calls)

     General routines
     calbec       :   3062.09s CPU   3067.81s WALL (    7220 calls)
     fft          :     28.59s CPU     28.78s WALL (     588 calls)
     ffts         :     16.10s CPU     16.18s WALL (    2673 calls)
     fftw         :   4882.78s CPU   4907.50s WALL ( 1825166 calls)
     interpolate  :      2.59s CPU      2.60s WALL (      46 calls)

     Parallel routines

     PAW routines
     PAW_pot      :     74.98s CPU     75.25s WALL (      23 calls)

     PWSCF        :      6h55m CPU      6h59m WALL


   This run was terminated on:   6: 2:18   9Jun2026            

=------------------------------------------------------------------------------=
   JOB DONE.
=------------------------------------------------------------------------------=
