
     Program PWSCF v.7.4.1 starts on  9Jun2026 at 13:50:20 

     This program is part of the open-source Quantum ESPRESSO suite
     for quantum simulation of materials; please cite
         "P. Giannozzi et al., J. Phys.:Condens. Matter 21 395502 (2009);
         "P. Giannozzi et al., J. Phys.:Condens. Matter 29 465901 (2017);
         "P. Giannozzi et al., J. Chem. Phys. 152 154105 (2020);
          URL http://www.quantum-espresso.org", 
     in publications or presentations arising from this work. More details at
     http://www.quantum-espresso.org/quote

     Parallel version (MPI), running on    20 processors

     MPI processes distributed on     1 nodes
     452267 MiB available memory on the printing compute node when the environment starts

     Reading input from pt-o-5.0A.in

     Current dimensions of program PWSCF are:
     Max number of different atomic species (ntypx) = 10
     Max number of k-points (npk) =  40000
     Max angular momentum in pseudopotentials (lmaxx) =  4
     Presently stress not available with electric field and gates

     file Pt.pbe-spn-kjpaw_psl.1.0.0.UPF: wavefunction(s)  5P 5D renormalized
     file O.pbe-n-kjpaw_psl.1.0.0.UPF: wavefunction(s)  2S 2P renormalized

     IMPORTANT: XC functional enforced from input :
     Exchange-correlation= RPBE
                           (   1   4  44   4   0   0   0)
     Any further DFT definition will be discarded
     Please, verify this is what you really want


     R & G space division:  proc/nbgrp/npool/nimage =      20
     Subspace diagonalization in iterative solution of the eigenvalue problem:
     one sub-group per band group will be used
     custom distributed-memory algorithm (size of sub-group:  4*  4 procs)


     Parallelization info
     --------------------
     sticks:   dense  smooth     PW     G-vecs:    dense   smooth      PW
     Min         528     211     57               139422    35261    4999
     Max         529     212     59               139436    35272    5008
     Sum       10561    4231   1159              2788561   705305  100061

     Using Slab Decomposition



     bravais-lattice index     =            0
     lattice parameter (alat)  =      15.9739  a.u.
     unit-cell volume          =   11233.9610 (a.u.)^3
     number of atoms/cell      =           37
     number of atomic types    =            2
     number of electrons       =       654.00
     number of Kohn-Sham states=          392
     kinetic-energy cutoff     =      60.0000  Ry
     charge density cutoff     =     600.0000  Ry
     scf convergence threshold =      1.0E-06
     mixing beta               =       0.7000
     number of iterations used =           12  local-TF  mixing
     Exchange-correlation= RPBE
                           (   1   4  44   4   0   0   0)

     celldm(1)=  15.973885  celldm(2)=   0.000000  celldm(3)=   0.000000
     celldm(4)=   0.000000  celldm(5)=   0.000000  celldm(6)=   0.000000

     crystal axes: (cart. coord. in units of alat)
               a(1) = (   1.000000   0.000000   0.000000 )  
               a(2) = (   0.500000   0.866025   0.000000 )  
               a(3) = (   0.000000   0.000000   3.182516 )  

     reciprocal axes: (cart. coord. in units 2 pi/alat)
               b(1) = (  1.000000 -0.577350  0.000000 )  
               b(2) = (  0.000000  1.154701  0.000000 )  
               b(3) = (  0.000000  0.000000  0.314217 )  


     PseudoPot. # 1 for Pt read from file:
     ./pseudo/Pt.pbe-spn-kjpaw_psl.1.0.0.UPF
     MD5 check sum: f62f2ab5688b80eb25add38ff45b0645
     Pseudo is Projector augmented-wave + core cor, Zval = 18.0
     Generated using &quot;atomic&quot; code by A. Dal Corso  v.6.3
     Shape of augmentation charge: PSQ
     Using radial grid of 1277 points,  6 beta functions with: 
                l(1) =   0
                l(2) =   0
                l(3) =   1
                l(4) =   1
                l(5) =   2
                l(6) =   2
     Q(r) pseudized with 0 coefficients 


     PseudoPot. # 2 for O  read from file:
     ./pseudo/O.pbe-n-kjpaw_psl.1.0.0.UPF
     MD5 check sum: 9aa21d4642c1c2a0b5c883e051f79e44
     Pseudo is Projector augmented-wave + core cor, Zval =  6.0
     Generated using &quot;atomic&quot; code by A. Dal Corso  v.6.3
     Shape of augmentation charge: PSQ
     Using radial grid of 1095 points,  4 beta functions with: 
                l(1) =   0
                l(2) =   0
                l(3) =   1
                l(4) =   1
     Q(r) pseudized with 0 coefficients 


     atomic species   valence    mass     pseudopotential
     Pt               18.00   195.08000     Pt( 1.00)
     O                 6.00    15.99900     O ( 1.00)

     Starting magnetic structure 
     atomic species   magnetization
     Pt              0.000
     O               0.167

     No symmetry found


                                    s                        frac. trans.

      isym =  1     identity                                     

 cryst.   s( 1) = (     1          0          0      )
                  (     0          1          0      )
                  (     0          0          1      )

 cart.    s( 1) = (  1.0000000  0.0000000  0.0000000 )
                  (  0.0000000  1.0000000  0.0000000 )
                  (  0.0000000  0.0000000  1.0000000 )


   Cartesian axes

     site n.     atom                  positions (alat units)
         1        Pt     tau(   1) = (   0.0000000   0.0000000   0.2366019  )
         2        Pt     tau(   2) = (   0.3333333   0.0000000   0.2366019  )
         3        Pt     tau(   3) = (   0.6666667   0.0000000   0.2366019  )
         4        Pt     tau(   4) = (   0.1666667   0.2886751   0.2366019  )
         5        Pt     tau(   5) = (   0.5000000   0.2886751   0.2366019  )
         6        Pt     tau(   6) = (   0.8333333   0.2886751   0.2366019  )
         7        Pt     tau(   7) = (   0.3333333   0.5773503   0.2366019  )
         8        Pt     tau(   8) = (   0.6666667   0.5773503   0.2366019  )
         9        Pt     tau(   9) = (   1.0000000   0.5773503   0.2366019  )
        10        Pt     tau(  10) = (   0.1666667   0.0962250   0.5087675  )
        11        Pt     tau(  11) = (   0.5000000   0.0962250   0.5087675  )
        12        Pt     tau(  12) = (   0.8333333   0.0962250   0.5087675  )
        13        Pt     tau(  13) = (   0.3333333   0.3849002   0.5087675  )
        14        Pt     tau(  14) = (   0.6666667   0.3849002   0.5087675  )
        15        Pt     tau(  15) = (   1.0000000   0.3849002   0.5087675  )
        16        Pt     tau(  16) = (   0.5000000   0.6735753   0.5087675  )
        17        Pt     tau(  17) = (   0.8333333   0.6735753   0.5087675  )
        18        Pt     tau(  18) = (   1.1666667   0.6735753   0.5087675  )
        19        Pt     tau(  19) = (  -0.0009359   0.1939773   0.7797341  )
        20        Pt     tau(  20) = (   0.3342811   0.1939797   0.7797400  )
        21        Pt     tau(  21) = (   0.6666698   0.1927223   0.7818215  )
        22        Pt     tau(  22) = (   0.1666723   0.4815496   0.7765130  )
        23        Pt     tau(  23) = (   0.4995880   0.4800739   0.7796991  )
        24        Pt     tau(  24) = (   0.8337578   0.4800763   0.7796924  )
        25        Pt     tau(  25) = (   0.3318220   0.7704796   0.7799570  )
        26        Pt     tau(  26) = (   0.6666729   0.7701750   0.7746330  )
        27        Pt     tau(  27) = (   1.0015233   0.7704771   0.7799565  )
        28        Pt     tau(  28) = (   0.0025323  -0.0008167   1.0509928  )
        29        Pt     tau(  29) = (   0.3308207  -0.0008161   1.0509913  )
        30        Pt     tau(  30) = (   0.6666770  -0.0089227   1.0664244  )
        31        Pt     tau(  31) = (   0.1666822   0.2891436   1.0515803  )
        32        Pt     tau(  32) = (   0.4916503   0.2940997   1.0660716  )
        33        Pt     tau(  33) = (   0.8417051   0.2941009   1.0660670  )
        34        Pt     tau(  34) = (   0.3335135   0.5781048   1.0514827  )
        35        Pt     tau(  35) = (   0.6666759   0.5811172   1.0510875  )
        36        Pt     tau(  36) = (   0.9998420   0.5781091   1.0514850  )
        37        O      tau(  37) = (   0.6666775   0.1930926   1.6576925  )

     Fixed atoms
     site n.  direction
         1    0   0   0
         2    0   0   0
         3    0   0   0
         4    0   0   0
         5    0   0   0
         6    0   0   0
         7    0   0   0
         8    0   0   0
         9    0   0   0
        10    0   0   0
        11    0   0   0
        12    0   0   0
        13    0   0   0
        14    0   0   0
        15    0   0   0
        16    0   0   0
        17    0   0   0
        18    0   0   0
        19    1   1   1
        20    1   1   1
        21    1   1   1
        22    1   1   1
        23    1   1   1
        24    1   1   1
        25    1   1   1
        26    1   1   1
        27    1   1   1
        28    1   1   1
        29    1   1   1
        30    1   1   1
        31    1   1   1
        32    1   1   1
        33    1   1   1
        34    1   1   1
        35    1   1   1
        36    1   1   1
        37    1   1   1

   Crystallographic axes

     site n.     atom                  positions (cryst. coord.)
         1        Pt     tau(   1) = (  0.0000000  0.0000000  0.0743443  )
         2        Pt     tau(   2) = (  0.3333333  0.0000000  0.0743443  )
         3        Pt     tau(   3) = (  0.6666667  0.0000000  0.0743443  )
         4        Pt     tau(   4) = (  0.0000000  0.3333333  0.0743443  )
         5        Pt     tau(   5) = (  0.3333333  0.3333333  0.0743443  )
         6        Pt     tau(   6) = (  0.6666667  0.3333333  0.0743443  )
         7        Pt     tau(   7) = ( -0.0000000  0.6666667  0.0743443  )
         8        Pt     tau(   8) = (  0.3333333  0.6666667  0.0743443  )
         9        Pt     tau(   9) = (  0.6666667  0.6666667  0.0743443  )
        10        Pt     tau(  10) = (  0.1111111  0.1111111  0.1598633  )
        11        Pt     tau(  11) = (  0.4444444  0.1111111  0.1598633  )
        12        Pt     tau(  12) = (  0.7777778  0.1111111  0.1598633  )
        13        Pt     tau(  13) = (  0.1111111  0.4444444  0.1598633  )
        14        Pt     tau(  14) = (  0.4444444  0.4444444  0.1598633  )
        15        Pt     tau(  15) = (  0.7777778  0.4444444  0.1598633  )
        16        Pt     tau(  16) = (  0.1111111  0.7777778  0.1598633  )
        17        Pt     tau(  17) = (  0.4444444  0.7777778  0.1598633  )
        18        Pt     tau(  18) = (  0.7777778  0.7777778  0.1598633  )
        19        Pt     tau(  19) = ( -0.1129288  0.2239857  0.2450056  )
        20        Pt     tau(  20) = (  0.2222869  0.2239884  0.2450074  )
        21        Pt     tau(  21) = (  0.5554015  0.2225365  0.2456615  )
        22        Pt     tau(  22) = ( -0.1113505  0.5560455  0.2439934  )
        23        Pt     tau(  23) = (  0.2224172  0.5543415  0.2449946  )
        24        Pt     tau(  24) = (  0.5565855  0.5543444  0.2449925  )
        25        Pt     tau(  25) = ( -0.1130146  0.8896732  0.2450756  )
        26        Pt     tau(  26) = (  0.2220122  0.8893215  0.2434027  )
        27        Pt     tau(  27) = (  0.5566882  0.8896703  0.2450754  )
        28        Pt     tau(  28) = (  0.0030038 -0.0009431  0.3302396  )
        29        Pt     tau(  29) = (  0.3312919 -0.0009424  0.3302391  )
        30        Pt     tau(  30) = (  0.6718285 -0.0103030  0.3350885  )
        31        Pt     tau(  31) = ( -0.0002549  0.3338743  0.3304242  )
        32        Pt     tau(  32) = (  0.3218517  0.3395971  0.3349776  )
        33        Pt     tau(  33) = (  0.6719059  0.3395984  0.3349762  )
        34        Pt     tau(  34) = ( -0.0002555  0.6675379  0.3303935  )
        35        Pt     tau(  35) = (  0.3311678  0.6710163  0.3302694  )
        36        Pt     tau(  36) = (  0.6660705  0.6675429  0.3303943  )
        37        O      tau(  37) = (  0.5551954  0.2229642  0.5208748  )

     number of k points=    20  Fermi-Dirac smearing, width (Ry)=  0.0037
                       cart. coord. in units 2pi/alat
        k(    1) = (   0.0000000   0.0000000   0.0000000), wk =   0.0277778
        k(    2) = (   0.0000000   0.1924501   0.0000000), wk =   0.0555556
        k(    3) = (   0.0000000   0.3849002   0.0000000), wk =   0.0555556
        k(    4) = (   0.0000000  -0.5773503   0.0000000), wk =   0.0277778
        k(    5) = (   0.1666667  -0.0962250   0.0000000), wk =   0.0555556
        k(    6) = (   0.1666667   0.0962250   0.0000000), wk =   0.0555556
        k(    7) = (   0.1666667   0.2886751   0.0000000), wk =   0.0555556
        k(    8) = (   0.1666667  -0.6735753   0.0000000), wk =   0.0555556
        k(    9) = (   0.1666667  -0.4811252   0.0000000), wk =   0.0555556
        k(   10) = (   0.1666667  -0.2886751   0.0000000), wk =   0.0555556
        k(   11) = (   0.3333333  -0.1924501   0.0000000), wk =   0.0555556
        k(   12) = (   0.3333333   0.0000000   0.0000000), wk =   0.0555556
        k(   13) = (   0.3333333   0.1924501   0.0000000), wk =   0.0555556
        k(   14) = (   0.3333333  -0.7698004   0.0000000), wk =   0.0555556
        k(   15) = (   0.3333333  -0.5773503   0.0000000), wk =   0.0555556
        k(   16) = (   0.3333333  -0.3849002   0.0000000), wk =   0.0555556
        k(   17) = (  -0.5000000   0.2886751   0.0000000), wk =   0.0277778
        k(   18) = (  -0.5000000   0.4811252   0.0000000), wk =   0.0555556
        k(   19) = (  -0.5000000   0.6735753   0.0000000), wk =   0.0555556
        k(   20) = (  -0.5000000  -0.2886751   0.0000000), wk =   0.0277778

                       cryst. coord.
        k(    1) = (   0.0000000   0.0000000   0.0000000), wk =   0.0277778
        k(    2) = (   0.0000000   0.1666667   0.0000000), wk =   0.0555556
        k(    3) = (   0.0000000   0.3333333   0.0000000), wk =   0.0555556
        k(    4) = (   0.0000000  -0.5000000   0.0000000), wk =   0.0277778
        k(    5) = (   0.1666667  -0.0000000   0.0000000), wk =   0.0555556
        k(    6) = (   0.1666667   0.1666667   0.0000000), wk =   0.0555556
        k(    7) = (   0.1666667   0.3333333   0.0000000), wk =   0.0555556
        k(    8) = (   0.1666667  -0.5000000   0.0000000), wk =   0.0555556
        k(    9) = (   0.1666667  -0.3333333   0.0000000), wk =   0.0555556
        k(   10) = (   0.1666667  -0.1666667   0.0000000), wk =   0.0555556
        k(   11) = (   0.3333333  -0.0000000   0.0000000), wk =   0.0555556
        k(   12) = (   0.3333333   0.1666667   0.0000000), wk =   0.0555556
        k(   13) = (   0.3333333   0.3333333   0.0000000), wk =   0.0555556
        k(   14) = (   0.3333333  -0.5000000   0.0000000), wk =   0.0555556
        k(   15) = (   0.3333333  -0.3333333   0.0000000), wk =   0.0555556
        k(   16) = (   0.3333333  -0.1666667   0.0000000), wk =   0.0555556
        k(   17) = (  -0.5000000   0.0000000   0.0000000), wk =   0.0277778
        k(   18) = (  -0.5000000   0.1666667   0.0000000), wk =   0.0555556
        k(   19) = (  -0.5000000   0.3333333   0.0000000), wk =   0.0555556
        k(   20) = (  -0.5000000  -0.5000000   0.0000000), wk =   0.0277778

     Dense  grid:  2788561 G-vectors     FFT dimensions: ( 125, 125, 400)

     Smooth grid:   705305 G-vectors     FFT dimensions: (  80,  80, 256)

     Dynamical RAM for                 wfc:      26.37 MB

     Dynamical RAM for     wfc (w. buffer):    1081.01 MB

     Dynamical RAM for           str. fact:       4.25 MB

     Dynamical RAM for           local pot:       0.00 MB

     Dynamical RAM for          nlocal pot:      44.12 MB

     Dynamical RAM for                qrad:       3.93 MB

     Dynamical RAM for          rho,v,vnew:      27.07 MB

     Dynamical RAM for               rhoin:       9.02 MB

     Dynamical RAM for            rho*nmix:     102.12 MB

     Dynamical RAM for           G-vectors:       8.25 MB

     Dynamical RAM for          h,s,v(r/c):       1.76 MB

     Dynamical RAM for          <psi|beta>:       3.92 MB

     Dynamical RAM for                 psi:      52.73 MB

     Dynamical RAM for                hpsi:      52.73 MB

     Dynamical RAM for                spsi:      52.73 MB

     Dynamical RAM for      wfcinit/wfcrot:      56.25 MB

     Dynamical RAM for           addusdens:     474.41 MB

     Dynamical RAM for          addusforce:     623.61 MB

     Estimated static dynamical RAM per process >       1.17 GB

     Estimated max dynamical RAM per process >       1.88 GB

     Estimated total dynamical RAM >      37.58 GB
     Generating pointlists ...
     new r_m :   0.1342 (alat units)  2.1437 (a.u.) for type    1
     new r_m :   0.2577 (alat units)  4.1171 (a.u.) for type    2

     Initial potential from superposition of free atoms

     starting charge     653.9952, renormalised to     654.0000

     negative rho (up, down):  2.177E-04 2.171E-04

     Adding external electric field

     Computed dipole along edir(3) : 
        Elec. dipole        -10.0129 Ry au,        -25.4503 Debye
        Ion. dipole         -10.0176 Ry au,        -25.4622 Debye
        Dipole               -4.1982 Ry au,        -10.6709 Debye
        Dipole field         -0.0047 Ry au, 

        Potential amp.        0.4536 Ry
        Total length         48.2953 bohr


     Adding external electric field

     Computed dipole along edir(3) : 
        Elec. dipole        -10.0129 Ry au,        -25.4503 Debye
        Ion. dipole         -10.0176 Ry au,        -25.4622 Debye
        Dipole               -4.1982 Ry au,        -10.6709 Debye
        Dipole field         -0.0047 Ry au, 

        Potential amp.        0.4536 Ry
        Total length         48.2953 bohr

     Starting wfcs are  364 randomized atomic wfcs +   28 random wfcs
     Checking if some PAW data can be deallocated... 
       PAW data deallocated on    1 nodes for type:  1
       PAW data deallocated on   19 nodes for type:  2

     total cpu time spent up to now is      342.1 secs

     per-process dynamical memory:  1260.3 Mb

     Self-consistent Calculation

     iteration #  1     ecut=    60.00 Ry     beta= 0.70
     Davidson diagonalization with overlap

---- Real-time Memory Report at c_bands before calling an iterative solver
          1275 MiB given to the printing process from OS
          1236 MiB allocation reported by mallinfo(arena+hblkhd)
        428043 MiB available memory on the node where the printing process lives
------------------
     ethr =  1.00E-02,  avg # of iterations =  4.0

     negative rho (up, down):  9.579E-06 9.509E-06

     Adding external electric field

     Computed dipole along edir(3) : 
        Elec. dipole        -10.0133 Ry au,        -25.4513 Debye
        Ion. dipole         -10.0176 Ry au,        -25.4622 Debye
        Dipole               -3.8232 Ry au,         -9.7177 Debye
        Dipole field         -0.0043 Ry au, 

        Potential amp.        0.4131 Ry
        Total length         48.2953 bohr


     Adding external electric field

     Computed dipole along edir(3) : 
        Elec. dipole        -10.0133 Ry au,        -25.4513 Debye
        Ion. dipole         -10.0176 Ry au,        -25.4622 Debye
        Dipole               -3.8232 Ry au,         -9.7177 Debye
        Dipole field         -0.0043 Ry au, 

        Potential amp.        0.4131 Ry
        Total length         48.2953 bohr


     total cpu time spent up to now is     1665.0 secs

     total energy              =  -33080.36156080 Ry
     estimated scf accuracy    <      79.42296632 Ry

     total magnetization       =     3.00 Bohr mag/cell
     absolute magnetization    =     3.02 Bohr mag/cell

     iteration #  2     ecut=    60.00 Ry     beta= 0.70
     Davidson diagonalization with overlap

---- Real-time Memory Report at c_bands before calling an iterative solver
          1767 MiB given to the printing process from OS
          1313 MiB allocation reported by mallinfo(arena+hblkhd)
        426311 MiB available memory on the node where the printing process lives
------------------
     ethr =  1.00E-02,  avg # of iterations =  1.0

     negative rho (up, down):  2.474E-06 5.610E-06

     Adding external electric field

     Computed dipole along edir(3) : 
        Elec. dipole        -10.0129 Ry au,        -25.4501 Debye
        Ion. dipole         -10.0176 Ry au,        -25.4622 Debye
        Dipole               -4.2461 Ry au,        -10.7926 Debye
        Dipole field         -0.0047 Ry au, 

        Potential amp.        0.4588 Ry
        Total length         48.2953 bohr


     Adding external electric field

     Computed dipole along edir(3) : 
        Elec. dipole        -10.0129 Ry au,        -25.4501 Debye
        Ion. dipole         -10.0176 Ry au,        -25.4622 Debye
        Dipole               -4.2461 Ry au,        -10.7926 Debye
        Dipole field         -0.0047 Ry au, 

        Potential amp.        0.4588 Ry
        Total length         48.2953 bohr


     total cpu time spent up to now is     2563.5 secs

     total energy              =  -33080.76212947 Ry
     estimated scf accuracy    <      65.55006470 Ry

     total magnetization       =    -0.00 Bohr mag/cell
     absolute magnetization    =     0.23 Bohr mag/cell

     iteration #  3     ecut=    60.00 Ry     beta= 0.70
     Davidson diagonalization with overlap

---- Real-time Memory Report at c_bands before calling an iterative solver
          1769 MiB given to the printing process from OS
          1315 MiB allocation reported by mallinfo(arena+hblkhd)
        426265 MiB available memory on the node where the printing process lives
------------------
     ethr =  1.00E-02,  avg # of iterations =  1.0

     negative rho (up, down):  1.246E-06 1.612E-06

     Adding external electric field

     Computed dipole along edir(3) : 
        Elec. dipole        -10.0131 Ry au,        -25.4507 Debye
        Ion. dipole         -10.0176 Ry au,        -25.4622 Debye
        Dipole               -4.0464 Ry au,        -10.2848 Debye
        Dipole field         -0.0045 Ry au, 

        Potential amp.        0.4372 Ry
        Total length         48.2953 bohr


     Adding external electric field

     Computed dipole along edir(3) : 
        Elec. dipole        -10.0131 Ry au,        -25.4507 Debye
        Ion. dipole         -10.0176 Ry au,        -25.4622 Debye
        Dipole               -4.0464 Ry au,        -10.2848 Debye
        Dipole field         -0.0045 Ry au, 

        Potential amp.        0.4372 Ry
        Total length         48.2953 bohr


     total cpu time spent up to now is     3462.6 secs

     total energy              =  -33081.89461388 Ry
     estimated scf accuracy    <      14.49616837 Ry

     total magnetization       =     3.00 Bohr mag/cell
     absolute magnetization    =     3.01 Bohr mag/cell

     iteration #  4     ecut=    60.00 Ry     beta= 0.70
     Davidson diagonalization with overlap

---- Real-time Memory Report at c_bands before calling an iterative solver
          1773 MiB given to the printing process from OS
          1318 MiB allocation reported by mallinfo(arena+hblkhd)
        426194 MiB available memory on the node where the printing process lives
------------------
     ethr =  2.22E-03,  avg # of iterations =  1.1

     negative rho (up, down):  1.198E-06 2.109E-06

     Adding external electric field

     Computed dipole along edir(3) : 
        Elec. dipole        -10.0131 Ry au,        -25.4508 Debye
        Ion. dipole         -10.0176 Ry au,        -25.4622 Debye
        Dipole               -4.0127 Ry au,        -10.1992 Debye
        Dipole field         -0.0045 Ry au, 

        Potential amp.        0.4336 Ry
        Total length         48.2953 bohr


     Adding external electric field

     Computed dipole along edir(3) : 
        Elec. dipole        -10.0131 Ry au,        -25.4508 Debye
        Ion. dipole         -10.0176 Ry au,        -25.4622 Debye
        Dipole               -4.0127 Ry au,        -10.1992 Debye
        Dipole field         -0.0045 Ry au, 

        Potential amp.        0.4336 Ry
        Total length         48.2953 bohr


     total cpu time spent up to now is     4377.3 secs

     total energy              =  -33081.90407221 Ry
     estimated scf accuracy    <       6.15642054 Ry

     total magnetization       =     3.00 Bohr mag/cell
     absolute magnetization    =     3.00 Bohr mag/cell

     iteration #  5     ecut=    60.00 Ry     beta= 0.70
     Davidson diagonalization with overlap

---- Real-time Memory Report at c_bands before calling an iterative solver
          1775 MiB given to the printing process from OS
          1320 MiB allocation reported by mallinfo(arena+hblkhd)
        426139 MiB available memory on the node where the printing process lives
------------------
     ethr =  9.41E-04,  avg # of iterations =  1.5

     negative rho (up, down):  1.404E-06 1.627E-06

     Adding external electric field

     Computed dipole along edir(3) : 
        Elec. dipole        -10.0133 Ry au,        -25.4512 Debye
        Ion. dipole         -10.0176 Ry au,        -25.4622 Debye
        Dipole               -3.8847 Ry au,         -9.8738 Debye
        Dipole field         -0.0043 Ry au, 

        Potential amp.        0.4197 Ry
        Total length         48.2953 bohr


     Adding external electric field

     Computed dipole along edir(3) : 
        Elec. dipole        -10.0133 Ry au,        -25.4512 Debye
        Ion. dipole         -10.0176 Ry au,        -25.4622 Debye
        Dipole               -3.8847 Ry au,         -9.8738 Debye
        Dipole field         -0.0043 Ry au, 

        Potential amp.        0.4197 Ry
        Total length         48.2953 bohr


     total cpu time spent up to now is     5333.9 secs

     total energy              =  -33081.79453293 Ry
     estimated scf accuracy    <       5.63410748 Ry

     total magnetization       =     3.00 Bohr mag/cell
     absolute magnetization    =     3.00 Bohr mag/cell

     iteration #  6     ecut=    60.00 Ry     beta= 0.70
     Davidson diagonalization with overlap

---- Real-time Memory Report at c_bands before calling an iterative solver
          1776 MiB given to the printing process from OS
          1322 MiB allocation reported by mallinfo(arena+hblkhd)
        426137 MiB available memory on the node where the printing process lives
------------------
     ethr =  8.61E-04,  avg # of iterations =  2.4

     negative rho (up, down):  5.976E-07 7.589E-07

     Adding external electric field

     Computed dipole along edir(3) : 
        Elec. dipole        -10.0135 Ry au,        -25.4518 Debye
        Ion. dipole         -10.0176 Ry au,        -25.4622 Debye
        Dipole               -3.6622 Ry au,         -9.3085 Debye
        Dipole field         -0.0041 Ry au, 

        Potential amp.        0.3957 Ry
        Total length         48.2953 bohr


     Adding external electric field

     Computed dipole along edir(3) : 
        Elec. dipole        -10.0135 Ry au,        -25.4518 Debye
        Ion. dipole         -10.0176 Ry au,        -25.4622 Debye
        Dipole               -3.6622 Ry au,         -9.3085 Debye
        Dipole field         -0.0041 Ry au, 

        Potential amp.        0.3957 Ry
        Total length         48.2953 bohr


     total cpu time spent up to now is     6339.0 secs

     total energy              =  -33081.73957801 Ry
     estimated scf accuracy    <       4.53939344 Ry

     total magnetization       =    -0.00 Bohr mag/cell
     absolute magnetization    =     0.35 Bohr mag/cell

     iteration #  7     ecut=    60.00 Ry     beta= 0.70
     Davidson diagonalization with overlap

---- Real-time Memory Report at c_bands before calling an iterative solver
          1779 MiB given to the printing process from OS
          1325 MiB allocation reported by mallinfo(arena+hblkhd)
        426084 MiB available memory on the node where the printing process lives
------------------
     ethr =  6.94E-04,  avg # of iterations =  2.2

     negative rho (up, down):  3.910E-07 4.371E-07

     Adding external electric field

     Computed dipole along edir(3) : 
        Elec. dipole        -10.0135 Ry au,        -25.4518 Debye
        Ion. dipole         -10.0176 Ry au,        -25.4622 Debye
        Dipole               -3.6437 Ry au,         -9.2613 Debye
        Dipole field         -0.0041 Ry au, 

        Potential amp.        0.3937 Ry
        Total length         48.2953 bohr


     Adding external electric field

     Computed dipole along edir(3) : 
        Elec. dipole        -10.0135 Ry au,        -25.4518 Debye
        Ion. dipole         -10.0176 Ry au,        -25.4622 Debye
        Dipole               -3.6437 Ry au,         -9.2613 Debye
        Dipole field         -0.0041 Ry au, 

        Potential amp.        0.3937 Ry
        Total length         48.2953 bohr


     total cpu time spent up to now is     7340.4 secs

     total energy              =  -33081.85850238 Ry
     estimated scf accuracy    <       1.33864811 Ry

     total magnetization       =     2.97 Bohr mag/cell
     absolute magnetization    =     2.98 Bohr mag/cell

     iteration #  8     ecut=    60.00 Ry     beta= 0.70
     Davidson diagonalization with overlap

---- Real-time Memory Report at c_bands before calling an iterative solver
          1781 MiB given to the printing process from OS
          1327 MiB allocation reported by mallinfo(arena+hblkhd)
        425983 MiB available memory on the node where the printing process lives
------------------
     ethr =  2.05E-04,  avg # of iterations =  9.4

     negative rho (up, down):  6.802E-07 8.794E-07

     Adding external electric field

     Computed dipole along edir(3) : 
        Elec. dipole        -10.0137 Ry au,        -25.4524 Debye
        Ion. dipole         -10.0176 Ry au,        -25.4622 Debye
        Dipole               -3.4541 Ry au,         -8.7794 Debye
        Dipole field         -0.0039 Ry au, 

        Potential amp.        0.3732 Ry
        Total length         48.2953 bohr


     Adding external electric field

     Computed dipole along edir(3) : 
        Elec. dipole        -10.0137 Ry au,        -25.4524 Debye
        Ion. dipole         -10.0176 Ry au,        -25.4622 Debye
        Dipole               -3.4541 Ry au,         -8.7794 Debye
        Dipole field         -0.0039 Ry au, 

        Potential amp.        0.3732 Ry
        Total length         48.2953 bohr


     total cpu time spent up to now is     8483.2 secs

     total energy              =  -33081.85465057 Ry
     estimated scf accuracy    <       2.23313409 Ry

     total magnetization       =     3.00 Bohr mag/cell
     absolute magnetization    =     3.00 Bohr mag/cell

     iteration #  9     ecut=    60.00 Ry     beta= 0.70
     Davidson diagonalization with overlap

---- Real-time Memory Report at c_bands before calling an iterative solver
          1783 MiB given to the printing process from OS
          1329 MiB allocation reported by mallinfo(arena+hblkhd)
        425992 MiB available memory on the node where the printing process lives
------------------
     ethr =  2.05E-04,  avg # of iterations =  2.2

     negative rho (up, down):  5.018E-07 6.565E-07

     Adding external electric field

     Computed dipole along edir(3) : 
        Elec. dipole        -10.0140 Ry au,        -25.4530 Debye
        Ion. dipole         -10.0176 Ry au,        -25.4622 Debye
        Dipole               -3.2378 Ry au,         -8.2296 Debye
        Dipole field         -0.0036 Ry au, 

        Potential amp.        0.3498 Ry
        Total length         48.2953 bohr


     Adding external electric field

     Computed dipole along edir(3) : 
        Elec. dipole        -10.0140 Ry au,        -25.4530 Debye
        Ion. dipole         -10.0176 Ry au,        -25.4622 Debye
        Dipole               -3.2378 Ry au,         -8.2296 Debye
        Dipole field         -0.0036 Ry au, 

        Potential amp.        0.3498 Ry
        Total length         48.2953 bohr


     total cpu time spent up to now is     9488.2 secs

     total energy              =  -33081.81189560 Ry
     estimated scf accuracy    <       1.37650532 Ry

     total magnetization       =     3.00 Bohr mag/cell
     absolute magnetization    =     3.00 Bohr mag/cell

     iteration # 10     ecut=    60.00 Ry     beta= 0.70
     Davidson diagonalization with overlap

---- Real-time Memory Report at c_bands before calling an iterative solver
          1787 MiB given to the printing process from OS
          1332 MiB allocation reported by mallinfo(arena+hblkhd)
        425913 MiB available memory on the node where the printing process lives
------------------
     ethr =  2.05E-04,  avg # of iterations =  2.1

     negative rho (up, down):  1.779E-06 3.034E-06

     Adding external electric field

     Computed dipole along edir(3) : 
        Elec. dipole        -10.0142 Ry au,        -25.4535 Debye
        Ion. dipole         -10.0176 Ry au,        -25.4622 Debye
        Dipole               -3.0762 Ry au,         -7.8190 Debye
        Dipole field         -0.0034 Ry au, 

        Potential amp.        0.3324 Ry
        Total length         48.2953 bohr


     Adding external electric field

     Computed dipole along edir(3) : 
        Elec. dipole        -10.0142 Ry au,        -25.4535 Debye
        Ion. dipole         -10.0176 Ry au,        -25.4622 Debye
        Dipole               -3.0762 Ry au,         -7.8190 Debye
        Dipole field         -0.0034 Ry au, 

        Potential amp.        0.3324 Ry
        Total length         48.2953 bohr


     total cpu time spent up to now is    10475.6 secs

     total energy              =  -33081.79658044 Ry
     estimated scf accuracy    <       0.41970160 Ry

     total magnetization       =     2.52 Bohr mag/cell
     absolute magnetization    =     2.52 Bohr mag/cell

     iteration # 11     ecut=    60.00 Ry     beta= 0.70
     Davidson diagonalization with overlap

---- Real-time Memory Report at c_bands before calling an iterative solver
          1790 MiB given to the printing process from OS
          1334 MiB allocation reported by mallinfo(arena+hblkhd)
        425881 MiB available memory on the node where the printing process lives
------------------
     ethr =  6.42E-05,  avg # of iterations =  8.7

     negative rho (up, down):  2.078E-07 8.368E-07

     Adding external electric field

     Computed dipole along edir(3) : 
        Elec. dipole        -10.0141 Ry au,        -25.4533 Debye
        Ion. dipole         -10.0176 Ry au,        -25.4622 Debye
        Dipole               -3.1264 Ry au,         -7.9466 Debye
        Dipole field         -0.0035 Ry au, 

        Potential amp.        0.3378 Ry
        Total length         48.2953 bohr


     Adding external electric field

     Computed dipole along edir(3) : 
        Elec. dipole        -10.0141 Ry au,        -25.4533 Debye
        Ion. dipole         -10.0176 Ry au,        -25.4622 Debye
        Dipole               -3.1264 Ry au,         -7.9466 Debye
        Dipole field         -0.0035 Ry au, 

        Potential amp.        0.3378 Ry
        Total length         48.2953 bohr


     total cpu time spent up to now is    11614.9 secs

     total energy              =  -33081.78689435 Ry
     estimated scf accuracy    <       4.91858195 Ry

     total magnetization       =     0.02 Bohr mag/cell
     absolute magnetization    =     0.33 Bohr mag/cell

     iteration # 12     ecut=    60.00 Ry     beta= 0.70
     Davidson diagonalization with overlap

---- Real-time Memory Report at c_bands before calling an iterative solver
          1799 MiB given to the printing process from OS
          1336 MiB allocation reported by mallinfo(arena+hblkhd)
        425822 MiB available memory on the node where the printing process lives
------------------
     ethr =  6.42E-05,  avg # of iterations =  1.4

     negative rho (up, down):  2.692E-03 2.548E-03

     Adding external electric field

     Computed dipole along edir(3) : 
        Elec. dipole        -10.0143 Ry au,        -25.4538 Debye
        Ion. dipole         -10.0176 Ry au,        -25.4622 Debye
        Dipole               -2.9497 Ry au,         -7.4973 Debye
        Dipole field         -0.0033 Ry au, 

        Potential amp.        0.3187 Ry
        Total length         48.2953 bohr


     Adding external electric field

     Computed dipole along edir(3) : 
        Elec. dipole        -10.0143 Ry au,        -25.4538 Debye
        Ion. dipole         -10.0176 Ry au,        -25.4622 Debye
        Dipole               -2.9497 Ry au,         -7.4973 Debye
        Dipole field         -0.0033 Ry au, 

        Potential amp.        0.3187 Ry
        Total length         48.2953 bohr


     total cpu time spent up to now is    12558.6 secs

     total energy              =  -33081.83379686 Ry
     estimated scf accuracy    <       0.62585143 Ry

     total magnetization       =     2.68 Bohr mag/cell
     absolute magnetization    =     2.69 Bohr mag/cell

     iteration # 13     ecut=    60.00 Ry     beta= 0.70
     Davidson diagonalization with overlap

---- Real-time Memory Report at c_bands before calling an iterative solver
          1802 MiB given to the printing process from OS
          1339 MiB allocation reported by mallinfo(arena+hblkhd)
        425792 MiB available memory on the node where the printing process lives
------------------
     ethr =  6.42E-05,  avg # of iterations =  3.0

     negative rho (up, down):  8.804E-03 8.612E-03

     Adding external electric field

     Computed dipole along edir(3) : 
        Elec. dipole        -10.0144 Ry au,        -25.4541 Debye
        Ion. dipole         -10.0176 Ry au,        -25.4622 Debye
        Dipole               -2.8371 Ry au,         -7.2113 Debye
        Dipole field         -0.0032 Ry au, 

        Potential amp.        0.3065 Ry
        Total length         48.2953 bohr


     Adding external electric field

     Computed dipole along edir(3) : 
        Elec. dipole        -10.0144 Ry au,        -25.4541 Debye
        Ion. dipole         -10.0176 Ry au,        -25.4622 Debye
        Dipole               -2.8371 Ry au,         -7.2113 Debye
        Dipole field         -0.0032 Ry au, 

        Potential amp.        0.3065 Ry
        Total length         48.2953 bohr


     total cpu time spent up to now is    13608.7 secs

     total energy              =  -33081.85774304 Ry
     estimated scf accuracy    <       1.25605172 Ry

     total magnetization       =     3.00 Bohr mag/cell
     absolute magnetization    =     3.00 Bohr mag/cell

     iteration # 14     ecut=    60.00 Ry     beta= 0.70
     Davidson diagonalization with overlap

---- Real-time Memory Report at c_bands before calling an iterative solver
          1804 MiB given to the printing process from OS
          1341 MiB allocation reported by mallinfo(arena+hblkhd)
        425761 MiB available memory on the node where the printing process lives
------------------
     ethr =  6.42E-05,  avg # of iterations =  2.2

     negative rho (up, down):  1.045E-02 1.044E-02

     Adding external electric field

     Computed dipole along edir(3) : 
        Elec. dipole        -10.0145 Ry au,        -25.4544 Debye
        Ion. dipole         -10.0176 Ry au,        -25.4622 Debye
        Dipole               -2.7305 Ry au,         -6.9402 Debye
        Dipole field         -0.0031 Ry au, 

        Potential amp.        0.2950 Ry
        Total length         48.2953 bohr


     Adding external electric field

     Computed dipole along edir(3) : 
        Elec. dipole        -10.0145 Ry au,        -25.4544 Debye
        Ion. dipole         -10.0176 Ry au,        -25.4622 Debye
        Dipole               -2.7305 Ry au,         -6.9402 Debye
        Dipole field         -0.0031 Ry au, 

        Potential amp.        0.2950 Ry
        Total length         48.2953 bohr


     total cpu time spent up to now is    14635.9 secs

     total energy              =  -33081.85632053 Ry
     estimated scf accuracy    <       1.31857006 Ry

     total magnetization       =     3.00 Bohr mag/cell
     absolute magnetization    =     3.00 Bohr mag/cell

     iteration # 15     ecut=    60.00 Ry     beta= 0.70
     Davidson diagonalization with overlap

---- Real-time Memory Report at c_bands before calling an iterative solver
          1804 MiB given to the printing process from OS
          1341 MiB allocation reported by mallinfo(arena+hblkhd)
        425718 MiB available memory on the node where the printing process lives
------------------
     ethr =  6.42E-05,  avg # of iterations =  1.2

     negative rho (up, down):  9.883E-03 1.005E-02

     Adding external electric field

     Computed dipole along edir(3) : 
        Elec. dipole        -10.0147 Ry au,        -25.4549 Debye
        Ion. dipole         -10.0176 Ry au,        -25.4622 Debye
        Dipole               -2.5678 Ry au,         -6.5268 Debye
        Dipole field         -0.0029 Ry au, 

        Potential amp.        0.2774 Ry
        Total length         48.2953 bohr


     Adding external electric field

     Computed dipole along edir(3) : 
        Elec. dipole        -10.0147 Ry au,        -25.4549 Debye
        Ion. dipole         -10.0176 Ry au,        -25.4622 Debye
        Dipole               -2.5678 Ry au,         -6.5268 Debye
        Dipole field         -0.0029 Ry au, 

        Potential amp.        0.2774 Ry
        Total length         48.2953 bohr


     total cpu time spent up to now is    15565.6 secs

     total energy              =  -33081.84151061 Ry
     estimated scf accuracy    <       1.40838352 Ry

     total magnetization       =     3.00 Bohr mag/cell
     absolute magnetization    =     3.00 Bohr mag/cell

     iteration # 16     ecut=    60.00 Ry     beta= 0.70
     Davidson diagonalization with overlap

---- Real-time Memory Report at c_bands before calling an iterative solver
          1804 MiB given to the printing process from OS
          1341 MiB allocation reported by mallinfo(arena+hblkhd)
        425730 MiB available memory on the node where the printing process lives
------------------
     ethr =  6.42E-05,  avg # of iterations =  2.0

     negative rho (up, down):  6.168E-03 6.287E-03

     Adding external electric field

     Computed dipole along edir(3) : 
        Elec. dipole        -10.0150 Ry au,        -25.4555 Debye
        Ion. dipole         -10.0176 Ry au,        -25.4622 Debye
        Dipole               -2.3589 Ry au,         -5.9958 Debye
        Dipole field         -0.0026 Ry au, 

        Potential amp.        0.2549 Ry
        Total length         48.2953 bohr


     Adding external electric field

     Computed dipole along edir(3) : 
        Elec. dipole        -10.0150 Ry au,        -25.4555 Debye
        Ion. dipole         -10.0176 Ry au,        -25.4622 Debye
        Dipole               -2.3589 Ry au,         -5.9958 Debye
        Dipole field         -0.0026 Ry au, 

        Potential amp.        0.2549 Ry
        Total length         48.2953 bohr


     total cpu time spent up to now is    16565.2 secs

     total energy              =  -33081.81583905 Ry
     estimated scf accuracy    <       1.34366178 Ry

     total magnetization       =     3.00 Bohr mag/cell
     absolute magnetization    =     3.00 Bohr mag/cell

     iteration # 17     ecut=    60.00 Ry     beta= 0.70
     Davidson diagonalization with overlap

---- Real-time Memory Report at c_bands before calling an iterative solver
          1804 MiB given to the printing process from OS
          1341 MiB allocation reported by mallinfo(arena+hblkhd)
        425687 MiB available memory on the node where the printing process lives
------------------
     ethr =  6.42E-05,  avg # of iterations =  2.2

     negative rho (up, down):  4.237E-03 4.313E-03

     Adding external electric field

     Computed dipole along edir(3) : 
        Elec. dipole        -10.0150 Ry au,        -25.4557 Debye
        Ion. dipole         -10.0176 Ry au,        -25.4622 Debye
        Dipole               -2.2809 Ry au,         -5.7975 Debye
        Dipole field         -0.0026 Ry au, 

        Potential amp.        0.2464 Ry
        Total length         48.2953 bohr


     Adding external electric field

     Computed dipole along edir(3) : 
        Elec. dipole        -10.0150 Ry au,        -25.4557 Debye
        Ion. dipole         -10.0176 Ry au,        -25.4622 Debye
        Dipole               -2.2809 Ry au,         -5.7975 Debye
        Dipole field         -0.0026 Ry au, 

        Potential amp.        0.2464 Ry
        Total length         48.2953 bohr


     total cpu time spent up to now is    17599.0 secs

     total energy              =  -33081.80768112 Ry
     estimated scf accuracy    <       0.97361121 Ry

     total magnetization       =     2.84 Bohr mag/cell
     absolute magnetization    =     2.84 Bohr mag/cell

     iteration # 18     ecut=    60.00 Ry     beta= 0.70
     Davidson diagonalization with overlap

---- Real-time Memory Report at c_bands before calling an iterative solver
          1804 MiB given to the printing process from OS
          1341 MiB allocation reported by mallinfo(arena+hblkhd)
        425689 MiB available memory on the node where the printing process lives
------------------
     ethr =  6.42E-05,  avg # of iterations =  1.3

     negative rho (up, down):  3.989E-03 3.989E-03

     Adding external electric field

     Computed dipole along edir(3) : 
        Elec. dipole        -10.0151 Ry au,        -25.4558 Debye
        Ion. dipole         -10.0176 Ry au,        -25.4622 Debye
        Dipole               -2.2674 Ry au,         -5.7631 Debye
        Dipole field         -0.0025 Ry au, 

        Potential amp.        0.2450 Ry
        Total length         48.2953 bohr


     Adding external electric field

     Computed dipole along edir(3) : 
        Elec. dipole        -10.0151 Ry au,        -25.4558 Debye
        Ion. dipole         -10.0176 Ry au,        -25.4622 Debye
        Dipole               -2.2674 Ry au,         -5.7631 Debye
        Dipole field         -0.0025 Ry au, 

        Potential amp.        0.2450 Ry
        Total length         48.2953 bohr


     total cpu time spent up to now is    18532.3 secs

     total energy              =  -33081.81124381 Ry
     estimated scf accuracy    <       0.01043143 Ry

     total magnetization       =     1.88 Bohr mag/cell
     absolute magnetization    =     1.89 Bohr mag/cell

     iteration # 19     ecut=    60.00 Ry     beta= 0.70
     Davidson diagonalization with overlap

---- Real-time Memory Report at c_bands before calling an iterative solver
          1804 MiB given to the printing process from OS
          1341 MiB allocation reported by mallinfo(arena+hblkhd)
        425740 MiB available memory on the node where the printing process lives
------------------
     c_bands:  1 eigenvalues not converged
     c_bands:  2 eigenvalues not converged
     c_bands:  2 eigenvalues not converged
     c_bands:  2 eigenvalues not converged
     c_bands:  1 eigenvalues not converged
     c_bands:  1 eigenvalues not converged
     c_bands:  1 eigenvalues not converged
     c_bands:  1 eigenvalues not converged
     ethr =  1.60E-06,  avg # of iterations = 13.9

     negative rho (up, down):  3.540E-03 3.494E-03

     Adding external electric field

     Computed dipole along edir(3) : 
        Elec. dipole        -10.0151 Ry au,        -25.4558 Debye
        Ion. dipole         -10.0176 Ry au,        -25.4622 Debye
        Dipole               -2.2643 Ry au,         -5.7554 Debye
        Dipole field         -0.0025 Ry au, 

        Potential amp.        0.2447 Ry
        Total length         48.2953 bohr


     Adding external electric field

     Computed dipole along edir(3) : 
        Elec. dipole        -10.0151 Ry au,        -25.4558 Debye
        Ion. dipole         -10.0176 Ry au,        -25.4622 Debye
        Dipole               -2.2643 Ry au,         -5.7554 Debye
        Dipole field         -0.0025 Ry au, 

        Potential amp.        0.2447 Ry
        Total length         48.2953 bohr


     total cpu time spent up to now is    19758.7 secs

     total energy              =  -33081.81158523 Ry
     estimated scf accuracy    <       0.10592315 Ry

     total magnetization       =     1.65 Bohr mag/cell
     absolute magnetization    =     1.66 Bohr mag/cell

     iteration # 20     ecut=    60.00 Ry     beta= 0.70
     Davidson diagonalization with overlap

---- Real-time Memory Report at c_bands before calling an iterative solver
          1804 MiB given to the printing process from OS
          1341 MiB allocation reported by mallinfo(arena+hblkhd)
        425751 MiB available memory on the node where the printing process lives
------------------
     c_bands:  2 eigenvalues not converged
     c_bands:  1 eigenvalues not converged
     ethr =  1.60E-06,  avg # of iterations =  2.6

     negative rho (up, down):  2.477E-03 2.434E-03

     Adding external electric field

     Computed dipole along edir(3) : 
        Elec. dipole        -10.0151 Ry au,        -25.4558 Debye
        Ion. dipole         -10.0176 Ry au,        -25.4622 Debye
        Dipole               -2.2684 Ry au,         -5.7656 Debye
        Dipole field         -0.0025 Ry au, 

        Potential amp.        0.2451 Ry
        Total length         48.2953 bohr


     Adding external electric field

     Computed dipole along edir(3) : 
        Elec. dipole        -10.0151 Ry au,        -25.4558 Debye
        Ion. dipole         -10.0176 Ry au,        -25.4622 Debye
        Dipole               -2.2684 Ry au,         -5.7656 Debye
        Dipole field         -0.0025 Ry au, 

        Potential amp.        0.2451 Ry
        Total length         48.2953 bohr


     total cpu time spent up to now is    20752.2 secs

     total energy              =  -33081.81148136 Ry
     estimated scf accuracy    <       0.15427932 Ry

     total magnetization       =     1.59 Bohr mag/cell
     absolute magnetization    =     1.60 Bohr mag/cell

     iteration # 21     ecut=    60.00 Ry     beta= 0.70
     Davidson diagonalization with overlap

---- Real-time Memory Report at c_bands before calling an iterative solver
          1804 MiB given to the printing process from OS
          1341 MiB allocation reported by mallinfo(arena+hblkhd)
        425763 MiB available memory on the node where the printing process lives
------------------
     ethr =  1.60E-06,  avg # of iterations =  5.2

     negative rho (up, down):  2.329E-03 2.290E-03

     Adding external electric field

     Computed dipole along edir(3) : 
        Elec. dipole        -10.0151 Ry au,        -25.4558 Debye
        Ion. dipole         -10.0176 Ry au,        -25.4622 Debye
        Dipole               -2.2600 Ry au,         -5.7443 Debye
        Dipole field         -0.0025 Ry au, 

        Potential amp.        0.2442 Ry
        Total length         48.2953 bohr


     Adding external electric field

     Computed dipole along edir(3) : 
        Elec. dipole        -10.0151 Ry au,        -25.4558 Debye
        Ion. dipole         -10.0176 Ry au,        -25.4622 Debye
        Dipole               -2.2600 Ry au,         -5.7443 Debye
        Dipole field         -0.0025 Ry au, 

        Potential amp.        0.2442 Ry
        Total length         48.2953 bohr


     total cpu time spent up to now is    21828.7 secs

     total energy              =  -33081.81159306 Ry
     estimated scf accuracy    <       0.12213623 Ry

     total magnetization       =     1.63 Bohr mag/cell
     absolute magnetization    =     1.64 Bohr mag/cell

     iteration # 22     ecut=    60.00 Ry     beta= 0.70
     Davidson diagonalization with overlap

---- Real-time Memory Report at c_bands before calling an iterative solver
          1804 MiB given to the printing process from OS
          1341 MiB allocation reported by mallinfo(arena+hblkhd)
        425760 MiB available memory on the node where the printing process lives
------------------
     ethr =  1.60E-06,  avg # of iterations =  1.8

     negative rho (up, down):  2.297E-03 2.270E-03

     Adding external electric field

     Computed dipole along edir(3) : 
        Elec. dipole        -10.0151 Ry au,        -25.4558 Debye
        Ion. dipole         -10.0176 Ry au,        -25.4622 Debye
        Dipole               -2.2594 Ry au,         -5.7427 Debye
        Dipole field         -0.0025 Ry au, 

        Potential amp.        0.2441 Ry
        Total length         48.2953 bohr


     Adding external electric field

     Computed dipole along edir(3) : 
        Elec. dipole        -10.0151 Ry au,        -25.4558 Debye
        Ion. dipole         -10.0176 Ry au,        -25.4622 Debye
        Dipole               -2.2594 Ry au,         -5.7427 Debye
        Dipole field         -0.0025 Ry au, 

        Potential amp.        0.2441 Ry
        Total length         48.2953 bohr


     total cpu time spent up to now is    22835.0 secs

     total energy              =  -33081.81127008 Ry
     estimated scf accuracy    <       0.15383580 Ry

     total magnetization       =     1.59 Bohr mag/cell
     absolute magnetization    =     1.60 Bohr mag/cell

     iteration # 23     ecut=    60.00 Ry     beta= 0.70
     Davidson diagonalization with overlap

---- Real-time Memory Report at c_bands before calling an iterative solver
          1804 MiB given to the printing process from OS
          1341 MiB allocation reported by mallinfo(arena+hblkhd)
        425749 MiB available memory on the node where the printing process lives
------------------
     c_bands:  1 eigenvalues not converged
     ethr =  1.60E-06,  avg # of iterations =  3.0

     negative rho (up, down):  2.201E-03 2.154E-03

     Adding external electric field

     Computed dipole along edir(3) : 
        Elec. dipole        -10.0151 Ry au,        -25.4558 Debye
        Ion. dipole         -10.0176 Ry au,        -25.4622 Debye
        Dipole               -2.2688 Ry au,         -5.7666 Debye
        Dipole field         -0.0025 Ry au, 

        Potential amp.        0.2451 Ry
        Total length         48.2953 bohr


     Adding external electric field

     Computed dipole along edir(3) : 
        Elec. dipole        -10.0151 Ry au,        -25.4558 Debye
        Ion. dipole         -10.0176 Ry au,        -25.4622 Debye
        Dipole               -2.2688 Ry au,         -5.7666 Debye
        Dipole field         -0.0025 Ry au, 

        Potential amp.        0.2451 Ry
        Total length         48.2953 bohr


     total cpu time spent up to now is    23881.6 secs

     total energy              =  -33081.81080329 Ry
     estimated scf accuracy    <       0.04863339 Ry

     total magnetization       =     1.74 Bohr mag/cell
     absolute magnetization    =     1.75 Bohr mag/cell

     iteration # 24     ecut=    60.00 Ry     beta= 0.70
     Davidson diagonalization with overlap

---- Real-time Memory Report at c_bands before calling an iterative solver
          1804 MiB given to the printing process from OS
          1341 MiB allocation reported by mallinfo(arena+hblkhd)
        425744 MiB available memory on the node where the printing process lives
------------------
     c_bands:  1 eigenvalues not converged
     ethr =  1.60E-06,  avg # of iterations =  2.9

     negative rho (up, down):  1.196E-03 1.174E-03

     Adding external electric field

     Computed dipole along edir(3) : 
        Elec. dipole        -10.0151 Ry au,        -25.4558 Debye
        Ion. dipole         -10.0176 Ry au,        -25.4622 Debye
        Dipole               -2.2454 Ry au,         -5.7073 Debye
        Dipole field         -0.0025 Ry au, 

        Potential amp.        0.2426 Ry
        Total length         48.2953 bohr


     Adding external electric field

     Computed dipole along edir(3) : 
        Elec. dipole        -10.0151 Ry au,        -25.4558 Debye
        Ion. dipole         -10.0176 Ry au,        -25.4622 Debye
        Dipole               -2.2454 Ry au,         -5.7073 Debye
        Dipole field         -0.0025 Ry au, 

        Potential amp.        0.2426 Ry
        Total length         48.2953 bohr


     total cpu time spent up to now is    24918.9 secs

     total energy              =  -33081.81065907 Ry
     estimated scf accuracy    <       0.06811576 Ry

     total magnetization       =     2.17 Bohr mag/cell
     absolute magnetization    =     2.18 Bohr mag/cell

     iteration # 25     ecut=    60.00 Ry     beta= 0.70
     Davidson diagonalization with overlap

---- Real-time Memory Report at c_bands before calling an iterative solver
          1804 MiB given to the printing process from OS
          1341 MiB allocation reported by mallinfo(arena+hblkhd)
        425745 MiB available memory on the node where the printing process lives
------------------
     c_bands:  1 eigenvalues not converged
     c_bands:  1 eigenvalues not converged
     c_bands:  1 eigenvalues not converged
     ethr =  1.60E-06,  avg # of iterations =  5.4

     negative rho (up, down):  1.160E-03 1.142E-03

     Adding external electric field

     Computed dipole along edir(3) : 
        Elec. dipole        -10.0151 Ry au,        -25.4558 Debye
        Ion. dipole         -10.0176 Ry au,        -25.4622 Debye
        Dipole               -2.2405 Ry au,         -5.6949 Debye
        Dipole field         -0.0025 Ry au, 

        Potential amp.        0.2421 Ry
        Total length         48.2953 bohr


     Adding external electric field

     Computed dipole along edir(3) : 
        Elec. dipole        -10.0151 Ry au,        -25.4558 Debye
        Ion. dipole         -10.0176 Ry au,        -25.4622 Debye
        Dipole               -2.2405 Ry au,         -5.6949 Debye
        Dipole field         -0.0025 Ry au, 

        Potential amp.        0.2421 Ry
        Total length         48.2953 bohr


     total cpu time spent up to now is    25993.7 secs

     total energy              =  -33081.81137155 Ry
     estimated scf accuracy    <       0.06402782 Ry

     total magnetization       =     1.71 Bohr mag/cell
     absolute magnetization    =     1.72 Bohr mag/cell

     iteration # 26     ecut=    60.00 Ry     beta= 0.70
     Davidson diagonalization with overlap

---- Real-time Memory Report at c_bands before calling an iterative solver
          1804 MiB given to the printing process from OS
          1341 MiB allocation reported by mallinfo(arena+hblkhd)
        425732 MiB available memory on the node where the printing process lives
------------------
     ethr =  1.60E-06,  avg # of iterations =  1.4

     negative rho (up, down):  1.067E-03 1.060E-03

     Adding external electric field

     Computed dipole along edir(3) : 
        Elec. dipole        -10.0151 Ry au,        -25.4558 Debye
        Ion. dipole         -10.0176 Ry au,        -25.4622 Debye
        Dipole               -2.2362 Ry au,         -5.6838 Debye
        Dipole field         -0.0025 Ry au, 

        Potential amp.        0.2416 Ry
        Total length         48.2953 bohr


     Adding external electric field

     Computed dipole along edir(3) : 
        Elec. dipole        -10.0151 Ry au,        -25.4558 Debye
        Ion. dipole         -10.0176 Ry au,        -25.4622 Debye
        Dipole               -2.2362 Ry au,         -5.6838 Debye
        Dipole field         -0.0025 Ry au, 

        Potential amp.        0.2416 Ry
        Total length         48.2953 bohr


     total cpu time spent up to now is    26930.5 secs

     total energy              =  -33081.81153098 Ry
     estimated scf accuracy    <       0.07213595 Ry

     total magnetization       =     1.69 Bohr mag/cell
     absolute magnetization    =     1.70 Bohr mag/cell

     iteration # 27     ecut=    60.00 Ry     beta= 0.70
     Davidson diagonalization with overlap

---- Real-time Memory Report at c_bands before calling an iterative solver
          1804 MiB given to the printing process from OS
          1341 MiB allocation reported by mallinfo(arena+hblkhd)
        425756 MiB available memory on the node where the printing process lives
------------------
     ethr =  1.60E-06,  avg # of iterations =  1.7

     negative rho (up, down):  1.175E-03 1.172E-03

     Adding external electric field

     Computed dipole along edir(3) : 
        Elec. dipole        -10.0151 Ry au,        -25.4558 Debye
        Ion. dipole         -10.0176 Ry au,        -25.4622 Debye
        Dipole               -2.2464 Ry au,         -5.7098 Debye
        Dipole field         -0.0025 Ry au, 

        Potential amp.        0.2427 Ry
        Total length         48.2953 bohr


     Adding external electric field

     Computed dipole along edir(3) : 
        Elec. dipole        -10.0151 Ry au,        -25.4558 Debye
        Ion. dipole         -10.0176 Ry au,        -25.4622 Debye
        Dipole               -2.2464 Ry au,         -5.7098 Debye
        Dipole field         -0.0025 Ry au, 

        Potential amp.        0.2427 Ry
        Total length         48.2953 bohr


     total cpu time spent up to now is    27926.0 secs

     total energy              =  -33081.81081675 Ry
     estimated scf accuracy    <       0.15343125 Ry

     total magnetization       =     1.58 Bohr mag/cell
     absolute magnetization    =     1.59 Bohr mag/cell

     iteration # 28     ecut=    60.00 Ry     beta= 0.70
     Davidson diagonalization with overlap

---- Real-time Memory Report at c_bands before calling an iterative solver
          1804 MiB given to the printing process from OS
          1341 MiB allocation reported by mallinfo(arena+hblkhd)
        425743 MiB available memory on the node where the printing process lives
------------------
     c_bands:  1 eigenvalues not converged
     ethr =  1.60E-06,  avg # of iterations =  2.2

     negative rho (up, down):  9.596E-04 9.301E-04

     Adding external electric field

     Computed dipole along edir(3) : 
        Elec. dipole        -10.0151 Ry au,        -25.4558 Debye
        Ion. dipole         -10.0176 Ry au,        -25.4622 Debye
        Dipole               -2.2489 Ry au,         -5.7161 Debye
        Dipole field         -0.0025 Ry au, 

        Potential amp.        0.2430 Ry
        Total length         48.2953 bohr


     Adding external electric field

     Computed dipole along edir(3) : 
        Elec. dipole        -10.0151 Ry au,        -25.4558 Debye
        Ion. dipole         -10.0176 Ry au,        -25.4622 Debye
        Dipole               -2.2489 Ry au,         -5.7161 Debye
        Dipole field         -0.0025 Ry au, 

        Potential amp.        0.2430 Ry
        Total length         48.2953 bohr


     total cpu time spent up to now is    28904.6 secs

     total energy              =  -33081.81119876 Ry
     estimated scf accuracy    <       0.00000917 Ry

     total magnetization       =     1.93 Bohr mag/cell
     absolute magnetization    =     1.94 Bohr mag/cell

     iteration # 29     ecut=    60.00 Ry     beta= 0.70
     Davidson diagonalization with overlap

---- Real-time Memory Report at c_bands before calling an iterative solver
          1804 MiB given to the printing process from OS
          1341 MiB allocation reported by mallinfo(arena+hblkhd)
        425710 MiB available memory on the node where the printing process lives
------------------
     ethr =  1.40E-09,  avg # of iterations =  4.2

     negative rho (up, down):  8.411E-04 8.047E-04

     Adding external electric field

     Computed dipole along edir(3) : 
        Elec. dipole        -10.0151 Ry au,        -25.4558 Debye
        Ion. dipole         -10.0176 Ry au,        -25.4622 Debye
        Dipole               -2.2539 Ry au,         -5.7288 Debye
        Dipole field         -0.0025 Ry au, 

        Potential amp.        0.2435 Ry
        Total length         48.2953 bohr


     Adding external electric field

     Computed dipole along edir(3) : 
        Elec. dipole        -10.0151 Ry au,        -25.4558 Debye
        Ion. dipole         -10.0176 Ry au,        -25.4622 Debye
        Dipole               -2.2539 Ry au,         -5.7288 Debye
        Dipole field         -0.0025 Ry au, 

        Potential amp.        0.2435 Ry
        Total length         48.2953 bohr


     total cpu time spent up to now is    29968.2 secs

     total energy              =  -33081.81120075 Ry
     estimated scf accuracy    <       0.00020023 Ry

     total magnetization       =     1.94 Bohr mag/cell
     absolute magnetization    =     1.95 Bohr mag/cell

     iteration # 30     ecut=    60.00 Ry     beta= 0.70
     Davidson diagonalization with overlap

---- Real-time Memory Report at c_bands before calling an iterative solver
          1804 MiB given to the printing process from OS
          1341 MiB allocation reported by mallinfo(arena+hblkhd)
        425715 MiB available memory on the node where the printing process lives
------------------
     ethr =  1.40E-09,  avg # of iterations =  3.0

     negative rho (up, down):  7.349E-04 7.017E-04

     Adding external electric field

     Computed dipole along edir(3) : 
        Elec. dipole        -10.0151 Ry au,        -25.4558 Debye
        Ion. dipole         -10.0176 Ry au,        -25.4622 Debye
        Dipole               -2.2525 Ry au,         -5.7253 Debye
        Dipole field         -0.0025 Ry au, 

        Potential amp.        0.2434 Ry
        Total length         48.2953 bohr


     Adding external electric field

     Computed dipole along edir(3) : 
        Elec. dipole        -10.0151 Ry au,        -25.4558 Debye
        Ion. dipole         -10.0176 Ry au,        -25.4622 Debye
        Dipole               -2.2525 Ry au,         -5.7253 Debye
        Dipole field         -0.0025 Ry au, 

        Potential amp.        0.2434 Ry
        Total length         48.2953 bohr


     total cpu time spent up to now is    30986.6 secs

     total energy              =  -33081.81119278 Ry
     estimated scf accuracy    <       0.00135467 Ry

     total magnetization       =     1.97 Bohr mag/cell
     absolute magnetization    =     1.97 Bohr mag/cell

     iteration # 31     ecut=    60.00 Ry     beta= 0.70
     Davidson diagonalization with overlap

---- Real-time Memory Report at c_bands before calling an iterative solver
          1804 MiB given to the printing process from OS
          1341 MiB allocation reported by mallinfo(arena+hblkhd)
        425762 MiB available memory on the node where the printing process lives
------------------
     ethr =  1.40E-09,  avg # of iterations =  2.0

     negative rho (up, down):  7.127E-04 6.784E-04

     Adding external electric field

     Computed dipole along edir(3) : 
        Elec. dipole        -10.0151 Ry au,        -25.4558 Debye
        Ion. dipole         -10.0176 Ry au,        -25.4622 Debye
        Dipole               -2.2536 Ry au,         -5.7281 Debye
        Dipole field         -0.0025 Ry au, 

        Potential amp.        0.2435 Ry
        Total length         48.2953 bohr


     Adding external electric field

     Computed dipole along edir(3) : 
        Elec. dipole        -10.0151 Ry au,        -25.4558 Debye
        Ion. dipole         -10.0176 Ry au,        -25.4622 Debye
        Dipole               -2.2536 Ry au,         -5.7281 Debye
        Dipole field         -0.0025 Ry au, 

        Potential amp.        0.2435 Ry
        Total length         48.2953 bohr


     total cpu time spent up to now is    32022.1 secs

     total energy              =  -33081.81119837 Ry
     estimated scf accuracy    <       0.00013263 Ry

     total magnetization       =     1.92 Bohr mag/cell
     absolute magnetization    =     1.93 Bohr mag/cell

     iteration # 32     ecut=    60.00 Ry     beta= 0.70
     Davidson diagonalization with overlap

---- Real-time Memory Report at c_bands before calling an iterative solver
          1804 MiB given to the printing process from OS
          1341 MiB allocation reported by mallinfo(arena+hblkhd)
        425734 MiB available memory on the node where the printing process lives
------------------
     ethr =  1.40E-09,  avg # of iterations =  2.0

     negative rho (up, down):  7.170E-04 6.798E-04

     Adding external electric field

     Computed dipole along edir(3) : 
        Elec. dipole        -10.0151 Ry au,        -25.4558 Debye
        Ion. dipole         -10.0176 Ry au,        -25.4622 Debye
        Dipole               -2.2544 Ry au,         -5.7301 Debye
        Dipole field         -0.0025 Ry au, 

        Potential amp.        0.2436 Ry
        Total length         48.2953 bohr


     Adding external electric field

     Computed dipole along edir(3) : 
        Elec. dipole        -10.0151 Ry au,        -25.4558 Debye
        Ion. dipole         -10.0176 Ry au,        -25.4622 Debye
        Dipole               -2.2544 Ry au,         -5.7301 Debye
        Dipole field         -0.0025 Ry au, 

        Potential amp.        0.2436 Ry
        Total length         48.2953 bohr


     total cpu time spent up to now is    33055.4 secs

     total energy              =  -33081.81119829 Ry
     estimated scf accuracy    <       0.00014249 Ry

     total magnetization       =     1.92 Bohr mag/cell
     absolute magnetization    =     1.93 Bohr mag/cell

     iteration # 33     ecut=    60.00 Ry     beta= 0.70
     Davidson diagonalization with overlap

---- Real-time Memory Report at c_bands before calling an iterative solver
          1804 MiB given to the printing process from OS
          1341 MiB allocation reported by mallinfo(arena+hblkhd)
        425739 MiB available memory on the node where the printing process lives
------------------
     ethr =  1.40E-09,  avg # of iterations =  1.6

     negative rho (up, down):  6.825E-04 6.466E-04

     Adding external electric field

     Computed dipole along edir(3) : 
        Elec. dipole        -10.0151 Ry au,        -25.4558 Debye
        Ion. dipole         -10.0176 Ry au,        -25.4622 Debye
        Dipole               -2.2547 Ry au,         -5.7309 Debye
        Dipole field         -0.0025 Ry au, 

        Potential amp.        0.2436 Ry
        Total length         48.2953 bohr


     Adding external electric field

     Computed dipole along edir(3) : 
        Elec. dipole        -10.0151 Ry au,        -25.4558 Debye
        Ion. dipole         -10.0176 Ry au,        -25.4622 Debye
        Dipole               -2.2547 Ry au,         -5.7309 Debye
        Dipole field         -0.0025 Ry au, 

        Potential amp.        0.2436 Ry
        Total length         48.2953 bohr


     total cpu time spent up to now is    34036.8 secs

     total energy              =  -33081.81119797 Ry
     estimated scf accuracy    <       0.00004284 Ry

     total magnetization       =     1.93 Bohr mag/cell
     absolute magnetization    =     1.93 Bohr mag/cell

     iteration # 34     ecut=    60.00 Ry     beta= 0.70
     Davidson diagonalization with overlap

---- Real-time Memory Report at c_bands before calling an iterative solver
          1804 MiB given to the printing process from OS
          1341 MiB allocation reported by mallinfo(arena+hblkhd)
        425752 MiB available memory on the node where the printing process lives
------------------
     ethr =  1.40E-09,  avg # of iterations =  1.0

     negative rho (up, down):  6.507E-04 6.157E-04

     Adding external electric field

     Computed dipole along edir(3) : 
        Elec. dipole        -10.0151 Ry au,        -25.4558 Debye
        Ion. dipole         -10.0176 Ry au,        -25.4622 Debye
        Dipole               -2.2552 Ry au,         -5.7322 Debye
        Dipole field         -0.0025 Ry au, 

        Potential amp.        0.2437 Ry
        Total length         48.2953 bohr


     Adding external electric field

     Computed dipole along edir(3) : 
        Elec. dipole        -10.0151 Ry au,        -25.4558 Debye
        Ion. dipole         -10.0176 Ry au,        -25.4622 Debye
        Dipole               -2.2552 Ry au,         -5.7322 Debye
        Dipole field         -0.0025 Ry au, 

        Potential amp.        0.2437 Ry
        Total length         48.2953 bohr


     total cpu time spent up to now is    34934.9 secs

     total energy              =  -33081.81119801 Ry
     estimated scf accuracy    <       0.00001742 Ry

     total magnetization       =     1.94 Bohr mag/cell
     absolute magnetization    =     1.94 Bohr mag/cell

     iteration # 35     ecut=    60.00 Ry     beta= 0.70
     Davidson diagonalization with overlap

---- Real-time Memory Report at c_bands before calling an iterative solver
          1804 MiB given to the printing process from OS
          1341 MiB allocation reported by mallinfo(arena+hblkhd)
        425699 MiB available memory on the node where the printing process lives
------------------
     ethr =  1.40E-09,  avg # of iterations =  1.1

     negative rho (up, down):  6.579E-04 6.229E-04

     Adding external electric field

     Computed dipole along edir(3) : 
        Elec. dipole        -10.0151 Ry au,        -25.4558 Debye
        Ion. dipole         -10.0176 Ry au,        -25.4622 Debye
        Dipole               -2.2548 Ry au,         -5.7311 Debye
        Dipole field         -0.0025 Ry au, 

        Potential amp.        0.2436 Ry
        Total length         48.2953 bohr


     Adding external electric field

     Computed dipole along edir(3) : 
        Elec. dipole        -10.0151 Ry au,        -25.4558 Debye
        Ion. dipole         -10.0176 Ry au,        -25.4622 Debye
        Dipole               -2.2548 Ry au,         -5.7311 Debye
        Dipole field         -0.0025 Ry au, 

        Potential amp.        0.2436 Ry
        Total length         48.2953 bohr


     total cpu time spent up to now is    35850.9 secs

     total energy              =  -33081.81119795 Ry
     estimated scf accuracy    <       0.00000889 Ry

     total magnetization       =     1.94 Bohr mag/cell
     absolute magnetization    =     1.94 Bohr mag/cell

     iteration # 36     ecut=    60.00 Ry     beta= 0.70
     Davidson diagonalization with overlap

---- Real-time Memory Report at c_bands before calling an iterative solver
          1804 MiB given to the printing process from OS
          1341 MiB allocation reported by mallinfo(arena+hblkhd)
        425708 MiB available memory on the node where the printing process lives
------------------
     ethr =  1.36E-09,  avg # of iterations =  1.0

     negative rho (up, down):  6.597E-04 6.247E-04

     Adding external electric field

     Computed dipole along edir(3) : 
        Elec. dipole        -10.0151 Ry au,        -25.4558 Debye
        Ion. dipole         -10.0176 Ry au,        -25.4622 Debye
        Dipole               -2.2548 Ry au,         -5.7311 Debye
        Dipole field         -0.0025 Ry au, 

        Potential amp.        0.2436 Ry
        Total length         48.2953 bohr


     Adding external electric field

     Computed dipole along edir(3) : 
        Elec. dipole        -10.0151 Ry au,        -25.4558 Debye
        Ion. dipole         -10.0176 Ry au,        -25.4622 Debye
        Dipole               -2.2548 Ry au,         -5.7311 Debye
        Dipole field         -0.0025 Ry au, 

        Potential amp.        0.2436 Ry
        Total length         48.2953 bohr


     total cpu time spent up to now is    36748.4 secs

     total energy              =  -33081.81119808 Ry
     estimated scf accuracy    <       0.00000302 Ry

     total magnetization       =     1.93 Bohr mag/cell
     absolute magnetization    =     1.94 Bohr mag/cell

     iteration # 37     ecut=    60.00 Ry     beta= 0.70
     Davidson diagonalization with overlap

---- Real-time Memory Report at c_bands before calling an iterative solver
          1804 MiB given to the printing process from OS
          1341 MiB allocation reported by mallinfo(arena+hblkhd)
        425690 MiB available memory on the node where the printing process lives
------------------
     ethr =  4.62E-10,  avg # of iterations =  1.0

     negative rho (up, down):  6.399E-04 6.047E-04

     Adding external electric field

     Computed dipole along edir(3) : 
        Elec. dipole        -10.0151 Ry au,        -25.4558 Debye
        Ion. dipole         -10.0176 Ry au,        -25.4622 Debye
        Dipole               -2.2552 Ry au,         -5.7323 Debye
        Dipole field         -0.0025 Ry au, 

        Potential amp.        0.2437 Ry
        Total length         48.2953 bohr


     Adding external electric field

     Computed dipole along edir(3) : 
        Elec. dipole        -10.0151 Ry au,        -25.4558 Debye
        Ion. dipole         -10.0176 Ry au,        -25.4622 Debye
        Dipole               -2.2552 Ry au,         -5.7323 Debye
        Dipole field         -0.0025 Ry au, 

        Potential amp.        0.2437 Ry
        Total length         48.2953 bohr


     total cpu time spent up to now is    37642.8 secs

     total energy              =  -33081.81119795 Ry
     estimated scf accuracy    <       0.00000276 Ry

     total magnetization       =     1.93 Bohr mag/cell
     absolute magnetization    =     1.94 Bohr mag/cell

     iteration # 38     ecut=    60.00 Ry     beta= 0.70
     Davidson diagonalization with overlap

---- Real-time Memory Report at c_bands before calling an iterative solver
          1804 MiB given to the printing process from OS
          1341 MiB allocation reported by mallinfo(arena+hblkhd)
        425738 MiB available memory on the node where the printing process lives
------------------
     ethr =  4.22E-10,  avg # of iterations =  1.0

     negative rho (up, down):  6.372E-04 6.019E-04

     Adding external electric field

     Computed dipole along edir(3) : 
        Elec. dipole        -10.0151 Ry au,        -25.4558 Debye
        Ion. dipole         -10.0176 Ry au,        -25.4622 Debye
        Dipole               -2.2554 Ry au,         -5.7328 Debye
        Dipole field         -0.0025 Ry au, 

        Potential amp.        0.2437 Ry
        Total length         48.2953 bohr


     Adding external electric field

     Computed dipole along edir(3) : 
        Elec. dipole        -10.0151 Ry au,        -25.4558 Debye
        Ion. dipole         -10.0176 Ry au,        -25.4622 Debye
        Dipole               -2.2554 Ry au,         -5.7328 Debye
        Dipole field         -0.0025 Ry au, 

        Potential amp.        0.2437 Ry
        Total length         48.2953 bohr


     total cpu time spent up to now is    38537.8 secs

     total energy              =  -33081.81119797 Ry
     estimated scf accuracy    <       0.00001555 Ry

     total magnetization       =     1.93 Bohr mag/cell
     absolute magnetization    =     1.94 Bohr mag/cell

     iteration # 39     ecut=    60.00 Ry     beta= 0.70
     Davidson diagonalization with overlap

---- Real-time Memory Report at c_bands before calling an iterative solver
          1804 MiB given to the printing process from OS
          1341 MiB allocation reported by mallinfo(arena+hblkhd)
        425747 MiB available memory on the node where the printing process lives
------------------
     ethr =  4.22E-10,  avg # of iterations =  1.1

     negative rho (up, down):  6.192E-04 5.839E-04

     Adding external electric field

     Computed dipole along edir(3) : 
        Elec. dipole        -10.0151 Ry au,        -25.4558 Debye
        Ion. dipole         -10.0176 Ry au,        -25.4622 Debye
        Dipole               -2.2566 Ry au,         -5.7356 Debye
        Dipole field         -0.0025 Ry au, 

        Potential amp.        0.2438 Ry
        Total length         48.2953 bohr


     Adding external electric field

     Computed dipole along edir(3) : 
        Elec. dipole        -10.0151 Ry au,        -25.4558 Debye
        Ion. dipole         -10.0176 Ry au,        -25.4622 Debye
        Dipole               -2.2566 Ry au,         -5.7356 Debye
        Dipole field         -0.0025 Ry au, 

        Potential amp.        0.2438 Ry
        Total length         48.2953 bohr


     total cpu time spent up to now is    39441.2 secs

     total energy              =  -33081.81119781 Ry
     estimated scf accuracy    <       0.00002695 Ry

     total magnetization       =     1.93 Bohr mag/cell
     absolute magnetization    =     1.93 Bohr mag/cell

     iteration # 40     ecut=    60.00 Ry     beta= 0.70
     Davidson diagonalization with overlap

---- Real-time Memory Report at c_bands before calling an iterative solver
          1804 MiB given to the printing process from OS
          1341 MiB allocation reported by mallinfo(arena+hblkhd)
        425754 MiB available memory on the node where the printing process lives
------------------
     ethr =  4.22E-10,  avg # of iterations =  1.0

     negative rho (up, down):  6.156E-04 5.803E-04

     Adding external electric field

     Computed dipole along edir(3) : 
        Elec. dipole        -10.0151 Ry au,        -25.4558 Debye
        Ion. dipole         -10.0176 Ry au,        -25.4622 Debye
        Dipole               -2.2566 Ry au,         -5.7357 Debye
        Dipole field         -0.0025 Ry au, 

        Potential amp.        0.2438 Ry
        Total length         48.2953 bohr


     Adding external electric field

     Computed dipole along edir(3) : 
        Elec. dipole        -10.0151 Ry au,        -25.4558 Debye
        Ion. dipole         -10.0176 Ry au,        -25.4622 Debye
        Dipole               -2.2566 Ry au,         -5.7357 Debye
        Dipole field         -0.0025 Ry au, 

        Potential amp.        0.2438 Ry
        Total length         48.2953 bohr


     total cpu time spent up to now is    40337.2 secs

     total energy              =  -33081.81119775 Ry
     estimated scf accuracy    <       0.00002259 Ry

     total magnetization       =     1.93 Bohr mag/cell
     absolute magnetization    =     1.94 Bohr mag/cell

     iteration # 41     ecut=    60.00 Ry     beta= 0.70
     Davidson diagonalization with overlap

---- Real-time Memory Report at c_bands before calling an iterative solver
          1804 MiB given to the printing process from OS
          1341 MiB allocation reported by mallinfo(arena+hblkhd)
        425731 MiB available memory on the node where the printing process lives
------------------
     ethr =  4.22E-10,  avg # of iterations =  1.0

     negative rho (up, down):  6.082E-04 5.732E-04

     Adding external electric field

     Computed dipole along edir(3) : 
        Elec. dipole        -10.0151 Ry au,        -25.4558 Debye
        Ion. dipole         -10.0176 Ry au,        -25.4622 Debye
        Dipole               -2.2572 Ry au,         -5.7371 Debye
        Dipole field         -0.0025 Ry au, 

        Potential amp.        0.2439 Ry
        Total length         48.2953 bohr


     Adding external electric field

     Computed dipole along edir(3) : 
        Elec. dipole        -10.0151 Ry au,        -25.4558 Debye
        Ion. dipole         -10.0176 Ry au,        -25.4622 Debye
        Dipole               -2.2572 Ry au,         -5.7371 Debye
        Dipole field         -0.0025 Ry au, 

        Potential amp.        0.2439 Ry
        Total length         48.2953 bohr


     total cpu time spent up to now is    41236.0 secs

     total energy              =  -33081.81119769 Ry
     estimated scf accuracy    <       0.00001266 Ry

     total magnetization       =     1.93 Bohr mag/cell
     absolute magnetization    =     1.94 Bohr mag/cell

     iteration # 42     ecut=    60.00 Ry     beta= 0.70
     Davidson diagonalization with overlap

---- Real-time Memory Report at c_bands before calling an iterative solver
          1804 MiB given to the printing process from OS
          1341 MiB allocation reported by mallinfo(arena+hblkhd)
        425758 MiB available memory on the node where the printing process lives
------------------
     ethr =  4.22E-10,  avg # of iterations =  1.0

     negative rho (up, down):  6.090E-04 5.738E-04

     Adding external electric field

     Computed dipole along edir(3) : 
        Elec. dipole        -10.0151 Ry au,        -25.4558 Debye
        Ion. dipole         -10.0176 Ry au,        -25.4622 Debye
        Dipole               -2.2571 Ry au,         -5.7370 Debye
        Dipole field         -0.0025 Ry au, 

        Potential amp.        0.2439 Ry
        Total length         48.2953 bohr


     Adding external electric field

     Computed dipole along edir(3) : 
        Elec. dipole        -10.0151 Ry au,        -25.4558 Debye
        Ion. dipole         -10.0176 Ry au,        -25.4622 Debye
        Dipole               -2.2571 Ry au,         -5.7370 Debye
        Dipole field         -0.0025 Ry au, 

        Potential amp.        0.2439 Ry
        Total length         48.2953 bohr


     total cpu time spent up to now is    42131.5 secs

     total energy              =  -33081.81119770 Ry
     estimated scf accuracy    <       0.00001315 Ry

     total magnetization       =     1.93 Bohr mag/cell
     absolute magnetization    =     1.94 Bohr mag/cell

     iteration # 43     ecut=    60.00 Ry     beta= 0.70
     Davidson diagonalization with overlap

---- Real-time Memory Report at c_bands before calling an iterative solver
          1804 MiB given to the printing process from OS
          1341 MiB allocation reported by mallinfo(arena+hblkhd)
        425756 MiB available memory on the node where the printing process lives
------------------
     ethr =  4.22E-10,  avg # of iterations =  1.0

     negative rho (up, down):  5.990E-04 5.641E-04

     Adding external electric field

     Computed dipole along edir(3) : 
        Elec. dipole        -10.0151 Ry au,        -25.4558 Debye
        Ion. dipole         -10.0176 Ry au,        -25.4622 Debye
        Dipole               -2.2582 Ry au,         -5.7398 Debye
        Dipole field         -0.0025 Ry au, 

        Potential amp.        0.2440 Ry
        Total length         48.2953 bohr


     Adding external electric field

     Computed dipole along edir(3) : 
        Elec. dipole        -10.0151 Ry au,        -25.4558 Debye
        Ion. dipole         -10.0176 Ry au,        -25.4622 Debye
        Dipole               -2.2582 Ry au,         -5.7398 Debye
        Dipole field         -0.0025 Ry au, 

        Potential amp.        0.2440 Ry
        Total length         48.2953 bohr


     total cpu time spent up to now is    43025.7 secs

     total energy              =  -33081.81119758 Ry
     estimated scf accuracy    <       0.00001358 Ry

     total magnetization       =     1.93 Bohr mag/cell
     absolute magnetization    =     1.94 Bohr mag/cell

     iteration # 44     ecut=    60.00 Ry     beta= 0.70
     Davidson diagonalization with overlap

---- Real-time Memory Report at c_bands before calling an iterative solver
          1804 MiB given to the printing process from OS
          1341 MiB allocation reported by mallinfo(arena+hblkhd)
        425761 MiB available memory on the node where the printing process lives
------------------
     ethr =  4.22E-10,  avg # of iterations =  1.0

     negative rho (up, down):  5.948E-04 5.605E-04

     Adding external electric field

     Computed dipole along edir(3) : 
        Elec. dipole        -10.0151 Ry au,        -25.4558 Debye
        Ion. dipole         -10.0176 Ry au,        -25.4622 Debye
        Dipole               -2.2584 Ry au,         -5.7404 Debye
        Dipole field         -0.0025 Ry au, 

        Potential amp.        0.2440 Ry
        Total length         48.2953 bohr


     Adding external electric field

     Computed dipole along edir(3) : 
        Elec. dipole        -10.0151 Ry au,        -25.4558 Debye
        Ion. dipole         -10.0176 Ry au,        -25.4622 Debye
        Dipole               -2.2584 Ry au,         -5.7404 Debye
        Dipole field         -0.0025 Ry au, 

        Potential amp.        0.2440 Ry
        Total length         48.2953 bohr


     total cpu time spent up to now is    43924.9 secs

     total energy              =  -33081.81119757 Ry
     estimated scf accuracy    <       0.00002109 Ry

     total magnetization       =     1.93 Bohr mag/cell
     absolute magnetization    =     1.94 Bohr mag/cell

     iteration # 45     ecut=    60.00 Ry     beta= 0.70
     Davidson diagonalization with overlap

---- Real-time Memory Report at c_bands before calling an iterative solver
          1804 MiB given to the printing process from OS
          1341 MiB allocation reported by mallinfo(arena+hblkhd)
        425728 MiB available memory on the node where the printing process lives
------------------
     ethr =  4.22E-10,  avg # of iterations =  1.0

     negative rho (up, down):  6.056E-04 5.717E-04

     Adding external electric field

     Computed dipole along edir(3) : 
        Elec. dipole        -10.0151 Ry au,        -25.4558 Debye
        Ion. dipole         -10.0176 Ry au,        -25.4622 Debye
        Dipole               -2.2572 Ry au,         -5.7373 Debye
        Dipole field         -0.0025 Ry au, 

        Potential amp.        0.2439 Ry
        Total length         48.2953 bohr


     Adding external electric field

     Computed dipole along edir(3) : 
        Elec. dipole        -10.0151 Ry au,        -25.4558 Debye
        Ion. dipole         -10.0176 Ry au,        -25.4622 Debye
        Dipole               -2.2572 Ry au,         -5.7373 Debye
        Dipole field         -0.0025 Ry au, 

        Potential amp.        0.2439 Ry
        Total length         48.2953 bohr


     total cpu time spent up to now is    44824.0 secs

     total energy              =  -33081.81119768 Ry
     estimated scf accuracy    <       0.00003484 Ry

     total magnetization       =     1.93 Bohr mag/cell
     absolute magnetization    =     1.94 Bohr mag/cell

     iteration # 46     ecut=    60.00 Ry     beta= 0.70
     Davidson diagonalization with overlap

---- Real-time Memory Report at c_bands before calling an iterative solver
          1804 MiB given to the printing process from OS
          1341 MiB allocation reported by mallinfo(arena+hblkhd)
        425751 MiB available memory on the node where the printing process lives
------------------
     ethr =  4.22E-10,  avg # of iterations =  1.0

     negative rho (up, down):  6.025E-04 5.687E-04

     Adding external electric field

     Computed dipole along edir(3) : 
        Elec. dipole        -10.0151 Ry au,        -25.4558 Debye
        Ion. dipole         -10.0176 Ry au,        -25.4622 Debye
        Dipole               -2.2575 Ry au,         -5.7381 Debye
        Dipole field         -0.0025 Ry au, 

        Potential amp.        0.2439 Ry
        Total length         48.2953 bohr


     Adding external electric field

     Computed dipole along edir(3) : 
        Elec. dipole        -10.0151 Ry au,        -25.4558 Debye
        Ion. dipole         -10.0176 Ry au,        -25.4622 Debye
        Dipole               -2.2575 Ry au,         -5.7381 Debye
        Dipole field         -0.0025 Ry au, 

        Potential amp.        0.2439 Ry
        Total length         48.2953 bohr


     total cpu time spent up to now is    45722.0 secs

     total energy              =  -33081.81119762 Ry
     estimated scf accuracy    <       0.00003052 Ry

     total magnetization       =     1.93 Bohr mag/cell
     absolute magnetization    =     1.94 Bohr mag/cell

     iteration # 47     ecut=    60.00 Ry     beta= 0.70
     Davidson diagonalization with overlap

---- Real-time Memory Report at c_bands before calling an iterative solver
          1804 MiB given to the printing process from OS
          1341 MiB allocation reported by mallinfo(arena+hblkhd)
        425759 MiB available memory on the node where the printing process lives
------------------
     ethr =  4.22E-10,  avg # of iterations =  1.0

     negative rho (up, down):  6.016E-04 5.681E-04

     Adding external electric field

     Computed dipole along edir(3) : 
        Elec. dipole        -10.0151 Ry au,        -25.4558 Debye
        Ion. dipole         -10.0176 Ry au,        -25.4622 Debye
        Dipole               -2.2577 Ry au,         -5.7384 Debye
        Dipole field         -0.0025 Ry au, 

        Potential amp.        0.2439 Ry
        Total length         48.2953 bohr


     Adding external electric field

     Computed dipole along edir(3) : 
        Elec. dipole        -10.0151 Ry au,        -25.4558 Debye
        Ion. dipole         -10.0176 Ry au,        -25.4622 Debye
        Dipole               -2.2577 Ry au,         -5.7384 Debye
        Dipole field         -0.0025 Ry au, 

        Potential amp.        0.2439 Ry
        Total length         48.2953 bohr


     total cpu time spent up to now is    46619.8 secs

     total energy              =  -33081.81119760 Ry
     estimated scf accuracy    <       0.00002979 Ry

     total magnetization       =     1.93 Bohr mag/cell
     absolute magnetization    =     1.94 Bohr mag/cell

     iteration # 48     ecut=    60.00 Ry     beta= 0.70
     Davidson diagonalization with overlap

---- Real-time Memory Report at c_bands before calling an iterative solver
          1804 MiB given to the printing process from OS
          1341 MiB allocation reported by mallinfo(arena+hblkhd)
        425756 MiB available memory on the node where the printing process lives
------------------
     ethr =  4.22E-10,  avg # of iterations =  1.0

     negative rho (up, down):  6.050E-04 5.717E-04

     Adding external electric field

     Computed dipole along edir(3) : 
        Elec. dipole        -10.0151 Ry au,        -25.4558 Debye
        Ion. dipole         -10.0176 Ry au,        -25.4622 Debye
        Dipole               -2.2574 Ry au,         -5.7378 Debye
        Dipole field         -0.0025 Ry au, 

        Potential amp.        0.2439 Ry
        Total length         48.2953 bohr


     Adding external electric field

     Computed dipole along edir(3) : 
        Elec. dipole        -10.0151 Ry au,        -25.4558 Debye
        Ion. dipole         -10.0176 Ry au,        -25.4622 Debye
        Dipole               -2.2574 Ry au,         -5.7378 Debye
        Dipole field         -0.0025 Ry au, 

        Potential amp.        0.2439 Ry
        Total length         48.2953 bohr


     total cpu time spent up to now is    47519.1 secs

     total energy              =  -33081.81119762 Ry
     estimated scf accuracy    <       0.00002306 Ry

     total magnetization       =     1.93 Bohr mag/cell
     absolute magnetization    =     1.94 Bohr mag/cell

     iteration # 49     ecut=    60.00 Ry     beta= 0.70
     Davidson diagonalization with overlap

---- Real-time Memory Report at c_bands before calling an iterative solver
          1804 MiB given to the printing process from OS
          1341 MiB allocation reported by mallinfo(arena+hblkhd)
        425732 MiB available memory on the node where the printing process lives
------------------
     ethr =  4.22E-10,  avg # of iterations =  1.0

     negative rho (up, down):  5.973E-04 5.636E-04

     Adding external electric field

     Computed dipole along edir(3) : 
        Elec. dipole        -10.0151 Ry au,        -25.4558 Debye
        Ion. dipole         -10.0176 Ry au,        -25.4622 Debye
        Dipole               -2.2578 Ry au,         -5.7388 Debye
        Dipole field         -0.0025 Ry au, 

        Potential amp.        0.2439 Ry
        Total length         48.2953 bohr


     Adding external electric field

     Computed dipole along edir(3) : 
        Elec. dipole        -10.0151 Ry au,        -25.4558 Debye
        Ion. dipole         -10.0176 Ry au,        -25.4622 Debye
        Dipole               -2.2578 Ry au,         -5.7388 Debye
        Dipole field         -0.0025 Ry au, 

        Potential amp.        0.2439 Ry
        Total length         48.2953 bohr


     total cpu time spent up to now is    48413.8 secs

     total energy              =  -33081.81119748 Ry
     estimated scf accuracy    <       0.00002057 Ry

     total magnetization       =     1.93 Bohr mag/cell
     absolute magnetization    =     1.94 Bohr mag/cell

     iteration # 50     ecut=    60.00 Ry     beta= 0.70
     Davidson diagonalization with overlap

---- Real-time Memory Report at c_bands before calling an iterative solver
          1804 MiB given to the printing process from OS
          1341 MiB allocation reported by mallinfo(arena+hblkhd)
        425758 MiB available memory on the node where the printing process lives
------------------
     ethr =  4.22E-10,  avg # of iterations =  2.0

     negative rho (up, down):  5.981E-04 5.648E-04

     Adding external electric field

     Computed dipole along edir(3) : 
        Elec. dipole        -10.0151 Ry au,        -25.4558 Debye
        Ion. dipole         -10.0176 Ry au,        -25.4622 Debye
        Dipole               -2.2578 Ry au,         -5.7387 Debye
        Dipole field         -0.0025 Ry au, 

        Potential amp.        0.2439 Ry
        Total length         48.2953 bohr


     Adding external electric field

     Computed dipole along edir(3) : 
        Elec. dipole        -10.0151 Ry au,        -25.4558 Debye
        Ion. dipole         -10.0176 Ry au,        -25.4622 Debye
        Dipole               -2.2578 Ry au,         -5.7387 Debye
        Dipole field         -0.0025 Ry au, 

        Potential amp.        0.2439 Ry
        Total length         48.2953 bohr


     total cpu time spent up to now is    49447.4 secs

     total energy              =  -33081.81119751 Ry
     estimated scf accuracy    <       0.00000466 Ry

     total magnetization       =     1.94 Bohr mag/cell
     absolute magnetization    =     1.94 Bohr mag/cell

     iteration # 51     ecut=    60.00 Ry     beta= 0.70
     Davidson diagonalization with overlap

---- Real-time Memory Report at c_bands before calling an iterative solver
          1804 MiB given to the printing process from OS
          1341 MiB allocation reported by mallinfo(arena+hblkhd)
        425758 MiB available memory on the node where the printing process lives
------------------
     ethr =  4.22E-10,  avg # of iterations =  1.4

     negative rho (up, down):  6.031E-04 5.701E-04

     Adding external electric field

     Computed dipole along edir(3) : 
        Elec. dipole        -10.0151 Ry au,        -25.4558 Debye
        Ion. dipole         -10.0176 Ry au,        -25.4622 Debye
        Dipole               -2.2574 Ry au,         -5.7379 Debye
        Dipole field         -0.0025 Ry au, 

        Potential amp.        0.2439 Ry
        Total length         48.2953 bohr


     Adding external electric field

     Computed dipole along edir(3) : 
        Elec. dipole        -10.0151 Ry au,        -25.4558 Debye
        Ion. dipole         -10.0176 Ry au,        -25.4622 Debye
        Dipole               -2.2574 Ry au,         -5.7379 Debye
        Dipole field         -0.0025 Ry au, 

        Potential amp.        0.2439 Ry
        Total length         48.2953 bohr


     total cpu time spent up to now is    50405.3 secs

     total energy              =  -33081.81119756 Ry
     estimated scf accuracy    <       0.00000710 Ry

     total magnetization       =     1.94 Bohr mag/cell
     absolute magnetization    =     1.94 Bohr mag/cell

     iteration # 52     ecut=    60.00 Ry     beta= 0.70
     Davidson diagonalization with overlap

---- Real-time Memory Report at c_bands before calling an iterative solver
          1804 MiB given to the printing process from OS
          1341 MiB allocation reported by mallinfo(arena+hblkhd)
        425749 MiB available memory on the node where the printing process lives
------------------
     ethr =  4.22E-10,  avg # of iterations =  1.1

     negative rho (up, down):  6.393E-04 6.064E-04

     Adding external electric field

     Computed dipole along edir(3) : 
        Elec. dipole        -10.0151 Ry au,        -25.4558 Debye
        Ion. dipole         -10.0176 Ry au,        -25.4622 Debye
        Dipole               -2.2552 Ry au,         -5.7322 Debye
        Dipole field         -0.0025 Ry au, 

        Potential amp.        0.2437 Ry
        Total length         48.2953 bohr


     Adding external electric field

     Computed dipole along edir(3) : 
        Elec. dipole        -10.0151 Ry au,        -25.4558 Debye
        Ion. dipole         -10.0176 Ry au,        -25.4622 Debye
        Dipole               -2.2552 Ry au,         -5.7322 Debye
        Dipole field         -0.0025 Ry au, 

        Potential amp.        0.2437 Ry
        Total length         48.2953 bohr


     total cpu time spent up to now is    51311.3 secs

     total energy              =  -33081.81119785 Ry
     estimated scf accuracy    <       0.00000305 Ry

     total magnetization       =     1.94 Bohr mag/cell
     absolute magnetization    =     1.94 Bohr mag/cell

     iteration # 53     ecut=    60.00 Ry     beta= 0.70
     Davidson diagonalization with overlap

---- Real-time Memory Report at c_bands before calling an iterative solver
          1804 MiB given to the printing process from OS
          1341 MiB allocation reported by mallinfo(arena+hblkhd)
        425751 MiB available memory on the node where the printing process lives
------------------
     ethr =  4.22E-10,  avg # of iterations =  1.0

     negative rho (up, down):  6.255E-04 5.907E-04

     Adding external electric field

     Computed dipole along edir(3) : 
        Elec. dipole        -10.0151 Ry au,        -25.4558 Debye
        Ion. dipole         -10.0176 Ry au,        -25.4622 Debye
        Dipole               -2.2557 Ry au,         -5.7333 Debye
        Dipole field         -0.0025 Ry au, 

        Potential amp.        0.2437 Ry
        Total length         48.2953 bohr


     Adding external electric field

     Computed dipole along edir(3) : 
        Elec. dipole        -10.0151 Ry au,        -25.4558 Debye
        Ion. dipole         -10.0176 Ry au,        -25.4622 Debye
        Dipole               -2.2557 Ry au,         -5.7333 Debye
        Dipole field         -0.0025 Ry au, 

        Potential amp.        0.2437 Ry
        Total length         48.2953 bohr


     total cpu time spent up to now is    52206.4 secs

     total energy              =  -33081.81119795 Ry
     estimated scf accuracy    <       0.00000237 Ry

     total magnetization       =     1.93 Bohr mag/cell
     absolute magnetization    =     1.94 Bohr mag/cell

     iteration # 54     ecut=    60.00 Ry     beta= 0.70
     Davidson diagonalization with overlap

---- Real-time Memory Report at c_bands before calling an iterative solver
          1804 MiB given to the printing process from OS
          1341 MiB allocation reported by mallinfo(arena+hblkhd)
        425751 MiB available memory on the node where the printing process lives
------------------
     ethr =  3.63E-10,  avg # of iterations =  2.0

     negative rho (up, down):  6.172E-04 5.837E-04

     Adding external electric field

     Computed dipole along edir(3) : 
        Elec. dipole        -10.0151 Ry au,        -25.4558 Debye
        Ion. dipole         -10.0176 Ry au,        -25.4622 Debye
        Dipole               -2.2557 Ry au,         -5.7335 Debye
        Dipole field         -0.0025 Ry au, 

        Potential amp.        0.2437 Ry
        Total length         48.2953 bohr


     Adding external electric field

     Computed dipole along edir(3) : 
        Elec. dipole        -10.0151 Ry au,        -25.4558 Debye
        Ion. dipole         -10.0176 Ry au,        -25.4622 Debye
        Dipole               -2.2557 Ry au,         -5.7335 Debye
        Dipole field         -0.0025 Ry au, 

        Potential amp.        0.2437 Ry
        Total length         48.2953 bohr


     total cpu time spent up to now is    53243.1 secs

     total energy              =  -33081.81119754 Ry
     estimated scf accuracy    <       0.00000373 Ry

     total magnetization       =     1.93 Bohr mag/cell
     absolute magnetization    =     1.94 Bohr mag/cell

     iteration # 55     ecut=    60.00 Ry     beta= 0.70
     Davidson diagonalization with overlap

---- Real-time Memory Report at c_bands before calling an iterative solver
          1804 MiB given to the printing process from OS
          1341 MiB allocation reported by mallinfo(arena+hblkhd)
        425749 MiB available memory on the node where the printing process lives
------------------
     ethr =  3.63E-10,  avg # of iterations =  2.0

     negative rho (up, down):  6.005E-04 5.667E-04

     Adding external electric field

     Computed dipole along edir(3) : 
        Elec. dipole        -10.0151 Ry au,        -25.4558 Debye
        Ion. dipole         -10.0176 Ry au,        -25.4622 Debye
        Dipole               -2.2573 Ry au,         -5.7376 Debye
        Dipole field         -0.0025 Ry au, 

        Potential amp.        0.2439 Ry
        Total length         48.2953 bohr


     Adding external electric field

     Computed dipole along edir(3) : 
        Elec. dipole        -10.0151 Ry au,        -25.4558 Debye
        Ion. dipole         -10.0176 Ry au,        -25.4622 Debye
        Dipole               -2.2573 Ry au,         -5.7376 Debye
        Dipole field         -0.0025 Ry au, 

        Potential amp.        0.2439 Ry
        Total length         48.2953 bohr


     total cpu time spent up to now is    54279.8 secs

     total energy              =  -33081.81119732 Ry
     estimated scf accuracy    <       0.00005380 Ry

     total magnetization       =     1.94 Bohr mag/cell
     absolute magnetization    =     1.94 Bohr mag/cell

     iteration # 56     ecut=    60.00 Ry     beta= 0.70
     Davidson diagonalization with overlap

---- Real-time Memory Report at c_bands before calling an iterative solver
          1804 MiB given to the printing process from OS
          1341 MiB allocation reported by mallinfo(arena+hblkhd)
        425757 MiB available memory on the node where the printing process lives
------------------
     ethr =  3.63E-10,  avg # of iterations =  2.0

     negative rho (up, down):  5.730E-04 5.399E-04

     Adding external electric field

     Computed dipole along edir(3) : 
        Elec. dipole        -10.0151 Ry au,        -25.4558 Debye
        Ion. dipole         -10.0176 Ry au,        -25.4622 Debye
        Dipole               -2.2613 Ry au,         -5.7477 Debye
        Dipole field         -0.0025 Ry au, 

        Potential amp.        0.2443 Ry
        Total length         48.2953 bohr


     Adding external electric field

     Computed dipole along edir(3) : 
        Elec. dipole        -10.0151 Ry au,        -25.4558 Debye
        Ion. dipole         -10.0176 Ry au,        -25.4622 Debye
        Dipole               -2.2613 Ry au,         -5.7477 Debye
        Dipole field         -0.0025 Ry au, 

        Potential amp.        0.2443 Ry
        Total length         48.2953 bohr


     Magnetic moment per site  (integrated on atomic sphere of radius R)
     atom   1 (R=0.134)  charge= 15.8689  magn=  0.0001
     atom   2 (R=0.134)  charge= 15.8690  magn=  0.0001
     atom   3 (R=0.134)  charge= 15.8688  magn=  0.0001
     atom   4 (R=0.134)  charge= 15.8692  magn=  0.0001
     atom   5 (R=0.134)  charge= 15.8688  magn=  0.0001
     atom   6 (R=0.134)  charge= 15.8688  magn=  0.0001
     atom   7 (R=0.134)  charge= 15.8692  magn=  0.0001
     atom   8 (R=0.134)  charge= 15.8690  magn=  0.0000
     atom   9 (R=0.134)  charge= 15.8692  magn=  0.0001
     atom  10 (R=0.134)  charge= 15.9206  magn=  0.0003
     atom  11 (R=0.134)  charge= 15.9178  magn=  0.0002
     atom  12 (R=0.134)  charge= 15.9178  magn=  0.0002
     atom  13 (R=0.134)  charge= 15.9221  magn=  0.0004
     atom  14 (R=0.134)  charge= 15.9180  magn=  0.0002
     atom  15 (R=0.134)  charge= 15.9221  magn=  0.0004
     atom  16 (R=0.134)  charge= 15.9205  magn=  0.0003
     atom  17 (R=0.134)  charge= 15.9206  magn=  0.0003
     atom  18 (R=0.134)  charge= 15.9219  magn=  0.0004
     atom  19 (R=0.134)  charge= 15.9114  magn=  0.0005
     atom  20 (R=0.134)  charge= 15.9114  magn=  0.0005
     atom  21 (R=0.134)  charge= 15.8909  magn=  0.0000
     atom  22 (R=0.134)  charge= 15.9226  magn=  0.0003
     atom  23 (R=0.134)  charge= 15.9113  magn=  0.0005
     atom  24 (R=0.134)  charge= 15.9113  magn=  0.0005
     atom  25 (R=0.134)  charge= 15.9113  magn=  0.0005
     atom  26 (R=0.134)  charge= 15.9188  magn=  0.0008
     atom  27 (R=0.134)  charge= 15.9114  magn=  0.0005
     atom  28 (R=0.134)  charge= 15.8640  magn=  0.0002
     atom  29 (R=0.134)  charge= 15.8640  magn=  0.0002
     atom  30 (R=0.134)  charge= 15.8368  magn=  0.0007
     atom  31 (R=0.134)  charge= 15.8731  magn=  0.0001
     atom  32 (R=0.134)  charge= 15.8368  magn=  0.0007
     atom  33 (R=0.134)  charge= 15.8369  magn=  0.0007
     atom  34 (R=0.134)  charge= 15.8732  magn=  0.0001
     atom  35 (R=0.134)  charge= 15.8636  magn=  0.0002
     atom  36 (R=0.134)  charge= 15.8732  magn=  0.0001
     atom  37 (R=0.258)  charge=  6.0610  magn=  1.9262

     total cpu time spent up to now is    55314.5 secs

     End of self-consistent calculation

 ------ SPIN UP ------------


          k = 0.0000 0.0000 0.0000 ( 88097 PWs)   bands (ev):

   -95.5314 -95.5229 -95.5189 -95.5188 -95.5183 -95.5131 -95.5121 -95.5117
   -95.4990 -95.4939 -95.4936 -95.4922 -95.4886 -95.4886 -95.4869 -95.4868
   -95.4823 -95.3854 -95.1310 -95.1243 -95.1237 -95.0910 -95.0838 -95.0819
   -95.0804 -95.0696 -95.0693 -95.0691 -95.0658 -95.0657 -95.0624 -95.0572
   -95.0570 -94.8839 -94.8815 -94.8796 -49.8003 -49.7870 -49.7781 -49.7766
   -49.7712 -49.7697 -49.7685 -49.7638 -49.7637 -49.7571 -49.7563 -49.7562
   -49.7499 -49.7483 -49.7434 -49.7428 -49.7270 -49.7267 -49.7242 -49.6901
   -49.6897 -49.6815 -49.6738 -49.6733 -49.6544 -49.6542 -49.6533 -49.6121
   -49.6118 -49.6090 -49.5995 -49.5955 -49.5954 -49.5947 -49.5896 -49.5801
   -49.5797 -49.5779 -49.5768 -49.5766 -49.5759 -49.5733 -49.5730 -49.5467
   -49.5458 -49.5428 -49.5318 -49.5288 -49.5278 -49.5145 -49.5135 -49.4687
   -49.4679 -49.4573 -49.4409 -49.4408 -49.4238 -49.4124 -49.4119 -49.4067
   -49.3976 -49.3855 -49.3833 -49.3833 -49.3818 -49.3817 -49.3815 -49.3742
   -49.3730 -49.3656 -49.3655 -49.3000 -49.2987 -49.2622 -49.2412 -49.2405
   -49.2240 -49.2236 -49.2234 -49.2209 -49.2209 -49.2192 -49.1741 -49.1667
   -49.1664 -49.1177 -49.1176 -49.0871 -49.0624 -49.0623 -49.0413 -49.0294
   -49.0285 -49.0132 -49.0111 -49.0002 -48.9984 -48.9946 -48.9944 -48.9941
   -48.9896 -48.9895 -48.9863 -48.9779 -48.9776 -48.7980 -48.7928 -48.7904
   -15.0520  -6.1921  -4.8885  -3.8020  -3.7509  -3.7130  -3.7118  -3.7041
    -3.6920  -3.6919  -3.6525  -3.1419  -3.1408  -3.1381  -3.1096  -3.1089
    -3.0673  -2.6588  -2.6581  -2.6491  -2.6184  -2.6184  -2.5898  -2.4230
    -2.4229  -2.4027  -2.3900  -2.3673  -2.3671  -2.2087  -2.2084  -2.1927
    -2.1651  -2.1568  -2.1566  -2.1364  -2.1360  -2.1285  -2.0751  -2.0734
    -2.0247  -1.5490  -1.5483  -1.4984  -1.4984  -1.4720  -1.4719  -1.4629
    -1.3829  -1.3822  -1.3650  -1.3032  -1.3030  -1.1679  -1.1671  -0.7079
    -0.7067  -0.6960  -0.6737  -0.6729  -0.6557  -0.6065  -0.5054  -0.5053
    -0.4964  -0.4899  -0.4792  -0.4790  -0.4676  -0.4569  -0.4569  -0.4402
    -0.4280  -0.4263  -0.3941  -0.3528  -0.3517  -0.2638  -0.2622  -0.2340
    -0.2217  -0.2207  -0.2183  -0.0458  -0.0445  -0.0315   0.0060   0.0071
     0.0170   0.0249   0.0337   0.0337   0.0501   0.0509   0.1318   0.1319
     0.1446   0.1457   0.1531   0.1535   0.1987   0.1988   0.2015   0.2096
     0.3403   0.3422   0.3434   0.4119   0.4199   0.4221   0.4354   0.8851
     0.8858   0.9116   0.9218   0.9232   0.9321   0.9567   0.9580   0.9888
     0.9963   1.0161   1.0169   1.0773   1.0789   1.1122   1.1124   1.1758
     1.1847   1.1848   1.3140   1.3834   1.3838   1.4158   1.4201   1.4608
     1.4684   1.6779   1.7036   1.7045   1.7176   1.7184   1.7454   1.8104
     1.8104   1.9031   1.9038   1.9314   1.9413   1.9417   1.9553   2.1129
     2.1260   2.1273   2.1458   2.1530   2.1531   2.1596   2.1603   2.1606
     2.1896   2.1901   2.1902   2.2530   2.3014   2.3014   2.3375   2.3382
     2.3650   2.3708   2.3715   2.3940   2.4440   2.4452   2.4676   2.4676
     2.4928   2.5155   2.5156   2.5480   2.5615   2.5617   2.5860   2.6106
     2.6107   2.6740   2.6742   2.6767   2.6796   2.6913   2.6927   2.7057
     2.9068   2.9112   2.9987   3.0140   3.0144   3.0307   3.0313   3.0323
     3.7435   3.7972   3.7980   3.8378   3.8508   3.8518   3.8546   6.1166
     6.1252   6.1269   6.1712   6.1734   6.1833   7.6445   7.6458   7.6923
     7.7018   7.7021   7.7184   8.4061   8.4063   8.6240   8.9562   8.9583
     8.9886   9.0346   9.0379   9.0725   9.5118   9.5603   9.5605   9.5840
     9.7678  10.2378  10.2659  10.2671  10.7273  10.8015  10.8036  10.8814
    10.9042  10.9062  10.9623  11.3455  11.3691  11.3709  11.4086  11.7013

     occupation numbers 
     1.0000   1.0000   1.0000   1.0000   1.0000   1.0000   1.0000   1.0000
     1.0000   1.0000   1.0000   1.0000   1.0000   1.0000   1.0000   1.0000
     1.0000   1.0000   1.0000   1.0000   1.0000   1.0000   1.0000   1.0000
     1.0000   1.0000   1.0000   1.0000   1.0000   1.0000   1.0000   1.0000
     1.0000   1.0000   1.0000   1.0000   1.0000   1.0000   1.0000   1.0000
     1.0000   1.0000   1.0000   1.0000   1.0000   1.0000   1.0000   1.0000
     1.0000   1.0000   1.0000   1.0000   1.0000   1.0000   1.0000   1.0000
     1.0000   1.0000   1.0000   1.0000   1.0000   1.0000   1.0000   1.0000
     1.0000   1.0000   1.0000   1.0000   1.0000   1.0000   1.0000   1.0000
     1.0000   1.0000   1.0000   1.0000   1.0000   1.0000   1.0000   1.0000
     1.0000   1.0000   1.0000   1.0000   1.0000   1.0000   1.0000   1.0000
     1.0000   1.0000   1.0000   1.0000   1.0000   1.0000   1.0000   1.0000
     1.0000   1.0000   1.0000   1.0000   1.0000   1.0000   1.0000   1.0000
     1.0000   1.0000   1.0000   1.0000   1.0000   1.0000   1.0000   1.0000
     1.0000   1.0000   1.0000   1.0000   1.0000   1.0000   1.0000   1.0000
     1.0000   1.0000   1.0000   1.0000   1.0000   1.0000   1.0000   1.0000
     1.0000   1.0000   1.0000   1.0000   1.0000   1.0000   1.0000   1.0000
     1.0000   1.0000   1.0000   1.0000   1.0000   1.0000   1.0000   1.0000
     1.0000   1.0000   1.0000   1.0000   1.0000   1.0000   1.0000   1.0000
     1.0000   1.0000   1.0000   1.0000   1.0000   1.0000   1.0000   1.0000
     1.0000   1.0000   1.0000   1.0000   1.0000   1.0000   1.0000   1.0000
     1.0000   1.0000   1.0000   1.0000   1.0000   1.0000   1.0000   1.0000
     1.0000   1.0000   1.0000   1.0000   1.0000   1.0000   1.0000   1.0000
     1.0000   1.0000   1.0000   1.0000   1.0000   1.0000   1.0000   1.0000
     1.0000   1.0000   1.0000   1.0000   1.0000   1.0000   1.0000   1.0000
     1.0000   1.0000   1.0000   1.0000   1.0000   1.0000   1.0000   1.0000
     1.0000   1.0000   1.0000   1.0000   1.0000   1.0000   1.0000   1.0000
     1.0000   1.0000   1.0000   1.0000   1.0000   1.0000   1.0000   1.0000
     1.0000   1.0000   1.0000   1.0000   1.0000   1.0000   1.0000   1.0000
     1.0000   1.0000   1.0000   1.0000   1.0000   1.0000   1.0000   1.0000
     1.0000   1.0000   1.0000   1.0000   1.0000   1.0000   1.0000   1.0000
     1.0000   1.0000   1.0000   1.0000   1.0000   1.0000   1.0000   1.0000
     1.0000   1.0000   1.0000   1.0000   1.0000   1.0000   1.0000   1.0000
     1.0000   1.0000   1.0000   1.0000   1.0000   1.0000   1.0000   1.0000
     1.0000   1.0000   1.0000   1.0000   1.0000   1.0000   1.0000   1.0000
     1.0000   1.0000   1.0000   1.0000   1.0000   1.0000   1.0000   1.0000
     1.0000   1.0000   1.0000   1.0000   1.0000   1.0000   1.0000   1.0000
     1.0000   1.0000   1.0000   1.0000   1.0000   1.0000   1.0000   1.0000
     1.0000   1.0000   1.0000   1.0000   1.0000   1.0000   1.0000   1.0000
     1.0000   1.0000   1.0000   1.0000   0.9999   0.9999   0.9999   0.9999
     0.9999   0.9998   0.9998   0.9996   0.9994   0.9994   0.9990   0.9984
     0.9984   0.9945   0.9944   0.9942   0.9938   0.9922   0.9920   0.9896
     0.6307   0.6103   0.2137   0.1668   0.1657   0.1254   0.1240   0.1219
     0.0000   0.0000   0.0000   0.0000   0.0000   0.0000   0.0000   0.0000
     0.0000   0.0000   0.0000   0.0000   0.0000   0.0000   0.0000   0.0000
     0.0000   0.0000   0.0000   0.0000   0.0000   0.0000   0.0000   0.0000
     0.0000   0.0000   0.0000   0.0000   0.0000   0.0000   0.0000   0.0000
     0.0000   0.0000   0.0000   0.0000   0.0000   0.0000   0.0000   0.0000
     0.0000   0.0000   0.0000   0.0000   0.0000   0.0000   0.0000   0.0000

          k = 0.0000 0.1925 0.0000 ( 88230 PWs)   bands (ev):

   -95.5310 -95.5234 -95.5189 -95.5188 -95.5183 -95.5134 -95.5118 -95.5116
   -95.4990 -95.4940 -95.4937 -95.4921 -95.4890 -95.4888 -95.4866 -95.4863
   -95.4826 -95.3854 -95.1309 -95.1244 -95.1238 -95.0910 -95.0838 -95.0819
   -95.0799 -95.0713 -95.0696 -95.0680 -95.0661 -95.0654 -95.0620 -95.0574
   -95.0570 -94.8839 -94.8815 -94.8796 -49.8124 -49.7993 -49.7946 -49.7897
   -49.7806 -49.7767 -49.7747 -49.7715 -49.7696 -49.7560 -49.7542 -49.7531
   -49.7477 -49.7379 -49.7329 -49.7326 -49.7201 -49.7131 -49.7014 -49.6779
   -49.6776 -49.6767 -49.6711 -49.6664 -49.6519 -49.6513 -49.6447 -49.6161
   -49.6157 -49.6058 -49.6028 -49.6027 -49.5962 -49.5949 -49.5931 -49.5829
   -49.5812 -49.5797 -49.5782 -49.5773 -49.5716 -49.5696 -49.5673 -49.5521
   -49.5509 -49.5458 -49.5340 -49.5337 -49.5258 -49.5210 -49.5145 -49.4753
   -49.4693 -49.4581 -49.4502 -49.4474 -49.4358 -49.4187 -49.4140 -49.4114
   -49.4013 -49.4008 -49.3940 -49.3939 -49.3869 -49.3837 -49.3610 -49.3608
   -49.3409 -49.3401 -49.3366 -49.2979 -49.2938 -49.2650 -49.2449 -49.2404
   -49.2330 -49.2325 -49.2308 -49.2206 -49.2201 -49.2097 -49.1756 -49.1686
   -49.1681 -49.1199 -49.1155 -49.0887 -49.0682 -49.0639 -49.0408 -49.0294
   -49.0289 -49.0125 -49.0107 -49.0002 -48.9985 -48.9974 -48.9948 -48.9927
   -48.9899 -48.9889 -48.9851 -48.9781 -48.9777 -48.7980 -48.7928 -48.7904
   -15.0520  -6.0878  -4.7860  -4.1349  -3.8195  -3.8169  -3.6961  -3.6046
    -3.5155  -3.5030  -3.4922  -3.2290  -3.1773  -3.0939  -3.0768  -3.0561
    -3.0312  -2.6915  -2.6100  -2.6081  -2.6008  -2.5722  -2.5486  -2.5264
    -2.4609  -2.4508  -2.3593  -2.3430  -2.3265  -2.2558  -2.2519  -2.2377
    -2.2226  -2.2081  -2.1859  -2.1636  -2.0186  -1.9993  -1.9520  -1.9319
    -1.8970  -1.6328  -1.6295  -1.6022  -1.5580  -1.5452  -1.5049  -1.4922
    -1.3614  -1.3413  -1.2829  -1.2612  -1.2318  -1.1752  -1.1514  -0.9052
    -0.8023  -0.8010  -0.7736  -0.7732  -0.7516  -0.6699  -0.6691  -0.6507
    -0.6222  -0.6190  -0.6000  -0.5543  -0.5203  -0.4922  -0.4695  -0.4535
    -0.3910  -0.3649  -0.3516  -0.3025  -0.2965  -0.2952  -0.2514  -0.1834
    -0.1760  -0.1526  -0.1165  -0.0580  -0.0486  -0.0436  -0.0272  -0.0094
     0.0085   0.0100   0.0167   0.0332   0.0337   0.0343   0.0769   0.0810
     0.1159   0.1396   0.1518   0.1757   0.1937   0.2619   0.2727   0.3103
     0.3237   0.3448   0.3931   0.3964   0.4010   0.4060   0.4185   0.4766
     0.4832   0.5140   0.5529   0.6508   0.6882   0.8893   0.9369   0.9556
     0.9584   0.9772   0.9783   1.0295   1.0296   1.1134   1.1447   1.2681
     1.3299   1.3617   1.3879   1.3892   1.3964   1.4081   1.4206   1.4262
     1.4313   1.5357   1.5406   1.5982   1.6037   1.6667   1.6926   1.8136
     1.8187   1.8216   1.8482   1.8782   1.9073   1.9597   1.9600   1.9717
     2.0424   2.0474   2.0701   2.0730   2.0894   2.0940   2.1106   2.1774
     2.1975   2.2362   2.2447   2.3376   2.3687   2.3715   2.4087   2.4266
     2.4663   2.4699   2.5229   2.5280   2.5380   2.5536   2.5599   2.5675
     2.5898   2.6029   2.6204   2.6358   2.6425   2.7045   2.7152   2.8763
     2.8890   2.8919   2.9089   2.9270   2.9276   2.9499   2.9741   2.9800
     2.9864   2.9940   3.0049   3.0067   3.1029   3.1322   3.1336   3.2055
     3.4209   3.7145   3.7281   4.2487   4.2617   4.3010   4.3864   5.5699
     5.9231   5.9270   6.5707   6.5741   6.7688   6.7689   6.8160   7.7650
     7.7808   7.8290   7.8434   8.1640   8.5281   8.5288   8.6780   8.7062
     8.7539   8.9487   8.9750   9.2476   9.3801   9.3902   9.6069   9.6596
     9.8168  10.1446  10.2281  10.3130  10.5033  10.5138  10.5680  10.6125
    10.7953  10.8221  10.8595  10.9208  10.9273  11.0910  11.2385  11.3101

     occupation numbers 
     1.0000   1.0000   1.0000   1.0000   1.0000   1.0000   1.0000   1.0000
     1.0000   1.0000   1.0000   1.0000   1.0000   1.0000   1.0000   1.0000
     1.0000   1.0000   1.0000   1.0000   1.0000   1.0000   1.0000   1.0000
     1.0000   1.0000   1.0000   1.0000   1.0000   1.0000   1.0000   1.0000
     1.0000   1.0000   1.0000   1.0000   1.0000   1.0000   1.0000   1.0000
     1.0000   1.0000   1.0000   1.0000   1.0000   1.0000   1.0000   1.0000
     1.0000   1.0000   1.0000   1.0000   1.0000   1.0000   1.0000   1.0000
     1.0000   1.0000   1.0000   1.0000   1.0000   1.0000   1.0000   1.0000
     1.0000   1.0000   1.0000   1.0000   1.0000   1.0000   1.0000   1.0000
     1.0000   1.0000   1.0000   1.0000   1.0000   1.0000   1.0000   1.0000
     1.0000   1.0000   1.0000   1.0000   1.0000   1.0000   1.0000   1.0000
     1.0000   1.0000   1.0000   1.0000   1.0000   1.0000   1.0000   1.0000
     1.0000   1.0000   1.0000   1.0000   1.0000   1.0000   1.0000   1.0000
     1.0000   1.0000   1.0000   1.0000   1.0000   1.0000   1.0000   1.0000
     1.0000   1.0000   1.0000   1.0000   1.0000   1.0000   1.0000   1.0000
     1.0000   1.0000   1.0000   1.0000   1.0000   1.0000   1.0000   1.0000
     1.0000   1.0000   1.0000   1.0000   1.0000   1.0000   1.0000   1.0000
     1.0000   1.0000   1.0000   1.0000   1.0000   1.0000   1.0000   1.0000
     1.0000   1.0000   1.0000   1.0000   1.0000   1.0000   1.0000   1.0000
     1.0000   1.0000   1.0000   1.0000   1.0000   1.0000   1.0000   1.0000
     1.0000   1.0000   1.0000   1.0000   1.0000   1.0000   1.0000   1.0000
     1.0000   1.0000   1.0000   1.0000   1.0000   1.0000   1.0000   1.0000
     1.0000   1.0000   1.0000   1.0000   1.0000   1.0000   1.0000   1.0000
     1.0000   1.0000   1.0000   1.0000   1.0000   1.0000   1.0000   1.0000
     1.0000   1.0000   1.0000   1.0000   1.0000   1.0000   1.0000   1.0000
     1.0000   1.0000   1.0000   1.0000   1.0000   1.0000   1.0000   1.0000
     1.0000   1.0000   1.0000   1.0000   1.0000   1.0000   1.0000   1.0000
     1.0000   1.0000   1.0000   1.0000   1.0000   1.0000   1.0000   1.0000
     1.0000   1.0000   1.0000   1.0000   1.0000   1.0000   1.0000   1.0000
     1.0000   1.0000   1.0000   1.0000   1.0000   1.0000   1.0000   1.0000
     1.0000   1.0000   1.0000   1.0000   1.0000   1.0000   1.0000   1.0000
     1.0000   1.0000   1.0000   1.0000   1.0000   1.0000   1.0000   1.0000
     1.0000   1.0000   1.0000   1.0000   1.0000   1.0000   1.0000   1.0000
     1.0000   1.0000   1.0000   1.0000   1.0000   1.0000   1.0000   1.0000
     1.0000   1.0000   1.0000   1.0000   1.0000   1.0000   1.0000   1.0000
     1.0000   1.0000   1.0000   1.0000   1.0000   1.0000   1.0000   1.0000
     1.0000   1.0000   1.0000   1.0000   1.0000   1.0000   1.0000   1.0000
     1.0000   1.0000   1.0000   1.0000   1.0000   1.0000   1.0000   1.0000
     1.0000   1.0000   1.0000   1.0000   1.0000   1.0000   1.0000   1.0000
     0.9999   0.9999   0.9997   0.9997   0.9996   0.9995   0.9994   0.9993
     0.9990   0.9987   0.9981   0.9974   0.9970   0.9899   0.9875   0.7588
     0.7093   0.6973   0.6211   0.5329   0.5298   0.4192   0.3078   0.2832
     0.2579   0.2300   0.1938   0.1882   0.0328   0.0185   0.0180   0.0043
     0.0001   0.0000   0.0000   0.0000   0.0000   0.0000   0.0000   0.0000
     0.0000   0.0000   0.0000   0.0000   0.0000   0.0000   0.0000   0.0000
     0.0000   0.0000   0.0000   0.0000   0.0000   0.0000   0.0000   0.0000
     0.0000   0.0000   0.0000   0.0000   0.0000   0.0000   0.0000   0.0000
     0.0000   0.0000   0.0000   0.0000   0.0000   0.0000   0.0000   0.0000
     0.0000   0.0000   0.0000   0.0000   0.0000   0.0000   0.0000   0.0000

          k = 0.0000 0.3849 0.0000 ( 88170 PWs)   bands (ev):

   -95.5300 -95.5246 -95.5191 -95.5189 -95.5181 -95.5137 -95.5114 -95.5113
   -95.4990 -95.4942 -95.4938 -95.4919 -95.4895 -95.4892 -95.4861 -95.4853
   -95.4832 -95.3854 -95.1308 -95.1244 -95.1240 -95.0909 -95.0838 -95.0819
   -95.0786 -95.0737 -95.0699 -95.0680 -95.0657 -95.0649 -95.0613 -95.0576
   -95.0570 -94.8839 -94.8815 -94.8795 -49.8341 -49.8134 -49.8077 -49.8024
   -49.7888 -49.7873 -49.7839 -49.7830 -49.7733 -49.7647 -49.7641 -49.7579
   -49.7432 -49.7318 -49.7153 -49.7142 -49.6897 -49.6867 -49.6707 -49.6678
   -49.6632 -49.6600 -49.6599 -49.6581 -49.6454 -49.6451 -49.6268 -49.6217
   -49.6184 -49.6126 -49.6049 -49.6030 -49.6028 -49.5964 -49.5898 -49.5898
   -49.5830 -49.5818 -49.5805 -49.5773 -49.5702 -49.5701 -49.5620 -49.5615
   -49.5568 -49.5502 -49.5474 -49.5404 -49.5381 -49.5267 -49.5128 -49.4907
   -49.4726 -49.4679 -49.4570 -49.4563 -49.4415 -49.4381 -49.4176 -49.4171
   -49.4133 -49.4126 -49.4091 -49.4090 -49.3693 -49.3504 -49.3423 -49.3420
   -49.3087 -49.3083 -49.2945 -49.2913 -49.2877 -49.2715 -49.2513 -49.2511
   -49.2489 -49.2399 -49.2379 -49.2245 -49.2239 -49.2012 -49.1970 -49.1750
   -49.1555 -49.1225 -49.1101 -49.0928 -49.0832 -49.0670 -49.0399 -49.0299
   -49.0293 -49.0113 -49.0091 -49.0013 -49.0002 -48.9986 -48.9954 -48.9932
   -48.9888 -48.9877 -48.9838 -48.9787 -48.9780 -48.7981 -48.7928 -48.7903
   -15.0520  -5.7836  -4.7228  -4.4889  -3.8655  -3.8645  -3.5718  -3.4585
    -3.3952  -3.3250  -3.2606  -3.2234  -3.2226  -2.9966  -2.9643  -2.9121
    -2.9059  -2.8057  -2.6686  -2.6137  -2.5753  -2.5742  -2.5377  -2.5323
    -2.5127  -2.5035  -2.4591  -2.4284  -2.3495  -2.3256  -2.3101  -2.2966
    -2.0934  -2.0903  -2.0488  -2.0350  -2.0085  -2.0053  -1.8117  -1.8060
    -1.7291  -1.7102  -1.6785  -1.6101  -1.5617  -1.5612  -1.5357  -1.5074
    -1.3728  -1.3676  -1.3106  -1.2851  -1.2693  -1.2645  -1.1763  -1.1471
    -1.1202  -1.0109  -0.9304  -0.9266  -0.9069  -0.7916  -0.7575  -0.7270
    -0.7241  -0.6901  -0.6839  -0.6641  -0.5998  -0.4683  -0.4536  -0.4417
    -0.4324  -0.4028  -0.3776  -0.3694  -0.3354  -0.3037  -0.3018  -0.2360
    -0.2359  -0.2178  -0.2032  -0.1843  -0.1751  -0.1703  -0.1640  -0.1210
    -0.1110  -0.0788  -0.0492  -0.0258  -0.0156   0.0120   0.0178   0.0336
     0.0337   0.1275   0.1462   0.1495   0.1713   0.1788   0.2202   0.2842
     0.2881   0.3040   0.3102   0.3415   0.4070   0.4870   0.4930   0.5480
     0.5569   0.6005   0.6140   0.6968   0.7271   0.8733   0.8948   0.8957
     0.9211   0.9227   0.9405   0.9498   0.9701   0.9706   1.0540   1.0658
     1.0957   1.0964   1.1299   1.1786   1.2423   1.2804   1.3030   1.3340
     1.4681   1.4813   1.5031   1.5113   1.5225   1.5348   1.6865   1.7558
     1.7631   1.7814   1.7821   1.8186   1.8267   1.8617   1.8990   1.9153
     1.9751   1.9923   2.0374   2.1011   2.1142   2.1177   2.1300   2.1370
     2.1601   2.1811   2.3342   2.3731   2.3939   2.4207   2.4367   2.4378
     2.4644   2.5357   2.5532   2.5997   2.6422   2.6449   2.6553   2.6620
     2.7638   2.7862   2.7926   2.8426   2.8500   2.8778   2.8882   2.9050
     2.9298   2.9686   3.0576   3.0999   3.1183   3.1247   3.1395   3.1400
     3.3124   3.3232   3.3606   3.7232   3.7357   3.8087   3.8093   3.8245
     4.1006   4.1307   4.2804   5.0066   5.0547   5.1368   5.1573   5.2259
     5.7994   5.8025   5.8278   5.8310   6.5477   6.5713   7.0219   7.1946
     7.2863   7.2913   7.7417   7.7651   8.2217   8.2354   8.5516   8.5581
     8.5802   8.9115   9.0963   9.1619   9.1818   9.4563   9.4609   9.5605
     9.5640   9.6831   9.9264   9.9732  10.1487  10.1980  10.2642  10.2842
    10.3997  10.4356  10.5263  10.6739  11.0169  11.1386  11.1859  11.2114

     occupation numbers 
     1.0000   1.0000   1.0000   1.0000   1.0000   1.0000   1.0000   1.0000
     1.0000   1.0000   1.0000   1.0000   1.0000   1.0000   1.0000   1.0000
     1.0000   1.0000   1.0000   1.0000   1.0000   1.0000   1.0000   1.0000
     1.0000   1.0000   1.0000   1.0000   1.0000   1.0000   1.0000   1.0000
     1.0000   1.0000   1.0000   1.0000   1.0000   1.0000   1.0000   1.0000
     1.0000   1.0000   1.0000   1.0000   1.0000   1.0000   1.0000   1.0000
     1.0000   1.0000   1.0000   1.0000   1.0000   1.0000   1.0000   1.0000
     1.0000   1.0000   1.0000   1.0000   1.0000   1.0000   1.0000   1.0000
     1.0000   1.0000   1.0000   1.0000   1.0000   1.0000   1.0000   1.0000
     1.0000   1.0000   1.0000   1.0000   1.0000   1.0000   1.0000   1.0000
     1.0000   1.0000   1.0000   1.0000   1.0000   1.0000   1.0000   1.0000
     1.0000   1.0000   1.0000   1.0000   1.0000   1.0000   1.0000   1.0000
     1.0000   1.0000   1.0000   1.0000   1.0000   1.0000   1.0000   1.0000
     1.0000   1.0000   1.0000   1.0000   1.0000   1.0000   1.0000   1.0000
     1.0000   1.0000   1.0000   1.0000   1.0000   1.0000   1.0000   1.0000
     1.0000   1.0000   1.0000   1.0000   1.0000   1.0000   1.0000   1.0000
     1.0000   1.0000   1.0000   1.0000   1.0000   1.0000   1.0000   1.0000
     1.0000   1.0000   1.0000   1.0000   1.0000   1.0000   1.0000   1.0000
     1.0000   1.0000   1.0000   1.0000   1.0000   1.0000   1.0000   1.0000
     1.0000   1.0000   1.0000   1.0000   1.0000   1.0000   1.0000   1.0000
     1.0000   1.0000   1.0000   1.0000   1.0000   1.0000   1.0000   1.0000
     1.0000   1.0000   1.0000   1.0000   1.0000   1.0000   1.0000   1.0000
     1.0000   1.0000   1.0000   1.0000   1.0000   1.0000   1.0000   1.0000
     1.0000   1.0000   1.0000   1.0000   1.0000   1.0000   1.0000   1.0000
     1.0000   1.0000   1.0000   1.0000   1.0000   1.0000   1.0000   1.0000
     1.0000   1.0000   1.0000   1.0000   1.0000   1.0000   1.0000   1.0000
     1.0000   1.0000   1.0000   1.0000   1.0000   1.0000   1.0000   1.0000
     1.0000   1.0000   1.0000   1.0000   1.0000   1.0000   1.0000   1.0000
     1.0000   1.0000   1.0000   1.0000   1.0000   1.0000   1.0000   1.0000
     1.0000   1.0000   1.0000   1.0000   1.0000   1.0000   1.0000   1.0000
     1.0000   1.0000   1.0000   1.0000   1.0000   1.0000   1.0000   1.0000
     1.0000   1.0000   1.0000   1.0000   1.0000   1.0000   1.0000   1.0000
     1.0000   1.0000   1.0000   1.0000   1.0000   1.0000   1.0000   1.0000
     1.0000   1.0000   1.0000   1.0000   1.0000   1.0000   1.0000   1.0000
     1.0000   1.0000   1.0000   1.0000   1.0000   1.0000   1.0000   1.0000
     1.0000   1.0000   1.0000   1.0000   1.0000   1.0000   1.0000   1.0000
     1.0000   1.0000   1.0000   1.0000   1.0000   1.0000   1.0000   1.0000
     1.0000   1.0000   1.0000   1.0000   1.0000   1.0000   1.0000   1.0000
     1.0000   1.0000   1.0000   1.0000   1.0000   1.0000   1.0000   1.0000
     0.9999   0.9997   0.9995   0.9987   0.9971   0.9969   0.9962   0.9956
     0.9676   0.9502   0.9437   0.8605   0.8418   0.7533   0.7128   0.6390
     0.5191   0.3319   0.0773   0.0347   0.0243   0.0214   0.0160   0.0159
     0.0005   0.0004   0.0002   0.0000   0.0000   0.0000   0.0000   0.0000
     0.0000   0.0000   0.0000   0.0000   0.0000   0.0000   0.0000   0.0000
     0.0000   0.0000   0.0000   0.0000   0.0000   0.0000   0.0000   0.0000
     0.0000   0.0000   0.0000   0.0000   0.0000   0.0000   0.0000   0.0000
     0.0000   0.0000   0.0000   0.0000   0.0000   0.0000   0.0000   0.0000
     0.0000   0.0000   0.0000   0.0000   0.0000   0.0000   0.0000   0.0000
     0.0000   0.0000   0.0000   0.0000   0.0000   0.0000   0.0000   0.0000

          k = 0.0000-0.5774 0.0000 ( 88178 PWs)   bands (ev):

   -95.5293 -95.5255 -95.5191 -95.5189 -95.5180 -95.5138 -95.5113 -95.5111
   -95.4990 -95.4942 -95.4939 -95.4919 -95.4897 -95.4893 -95.4859 -95.4844
   -95.4839 -95.3854 -95.1307 -95.1244 -95.1241 -95.0909 -95.0838 -95.0819
   -95.0772 -95.0754 -95.0701 -95.0682 -95.0653 -95.0646 -95.0611 -95.0577
   -95.0570 -94.8840 -94.8815 -94.8795 -49.8423 -49.8198 -49.8122 -49.8069
   -49.7936 -49.7905 -49.7882 -49.7872 -49.7707 -49.7681 -49.7665 -49.7647
   -49.7419 -49.7318 -49.7051 -49.7045 -49.6724 -49.6712 -49.6650 -49.6650
   -49.6621 -49.6554 -49.6532 -49.6486 -49.6441 -49.6348 -49.6301 -49.6207
   -49.6155 -49.6104 -49.6087 -49.6039 -49.6022 -49.5932 -49.5931 -49.5891
   -49.5839 -49.5830 -49.5789 -49.5767 -49.5715 -49.5695 -49.5659 -49.5646
   -49.5601 -49.5542 -49.5540 -49.5490 -49.5442 -49.5305 -49.5104 -49.4996
   -49.4745 -49.4735 -49.4598 -49.4576 -49.4489 -49.4390 -49.4196 -49.4193
   -49.4174 -49.4164 -49.4146 -49.4142 -49.3608 -49.3345 -49.3342 -49.3304
   -49.2989 -49.2934 -49.2792 -49.2789 -49.2762 -49.2759 -49.2750 -49.2477
   -49.2418 -49.2401 -49.2397 -49.2394 -49.2266 -49.2264 -49.1863 -49.1836
   -49.1499 -49.1191 -49.1061 -49.0962 -49.0953 -49.0687 -49.0394 -49.0304
   -49.0292 -49.0109 -49.0069 -49.0043 -49.0001 -48.9987 -48.9957 -48.9936
   -48.9882 -48.9871 -48.9834 -48.9790 -48.9782 -48.7981 -48.7928 -48.7902
   -15.0520  -5.3316  -5.2840  -4.0831  -4.0227  -3.8754  -3.8634  -3.4548
    -3.2947  -3.0184  -2.9894  -2.9542  -2.9419  -2.9249  -2.9142  -2.9056
    -2.8842  -2.8660  -2.8461  -2.7965  -2.7546  -2.7385  -2.7066  -2.7007
    -2.6027  -2.5148  -2.3792  -2.3772  -2.3411  -2.3384  -2.1165  -2.1128
    -2.0887  -2.0594  -2.0338  -2.0249  -1.9585  -1.9542  -1.8194  -1.8094
    -1.7369  -1.7244  -1.7204  -1.6417  -1.6353  -1.5092  -1.5079  -1.4736
    -1.4480  -1.3855  -1.3538  -1.2478  -1.2477  -1.2329  -1.1754  -1.1256
    -1.1169  -1.0900  -1.0857  -0.9805  -0.9671  -0.9071  -0.8663  -0.8420
    -0.7977  -0.7797  -0.6693  -0.6281  -0.6241  -0.6167  -0.5811  -0.5732
    -0.5679  -0.5593  -0.5205  -0.3506  -0.3288  -0.3076  -0.3051  -0.3021
    -0.3008  -0.2702  -0.2557  -0.2536  -0.2184  -0.2013  -0.1330  -0.1303
    -0.0861  -0.0819  -0.0698  -0.0386   0.0174   0.0268   0.0335   0.0337
     0.0850   0.1391   0.1607   0.1716   0.1784   0.1890   0.1931   0.2126
     0.2426   0.2755   0.2979   0.4212   0.4414   0.4473   0.5355   0.6180
     0.6710   0.7240   0.7432   0.7623   0.7710   0.8385   0.8563   0.8664
     0.8811   0.8856   0.8909   0.9123   0.9247   0.9575   0.9721   1.0050
     1.0570   1.0582   1.0809   1.0852   1.1394   1.1946   1.2224   1.2403
     1.2684   1.3004   1.4428   1.4633   1.5968   1.6459   1.6634   1.6699
     1.6701   1.7003   1.7999   1.8268   1.8998   1.9084   1.9205   1.9254
     1.9368   1.9567   2.0272   2.0398   2.0614   2.0619   2.0791   2.1635
     2.1830   2.2368   2.2736   2.3170   2.4018   2.4500   2.4504   2.4598
     2.5491   2.5650   2.6407   2.6420   2.6533   2.6594   2.7111   2.7133
     2.7356   2.7474   2.7564   2.8036   2.9254   2.9357   2.9366   2.9542
     2.9588   2.9654   3.0200   3.1892   3.2136   3.2189   3.2283   3.2314
     3.4367   3.4748   3.7354   3.7482   3.9356   4.4061   4.4487   4.7987
     4.8011   4.8042   4.8093   5.2741   5.2842   5.2964   5.3149   5.3346
     5.6157   5.7935   5.7982   5.9183   6.1826   6.2006   6.3517   6.3743
     6.3885   6.4306   8.2616   8.2644   8.2963   8.3188   8.5186   8.5365
     8.6528   8.8039   8.8370   8.8533   8.8814   8.9062   9.1821   9.3028
     9.3528   9.7725   9.7774   9.8419   9.8934  10.1734  10.3107  10.3340
    10.3808  10.6258  10.8015  10.8654  10.8679  10.9014  10.9022  10.9467

     occupation numbers 
     1.0000   1.0000   1.0000   1.0000   1.0000   1.0000   1.0000   1.0000
     1.0000   1.0000   1.0000   1.0000   1.0000   1.0000   1.0000   1.0000
     1.0000   1.0000   1.0000   1.0000   1.0000   1.0000   1.0000   1.0000
     1.0000   1.0000   1.0000   1.0000   1.0000   1.0000   1.0000   1.0000
     1.0000   1.0000   1.0000   1.0000   1.0000   1.0000   1.0000   1.0000
     1.0000   1.0000   1.0000   1.0000   1.0000   1.0000   1.0000   1.0000
     1.0000   1.0000   1.0000   1.0000   1.0000   1.0000   1.0000   1.0000
     1.0000   1.0000   1.0000   1.0000   1.0000   1.0000   1.0000   1.0000
     1.0000   1.0000   1.0000   1.0000   1.0000   1.0000   1.0000   1.0000
     1.0000   1.0000   1.0000   1.0000   1.0000   1.0000   1.0000   1.0000
     1.0000   1.0000   1.0000   1.0000   1.0000   1.0000   1.0000   1.0000
     1.0000   1.0000   1.0000   1.0000   1.0000   1.0000   1.0000   1.0000
     1.0000   1.0000   1.0000   1.0000   1.0000   1.0000   1.0000   1.0000
     1.0000   1.0000   1.0000   1.0000   1.0000   1.0000   1.0000   1.0000
     1.0000   1.0000   1.0000   1.0000   1.0000   1.0000   1.0000   1.0000
     1.0000   1.0000   1.0000   1.0000   1.0000   1.0000   1.0000   1.0000
     1.0000   1.0000   1.0000   1.0000   1.0000   1.0000   1.0000   1.0000
     1.0000   1.0000   1.0000   1.0000   1.0000   1.0000   1.0000   1.0000
     1.0000   1.0000   1.0000   1.0000   1.0000   1.0000   1.0000   1.0000
     1.0000   1.0000   1.0000   1.0000   1.0000   1.0000   1.0000   1.0000
     1.0000   1.0000   1.0000   1.0000   1.0000   1.0000   1.0000   1.0000
     1.0000   1.0000   1.0000   1.0000   1.0000   1.0000   1.0000   1.0000
     1.0000   1.0000   1.0000   1.0000   1.0000   1.0000   1.0000   1.0000
     1.0000   1.0000   1.0000   1.0000   1.0000   1.0000   1.0000   1.0000
     1.0000   1.0000   1.0000   1.0000   1.0000   1.0000   1.0000   1.0000
     1.0000   1.0000   1.0000   1.0000   1.0000   1.0000   1.0000   1.0000
     1.0000   1.0000   1.0000   1.0000   1.0000   1.0000   1.0000   1.0000
     1.0000   1.0000   1.0000   1.0000   1.0000   1.0000   1.0000   1.0000
     1.0000   1.0000   1.0000   1.0000   1.0000   1.0000   1.0000   1.0000
     1.0000   1.0000   1.0000   1.0000   1.0000   1.0000   1.0000   1.0000
     1.0000   1.0000   1.0000   1.0000   1.0000   1.0000   1.0000   1.0000
     1.0000   1.0000   1.0000   1.0000   1.0000   1.0000   1.0000   1.0000
     1.0000   1.0000   1.0000   1.0000   1.0000   1.0000   1.0000   1.0000
     1.0000   1.0000   1.0000   1.0000   1.0000   1.0000   1.0000   1.0000
     1.0000   1.0000   1.0000   1.0000   1.0000   1.0000   1.0000   1.0000
     1.0000   1.0000   1.0000   1.0000   1.0000   1.0000   1.0000   1.0000
     1.0000   1.0000   1.0000   1.0000   1.0000   1.0000   1.0000   1.0000
     1.0000   1.0000   1.0000   1.0000   1.0000   1.0000   1.0000   1.0000
     1.0000   1.0000   1.0000   1.0000   1.0000   0.9999   0.9999   0.9999
     0.9995   0.9994   0.9971   0.9971   0.9963   0.9959   0.9885   0.9879
     0.9813   0.9765   0.9719   0.9308   0.5410   0.4894   0.4848   0.3985
     0.3765   0.3462   0.1507   0.0060   0.0037   0.0033   0.0027   0.0026
     0.0000   0.0000   0.0000   0.0000   0.0000   0.0000   0.0000   0.0000
     0.0000   0.0000   0.0000   0.0000   0.0000   0.0000   0.0000   0.0000
     0.0000   0.0000   0.0000   0.0000   0.0000   0.0000   0.0000   0.0000
     0.0000   0.0000   0.0000   0.0000   0.0000   0.0000   0.0000   0.0000
     0.0000   0.0000   0.0000   0.0000   0.0000   0.0000   0.0000   0.0000
     0.0000   0.0000   0.0000   0.0000   0.0000   0.0000   0.0000   0.0000
     0.0000   0.0000   0.0000   0.0000   0.0000   0.0000   0.0000   0.0000

          k = 0.1667-0.0962 0.0000 ( 88230 PWs)   bands (ev):

   -95.5310 -95.5234 -95.5190 -95.5187 -95.5183 -95.5134 -95.5121 -95.5113
   -95.4990 -95.4940 -95.4937 -95.4920 -95.4890 -95.4889 -95.4865 -95.4863
   -95.4826 -95.3854 -95.1309 -95.1244 -95.1238 -95.0910 -95.0838 -95.0819
   -95.0799 -95.0713 -95.0697 -95.0679 -95.0660 -95.0655 -95.0619 -95.0573
   -95.0571 -94.8839 -94.8815 -94.8796 -49.8114 -49.7990 -49.7948 -49.7906
   -49.7808 -49.7768 -49.7742 -49.7717 -49.7694 -49.7563 -49.7545 -49.7528
   -49.7480 -49.7382 -49.7331 -49.7324 -49.7197 -49.7135 -49.7013 -49.6779
   -49.6777 -49.6765 -49.6716 -49.6663 -49.6519 -49.6514 -49.6442 -49.6159
   -49.6155 -49.6056 -49.6029 -49.6026 -49.5967 -49.5947 -49.5933 -49.5824
   -49.5811 -49.5797 -49.5781 -49.5771 -49.5720 -49.5692 -49.5679 -49.5518
   -49.5509 -49.5463 -49.5337 -49.5329 -49.5268 -49.5203 -49.5152 -49.4748
   -49.4699 -49.4580 -49.4499 -49.4473 -49.4359 -49.4184 -49.4146 -49.4114
   -49.4014 -49.4009 -49.3941 -49.3939 -49.3869 -49.3833 -49.3612 -49.3609
   -49.3409 -49.3401 -49.3364 -49.2971 -49.2946 -49.2648 -49.2444 -49.2411
   -49.2331 -49.2324 -49.2309 -49.2205 -49.2199 -49.2099 -49.1754 -49.1689
   -49.1680 -49.1198 -49.1155 -49.0888 -49.0683 -49.0637 -49.0408 -49.0297
   -49.0286 -49.0125 -49.0107 -49.0003 -48.9984 -48.9974 -48.9949 -48.9926
   -48.9899 -48.9889 -48.9851 -48.9781 -48.9778 -48.7980 -48.7928 -48.7904
   -15.0520  -6.0878  -4.7861  -4.1360  -3.8187  -3.8164  -3.6961  -3.6047
    -3.5161  -3.5024  -3.4922  -3.2284  -3.1769  -3.0947  -3.0770  -3.0566
    -3.0315  -2.6909  -2.6109  -2.6079  -2.6007  -2.5726  -2.5482  -2.5262
    -2.4607  -2.4503  -2.3597  -2.3443  -2.3263  -2.2556  -2.2515  -2.2382
    -2.2222  -2.2093  -2.1853  -2.1630  -2.0188  -1.9992  -1.9509  -1.9328
    -1.8961  -1.6328  -1.6293  -1.6022  -1.5579  -1.5452  -1.5047  -1.4926
    -1.3611  -1.3410  -1.2831  -1.2615  -1.2318  -1.1749  -1.1518  -0.9037
    -0.8024  -0.7999  -0.7726  -0.7711  -0.7509  -0.6732  -0.6691  -0.6498
    -0.6238  -0.6193  -0.6006  -0.5536  -0.5199  -0.4918  -0.4689  -0.4514
    -0.3911  -0.3672  -0.3537  -0.3047  -0.2980  -0.2946  -0.2520  -0.1812
    -0.1727  -0.1512  -0.1188  -0.0582  -0.0480  -0.0442  -0.0281  -0.0089
     0.0095   0.0104   0.0167   0.0333   0.0337   0.0344   0.0769   0.0796
     0.1147   0.1390   0.1532   0.1781   0.1934   0.2607   0.2712   0.3105
     0.3236   0.3445   0.3929   0.3952   0.4010   0.4059   0.4177   0.4768
     0.4832   0.5137   0.5530   0.6520   0.6899   0.8899   0.9376   0.9559
     0.9584   0.9757   0.9783   1.0284   1.0299   1.1128   1.1446   1.2672
     1.3284   1.3612   1.3883   1.3914   1.3967   1.4047   1.4201   1.4255
     1.4310   1.5363   1.5426   1.5972   1.6036   1.6667   1.6926   1.8130
     1.8193   1.8213   1.8486   1.8795   1.9075   1.9597   1.9606   1.9717
     2.0423   2.0467   2.0702   2.0729   2.0898   2.0942   2.1112   2.1768
     2.1976   2.2366   2.2455   2.3380   2.3689   2.3709   2.4083   2.4252
     2.4663   2.4696   2.5227   2.5261   2.5384   2.5537   2.5599   2.5680
     2.5891   2.6027   2.6207   2.6362   2.6431   2.7028   2.7135   2.8770
     2.8898   2.8921   2.9115   2.9263   2.9267   2.9505   2.9753   2.9805
     2.9863   2.9951   3.0056   3.0082   3.1032   3.1318   3.1339   3.2049
     3.4188   3.7163   3.7305   4.2481   4.2617   4.3000   4.3853   5.5677
     5.9250   5.9283   6.5709   6.5750   6.7685   6.7688   6.8144   7.7649
     7.7809   7.8282   7.8445   8.1597   8.5269   8.5301   8.6791   8.7080
     8.7559   8.9491   8.9754   9.2445   9.3818   9.3934   9.6068   9.6595
     9.8168  10.1438  10.2290  10.3131  10.5028  10.5128  10.5667  10.6117
    10.7953  10.8208  10.8593  10.9190  10.9265  11.0886  11.2393  11.3099

     occupation numbers 
     1.0000   1.0000   1.0000   1.0000   1.0000   1.0000   1.0000   1.0000
     1.0000   1.0000   1.0000   1.0000   1.0000   1.0000   1.0000   1.0000
     1.0000   1.0000   1.0000   1.0000   1.0000   1.0000   1.0000   1.0000
     1.0000   1.0000   1.0000   1.0000   1.0000   1.0000   1.0000   1.0000
     1.0000   1.0000   1.0000   1.0000   1.0000   1.0000   1.0000   1.0000
     1.0000   1.0000   1.0000   1.0000   1.0000   1.0000   1.0000   1.0000
     1.0000   1.0000   1.0000   1.0000   1.0000   1.0000   1.0000   1.0000
     1.0000   1.0000   1.0000   1.0000   1.0000   1.0000   1.0000   1.0000
     1.0000   1.0000   1.0000   1.0000   1.0000   1.0000   1.0000   1.0000
     1.0000   1.0000   1.0000   1.0000   1.0000   1.0000   1.0000   1.0000
     1.0000   1.0000   1.0000   1.0000   1.0000   1.0000   1.0000   1.0000
     1.0000   1.0000   1.0000   1.0000   1.0000   1.0000   1.0000   1.0000
     1.0000   1.0000   1.0000   1.0000   1.0000   1.0000   1.0000   1.0000
     1.0000   1.0000   1.0000   1.0000   1.0000   1.0000   1.0000   1.0000
     1.0000   1.0000   1.0000   1.0000   1.0000   1.0000   1.0000   1.0000
     1.0000   1.0000   1.0000   1.0000   1.0000   1.0000   1.0000   1.0000
     1.0000   1.0000   1.0000   1.0000   1.0000   1.0000   1.0000   1.0000
     1.0000   1.0000   1.0000   1.0000   1.0000   1.0000   1.0000   1.0000
     1.0000   1.0000   1.0000   1.0000   1.0000   1.0000   1.0000   1.0000
     1.0000   1.0000   1.0000   1.0000   1.0000   1.0000   1.0000   1.0000
     1.0000   1.0000   1.0000   1.0000   1.0000   1.0000   1.0000   1.0000
     1.0000   1.0000   1.0000   1.0000   1.0000   1.0000   1.0000   1.0000
     1.0000   1.0000   1.0000   1.0000   1.0000   1.0000   1.0000   1.0000
     1.0000   1.0000   1.0000   1.0000   1.0000   1.0000   1.0000   1.0000
     1.0000   1.0000   1.0000   1.0000   1.0000   1.0000   1.0000   1.0000
     1.0000   1.0000   1.0000   1.0000   1.0000   1.0000   1.0000   1.0000
     1.0000   1.0000   1.0000   1.0000   1.0000   1.0000   1.0000   1.0000
     1.0000   1.0000   1.0000   1.0000   1.0000   1.0000   1.0000   1.0000
     1.0000   1.0000   1.0000   1.0000   1.0000   1.0000   1.0000   1.0000
     1.0000   1.0000   1.0000   1.0000   1.0000   1.0000   1.0000   1.0000
     1.0000   1.0000   1.0000   1.0000   1.0000   1.0000   1.0000   1.0000
     1.0000   1.0000   1.0000   1.0000   1.0000   1.0000   1.0000   1.0000
     1.0000   1.0000   1.0000   1.0000   1.0000   1.0000   1.0000   1.0000
     1.0000   1.0000   1.0000   1.0000   1.0000   1.0000   1.0000   1.0000
     1.0000   1.0000   1.0000   1.0000   1.0000   1.0000   1.0000   1.0000
     1.0000   1.0000   1.0000   1.0000   1.0000   1.0000   1.0000   1.0000
     1.0000   1.0000   1.0000   1.0000   1.0000   1.0000   1.0000   1.0000
     1.0000   1.0000   1.0000   1.0000   1.0000   1.0000   1.0000   1.0000
     1.0000   1.0000   1.0000   1.0000   1.0000   1.0000   1.0000   1.0000
     0.9999   0.9999   0.9997   0.9997   0.9996   0.9995   0.9994   0.9993
     0.9990   0.9987   0.9981   0.9974   0.9970   0.9902   0.9879   0.7562
     0.7060   0.6961   0.6086   0.5362   0.5342   0.4164   0.3028   0.2814
     0.2585   0.2262   0.1916   0.1837   0.0326   0.0186   0.0179   0.0044
     0.0001   0.0000   0.0000   0.0000   0.0000   0.0000   0.0000   0.0000
     0.0000   0.0000   0.0000   0.0000   0.0000   0.0000   0.0000   0.0000
     0.0000   0.0000   0.0000   0.0000   0.0000   0.0000   0.0000   0.0000
     0.0000   0.0000   0.0000   0.0000   0.0000   0.0000   0.0000   0.0000
     0.0000   0.0000   0.0000   0.0000   0.0000   0.0000   0.0000   0.0000
     0.0000   0.0000   0.0000   0.0000   0.0000   0.0000   0.0000   0.0000

          k = 0.1667 0.0962 0.0000 ( 88230 PWs)   bands (ev):

   -95.5310 -95.5234 -95.5189 -95.5187 -95.5183 -95.5134 -95.5121 -95.5113
   -95.4990 -95.4940 -95.4937 -95.4920 -95.4890 -95.4889 -95.4865 -95.4863
   -95.4826 -95.3854 -95.1309 -95.1244 -95.1238 -95.0910 -95.0838 -95.0819
   -95.0799 -95.0713 -95.0697 -95.0679 -95.0660 -95.0655 -95.0619 -95.0573
   -95.0571 -94.8839 -94.8815 -94.8796 -49.8114 -49.7990 -49.7948 -49.7907
   -49.7808 -49.7768 -49.7741 -49.7718 -49.7694 -49.7563 -49.7546 -49.7528
   -49.7480 -49.7382 -49.7331 -49.7324 -49.7197 -49.7135 -49.7013 -49.6779
   -49.6777 -49.6765 -49.6716 -49.6663 -49.6519 -49.6514 -49.6442 -49.6159
   -49.6155 -49.6056 -49.6029 -49.6026 -49.5967 -49.5947 -49.5933 -49.5824
   -49.5811 -49.5797 -49.5781 -49.5771 -49.5720 -49.5692 -49.5680 -49.5518
   -49.5509 -49.5463 -49.5337 -49.5329 -49.5268 -49.5203 -49.5152 -49.4748
   -49.4699 -49.4580 -49.4499 -49.4473 -49.4359 -49.4184 -49.4146 -49.4114
   -49.4014 -49.4009 -49.3941 -49.3939 -49.3869 -49.3833 -49.3612 -49.3609
   -49.3409 -49.3401 -49.3364 -49.2971 -49.2946 -49.2648 -49.2444 -49.2411
   -49.2331 -49.2323 -49.2309 -49.2205 -49.2199 -49.2099 -49.1754 -49.1689
   -49.1680 -49.1198 -49.1155 -49.0888 -49.0683 -49.0637 -49.0408 -49.0297
   -49.0286 -49.0125 -49.0107 -49.0003 -48.9984 -48.9974 -48.9949 -48.9926
   -48.9899 -48.9890 -48.9851 -48.9781 -48.9778 -48.7980 -48.7928 -48.7904
   -15.0520  -6.0878  -4.7861  -4.1360  -3.8186  -3.8164  -3.6961  -3.6047
    -3.5161  -3.5024  -3.4922  -3.2284  -3.1768  -3.0947  -3.0770  -3.0567
    -3.0315  -2.6909  -2.6109  -2.6079  -2.6007  -2.5726  -2.5482  -2.5262
    -2.4607  -2.4503  -2.3597  -2.3443  -2.3263  -2.2556  -2.2515  -2.2382
    -2.2222  -2.2093  -2.1853  -2.1629  -2.0189  -1.9992  -1.9508  -1.9329
    -1.8961  -1.6328  -1.6293  -1.6022  -1.5579  -1.5451  -1.5047  -1.4926
    -1.3611  -1.3410  -1.2831  -1.2615  -1.2318  -1.1749  -1.1518  -0.9036
    -0.8025  -0.7999  -0.7726  -0.7711  -0.7509  -0.6732  -0.6691  -0.6497
    -0.6239  -0.6193  -0.6006  -0.5536  -0.5199  -0.4918  -0.4689  -0.4514
    -0.3911  -0.3672  -0.3538  -0.3048  -0.2980  -0.2946  -0.2521  -0.1812
    -0.1727  -0.1512  -0.1189  -0.0582  -0.0480  -0.0442  -0.0281  -0.0089
     0.0096   0.0104   0.0167   0.0332   0.0337   0.0344   0.0769   0.0796
     0.1147   0.1390   0.1533   0.1782   0.1934   0.2607   0.2712   0.3105
     0.3236   0.3445   0.3929   0.3952   0.4010   0.4059   0.4177   0.4768
     0.4832   0.5138   0.5529   0.6520   0.6899   0.8899   0.9376   0.9559
     0.9584   0.9757   0.9783   1.0283   1.0298   1.1128   1.1446   1.2672
     1.3284   1.3612   1.3883   1.3914   1.3967   1.4046   1.4201   1.4254
     1.4310   1.5363   1.5426   1.5972   1.6036   1.6667   1.6926   1.8130
     1.8193   1.8213   1.8486   1.8795   1.9075   1.9597   1.9606   1.9717
     2.0422   2.0467   2.0702   2.0729   2.0898   2.0942   2.1112   2.1768
     2.1976   2.2366   2.2455   2.3380   2.3689   2.3709   2.4083   2.4251
     2.4663   2.4696   2.5227   2.5260   2.5384   2.5537   2.5599   2.5680
     2.5891   2.6027   2.6207   2.6362   2.6431   2.7028   2.7134   2.8770
     2.8898   2.8921   2.9116   2.9263   2.9267   2.9505   2.9753   2.9805
     2.9863   2.9951   3.0056   3.0082   3.1031   3.1318   3.1339   3.2049
     3.4188   3.7163   3.7306   4.2481   4.2617   4.3000   4.3853   5.5677
     5.9251   5.9283   6.5709   6.5750   6.7685   6.7688   6.8144   7.7649
     7.7809   7.8282   7.8446   8.1596   8.5270   8.5301   8.6791   8.7080
     8.7560   8.9491   8.9754   9.2444   9.3819   9.3935   9.6067   9.6595
     9.8168  10.1438  10.2290  10.3131  10.5028  10.5128  10.5667  10.6117
    10.7953  10.8208  10.8593  10.9190  10.9265  11.0885  11.2393  11.3099

     occupation numbers 
     1.0000   1.0000   1.0000   1.0000   1.0000   1.0000   1.0000   1.0000
     1.0000   1.0000   1.0000   1.0000   1.0000   1.0000   1.0000   1.0000
     1.0000   1.0000   1.0000   1.0000   1.0000   1.0000   1.0000   1.0000
     1.0000   1.0000   1.0000   1.0000   1.0000   1.0000   1.0000   1.0000
     1.0000   1.0000   1.0000   1.0000   1.0000   1.0000   1.0000   1.0000
     1.0000   1.0000   1.0000   1.0000   1.0000   1.0000   1.0000   1.0000
     1.0000   1.0000   1.0000   1.0000   1.0000   1.0000   1.0000   1.0000
     1.0000   1.0000   1.0000   1.0000   1.0000   1.0000   1.0000   1.0000
     1.0000   1.0000   1.0000   1.0000   1.0000   1.0000   1.0000   1.0000
     1.0000   1.0000   1.0000   1.0000   1.0000   1.0000   1.0000   1.0000
     1.0000   1.0000   1.0000   1.0000   1.0000   1.0000   1.0000   1.0000
     1.0000   1.0000   1.0000   1.0000   1.0000   1.0000   1.0000   1.0000
     1.0000   1.0000   1.0000   1.0000   1.0000   1.0000   1.0000   1.0000
     1.0000   1.0000   1.0000   1.0000   1.0000   1.0000   1.0000   1.0000
     1.0000   1.0000   1.0000   1.0000   1.0000   1.0000   1.0000   1.0000
     1.0000   1.0000   1.0000   1.0000   1.0000   1.0000   1.0000   1.0000
     1.0000   1.0000   1.0000   1.0000   1.0000   1.0000   1.0000   1.0000
     1.0000   1.0000   1.0000   1.0000   1.0000   1.0000   1.0000   1.0000
     1.0000   1.0000   1.0000   1.0000   1.0000   1.0000   1.0000   1.0000
     1.0000   1.0000   1.0000   1.0000   1.0000   1.0000   1.0000   1.0000
     1.0000   1.0000   1.0000   1.0000   1.0000   1.0000   1.0000   1.0000
     1.0000   1.0000   1.0000   1.0000   1.0000   1.0000   1.0000   1.0000
     1.0000   1.0000   1.0000   1.0000   1.0000   1.0000   1.0000   1.0000
     1.0000   1.0000   1.0000   1.0000   1.0000   1.0000   1.0000   1.0000
     1.0000   1.0000   1.0000   1.0000   1.0000   1.0000   1.0000   1.0000
     1.0000   1.0000   1.0000   1.0000   1.0000   1.0000   1.0000   1.0000
     1.0000   1.0000   1.0000   1.0000   1.0000   1.0000   1.0000   1.0000
     1.0000   1.0000   1.0000   1.0000   1.0000   1.0000   1.0000   1.0000
     1.0000   1.0000   1.0000   1.0000   1.0000   1.0000   1.0000   1.0000
     1.0000   1.0000   1.0000   1.0000   1.0000   1.0000   1.0000   1.0000
     1.0000   1.0000   1.0000   1.0000   1.0000   1.0000   1.0000   1.0000
     1.0000   1.0000   1.0000   1.0000   1.0000   1.0000   1.0000   1.0000
     1.0000   1.0000   1.0000   1.0000   1.0000   1.0000   1.0000   1.0000
     1.0000   1.0000   1.0000   1.0000   1.0000   1.0000   1.0000   1.0000
     1.0000   1.0000   1.0000   1.0000   1.0000   1.0000   1.0000   1.0000
     1.0000   1.0000   1.0000   1.0000   1.0000   1.0000   1.0000   1.0000
     1.0000   1.0000   1.0000   1.0000   1.0000   1.0000   1.0000   1.0000
     1.0000   1.0000   1.0000   1.0000   1.0000   1.0000   1.0000   1.0000
     1.0000   1.0000   1.0000   1.0000   1.0000   1.0000   1.0000   1.0000
     0.9999   0.9999   0.9997   0.9997   0.9996   0.9995   0.9994   0.9993
     0.9990   0.9987   0.9981   0.9974   0.9970   0.9902   0.9879   0.7562
     0.7060   0.6961   0.6084   0.5362   0.5343   0.4164   0.3027   0.2814
     0.2585   0.2261   0.1915   0.1836   0.0326   0.0186   0.0179   0.0044
     0.0001   0.0000   0.0000   0.0000   0.0000   0.0000   0.0000   0.0000
     0.0000   0.0000   0.0000   0.0000   0.0000   0.0000   0.0000   0.0000
     0.0000   0.0000   0.0000   0.0000   0.0000   0.0000   0.0000   0.0000
     0.0000   0.0000   0.0000   0.0000   0.0000   0.0000   0.0000   0.0000
     0.0000   0.0000   0.0000   0.0000   0.0000   0.0000   0.0000   0.0000
     0.0000   0.0000   0.0000   0.0000   0.0000   0.0000   0.0000   0.0000

          k = 0.1667 0.2887 0.0000 ( 88188 PWs)   bands (ev):

   -95.5303 -95.5242 -95.5193 -95.5186 -95.5182 -95.5136 -95.5118 -95.5111
   -95.4990 -95.4941 -95.4938 -95.4919 -95.4895 -95.4891 -95.4860 -95.4857
   -95.4830 -95.3854 -95.1308 -95.1245 -95.1239 -95.0909 -95.0838 -95.0819
   -95.0790 -95.0728 -95.0704 -95.0673 -95.0661 -95.0651 -95.0615 -95.0575
   -95.0570 -94.8839 -94.8815 -94.8796 -49.8245 -49.8183 -49.8062 -49.7974
   -49.7927 -49.7855 -49.7777 -49.7749 -49.7688 -49.7613 -49.7584 -49.7539
   -49.7508 -49.7419 -49.7316 -49.7025 -49.6975 -49.6917 -49.6777 -49.6739
   -49.6698 -49.6655 -49.6631 -49.6568 -49.6478 -49.6377 -49.6324 -49.6207
   -49.6157 -49.6105 -49.6081 -49.6052 -49.6032 -49.5965 -49.5929 -49.5887
   -49.5843 -49.5814 -49.5774 -49.5742 -49.5699 -49.5657 -49.5640 -49.5590
   -49.5563 -49.5516 -49.5470 -49.5366 -49.5297 -49.5246 -49.5171 -49.4849
   -49.4727 -49.4632 -49.4588 -49.4507 -49.4448 -49.4307 -49.4286 -49.4156
   -49.4121 -49.4081 -49.4003 -49.3829 -49.3820 -49.3796 -49.3551 -49.3206
   -49.3158 -49.3144 -49.3127 -49.2960 -49.2891 -49.2690 -49.2496 -49.2418
   -49.2407 -49.2402 -49.2396 -49.2373 -49.2075 -49.2067 -49.1926 -49.1732
   -49.1582 -49.1234 -49.1109 -49.0923 -49.0774 -49.0669 -49.0401 -49.0300
   -49.0289 -49.0116 -49.0097 -49.0003 -48.9998 -48.9984 -48.9965 -48.9916
   -48.9897 -48.9880 -48.9841 -48.9785 -48.9779 -48.7981 -48.7928 -48.7903
   -15.0520  -5.8833  -4.5890  -4.3694  -4.3244  -3.4965  -3.4457  -3.4203
    -3.4059  -3.4032  -3.3896  -3.3292  -3.2546  -3.1584  -3.1433  -2.8668
    -2.8492  -2.7187  -2.7072  -2.5707  -2.5583  -2.5369  -2.5271  -2.5201
    -2.4964  -2.4443  -2.4284  -2.3961  -2.3474  -2.3372  -2.3021  -2.2441
    -2.2255  -2.2035  -2.1652  -2.0924  -2.0158  -1.8837  -1.8386  -1.7804
    -1.7611  -1.7084  -1.6593  -1.6284  -1.6135  -1.5710  -1.5303  -1.4432
    -1.4094  -1.3193  -1.3038  -1.2942  -1.2281  -1.2166  -1.1819  -1.1079
    -1.0611  -0.8983  -0.8632  -0.8354  -0.8246  -0.8134  -0.7571  -0.7309
    -0.7177  -0.7052  -0.6333  -0.6232  -0.5433  -0.5312  -0.5194  -0.5040
    -0.4964  -0.3827  -0.3584  -0.3285  -0.3142  -0.2921  -0.2478  -0.2016
    -0.1932  -0.1722  -0.1623  -0.1586  -0.1461  -0.1149  -0.1074  -0.0932
    -0.0319  -0.0275   0.0172   0.0335   0.0337   0.0384   0.0553   0.0861
     0.1072   0.1339   0.1391   0.1820   0.1983   0.2050   0.2175   0.2392
     0.2600   0.2748   0.2846   0.3460   0.3584   0.3711   0.4021   0.4930
     0.5218   0.5353   0.5507   0.6060   0.6138   0.7714   0.8527   0.8702
     0.8819   0.9299   0.9506   0.9933   1.0202   1.0362   1.0520   1.0614
     1.0784   1.1763   1.1889   1.2757   1.3560   1.4136   1.4185   1.4573
     1.4798   1.5186   1.5440   1.5610   1.5705   1.6961   1.7347   1.7377
     1.7560   1.7827   1.7920   1.8415   1.8495   1.8780   1.8855   1.9194
     1.9410   1.9823   1.9931   2.0048   2.0227   2.0290   2.0711   2.1174
     2.1393   2.1747   2.3354   2.3814   2.4000   2.4750   2.5001   2.5226
     2.5360   2.6043   2.6235   2.6272   2.6377   2.6548   2.6869   2.6930
     2.7280   2.7405   2.7431   2.8519   2.8639   2.8717   2.8888   2.9130
     2.9191   2.9293   2.9406   2.9893   3.0990   3.1137   3.1205   3.1786
     3.1954   3.2141   3.2458   3.3317   3.3501   3.5771   3.5819   3.6564
     3.9957   4.0056   4.2945   4.3184   4.9339   5.0064   5.0220   5.3541
     5.3621   5.8004   6.4683   6.4892   6.6028   6.7921   6.9642   7.2290
     7.2601   7.6693   7.7703   7.7961   7.8457   7.9828   8.8107   8.8254
     8.8465   8.9201   8.9746   9.1986   9.2499   9.3788   9.4615   9.6140
     9.6398   9.6638   9.9039   9.9666  10.0247  10.4143  10.4420  10.4566
    10.5098  10.5252  10.5778  10.8947  10.9925  11.0055  11.0566  11.0896

     occupation numbers 
     1.0000   1.0000   1.0000   1.0000   1.0000   1.0000   1.0000   1.0000
     1.0000   1.0000   1.0000   1.0000   1.0000   1.0000   1.0000   1.0000
     1.0000   1.0000   1.0000   1.0000   1.0000   1.0000   1.0000   1.0000
     1.0000   1.0000   1.0000   1.0000   1.0000   1.0000   1.0000   1.0000
     1.0000   1.0000   1.0000   1.0000   1.0000   1.0000   1.0000   1.0000
     1.0000   1.0000   1.0000   1.0000   1.0000   1.0000   1.0000   1.0000
     1.0000   1.0000   1.0000   1.0000   1.0000   1.0000   1.0000   1.0000
     1.0000   1.0000   1.0000   1.0000   1.0000   1.0000   1.0000   1.0000
     1.0000   1.0000   1.0000   1.0000   1.0000   1.0000   1.0000   1.0000
     1.0000   1.0000   1.0000   1.0000   1.0000   1.0000   1.0000   1.0000
     1.0000   1.0000   1.0000   1.0000   1.0000   1.0000   1.0000   1.0000
     1.0000   1.0000   1.0000   1.0000   1.0000   1.0000   1.0000   1.0000
     1.0000   1.0000   1.0000   1.0000   1.0000   1.0000   1.0000   1.0000
     1.0000   1.0000   1.0000   1.0000   1.0000   1.0000   1.0000   1.0000
     1.0000   1.0000   1.0000   1.0000   1.0000   1.0000   1.0000   1.0000
     1.0000   1.0000   1.0000   1.0000   1.0000   1.0000   1.0000   1.0000
     1.0000   1.0000   1.0000   1.0000   1.0000   1.0000   1.0000   1.0000
     1.0000   1.0000   1.0000   1.0000   1.0000   1.0000   1.0000   1.0000
     1.0000   1.0000   1.0000   1.0000   1.0000   1.0000   1.0000   1.0000
     1.0000   1.0000   1.0000   1.0000   1.0000   1.0000   1.0000   1.0000
     1.0000   1.0000   1.0000   1.0000   1.0000   1.0000   1.0000   1.0000
     1.0000   1.0000   1.0000   1.0000   1.0000   1.0000   1.0000   1.0000
     1.0000   1.0000   1.0000   1.0000   1.0000   1.0000   1.0000   1.0000
     1.0000   1.0000   1.0000   1.0000   1.0000   1.0000   1.0000   1.0000
     1.0000   1.0000   1.0000   1.0000   1.0000   1.0000   1.0000   1.0000
     1.0000   1.0000   1.0000   1.0000   1.0000   1.0000   1.0000   1.0000
     1.0000   1.0000   1.0000   1.0000   1.0000   1.0000   1.0000   1.0000
     1.0000   1.0000   1.0000   1.0000   1.0000   1.0000   1.0000   1.0000
     1.0000   1.0000   1.0000   1.0000   1.0000   1.0000   1.0000   1.0000
     1.0000   1.0000   1.0000   1.0000   1.0000   1.0000   1.0000   1.0000
     1.0000   1.0000   1.0000   1.0000   1.0000   1.0000   1.0000   1.0000
     1.0000   1.0000   1.0000   1.0000   1.0000   1.0000   1.0000   1.0000
     1.0000   1.0000   1.0000   1.0000   1.0000   1.0000   1.0000   1.0000
     1.0000   1.0000   1.0000   1.0000   1.0000   1.0000   1.0000   1.0000
     1.0000   1.0000   1.0000   1.0000   1.0000   1.0000   1.0000   1.0000
     1.0000   1.0000   1.0000   1.0000   1.0000   1.0000   1.0000   1.0000
     1.0000   1.0000   1.0000   1.0000   1.0000   1.0000   1.0000   1.0000
     1.0000   1.0000   1.0000   1.0000   1.0000   1.0000   1.0000   1.0000
     1.0000   1.0000   1.0000   1.0000   1.0000   0.9999   0.9998   0.9997
     0.9996   0.9986   0.9980   0.9978   0.9973   0.9962   0.9929   0.9919
     0.9839   0.9794   0.9783   0.8366   0.8011   0.7752   0.7102   0.6017
     0.5717   0.5217   0.4648   0.2473   0.0353   0.0265   0.0232   0.0074
     0.0053   0.0036   0.0019   0.0003   0.0002   0.0000   0.0000   0.0000
     0.0000   0.0000   0.0000   0.0000   0.0000   0.0000   0.0000   0.0000
     0.0000   0.0000   0.0000   0.0000   0.0000   0.0000   0.0000   0.0000
     0.0000   0.0000   0.0000   0.0000   0.0000   0.0000   0.0000   0.0000
     0.0000   0.0000   0.0000   0.0000   0.0000   0.0000   0.0000   0.0000
     0.0000   0.0000   0.0000   0.0000   0.0000   0.0000   0.0000   0.0000
     0.0000   0.0000   0.0000   0.0000   0.0000   0.0000   0.0000   0.0000

          k = 0.1667-0.6736 0.0000 ( 88140 PWs)   bands (ev):

   -95.5293 -95.5253 -95.5197 -95.5185 -95.5180 -95.5138 -95.5115 -95.5109
   -95.4990 -95.4942 -95.4939 -95.4918 -95.4899 -95.4892 -95.4856 -95.4848
   -95.4837 -95.3854 -95.1307 -95.1245 -95.1240 -95.0909 -95.0838 -95.0819
   -95.0775 -95.0748 -95.0712 -95.0670 -95.0655 -95.0648 -95.0611 -95.0577
   -95.0570 -94.8840 -94.8815 -94.8795 -49.8380 -49.8241 -49.8179 -49.8079
   -49.7981 -49.7919 -49.7844 -49.7764 -49.7700 -49.7645 -49.7622 -49.7584
   -49.7480 -49.7355 -49.7318 -49.6833 -49.6769 -49.6736 -49.6703 -49.6636
   -49.6608 -49.6553 -49.6496 -49.6424 -49.6368 -49.6339 -49.6274 -49.6224
   -49.6168 -49.6126 -49.6088 -49.6042 -49.5997 -49.5984 -49.5956 -49.5929
   -49.5889 -49.5826 -49.5788 -49.5774 -49.5727 -49.5681 -49.5639 -49.5614
   -49.5581 -49.5574 -49.5547 -49.5491 -49.5380 -49.5303 -49.5168 -49.4933
   -49.4770 -49.4710 -49.4624 -49.4551 -49.4483 -49.4444 -49.4325 -49.4264
   -49.4192 -49.4049 -49.4019 -49.3956 -49.3728 -49.3673 -49.3283 -49.3005
   -49.2997 -49.2926 -49.2877 -49.2849 -49.2727 -49.2671 -49.2640 -49.2591
   -49.2531 -49.2463 -49.2450 -49.2385 -49.2246 -49.2083 -49.1937 -49.1818
   -49.1473 -49.1232 -49.1087 -49.0974 -49.0873 -49.0711 -49.0394 -49.0305
   -49.0291 -49.0109 -49.0073 -49.0031 -49.0002 -48.9986 -48.9979 -48.9912
   -48.9886 -48.9875 -48.9834 -48.9791 -48.9780 -48.7981 -48.7928 -48.7903
   -15.0520  -5.4923  -4.9530  -4.4565  -4.2123  -3.7368  -3.3841  -3.3343
    -3.3234  -3.2182  -3.1801  -3.1199  -3.0666  -3.0043  -2.9929  -2.8762
    -2.8020  -2.7953  -2.7281  -2.6891  -2.6563  -2.6439  -2.6223  -2.5868
    -2.5320  -2.4950  -2.4352  -2.4197  -2.3603  -2.3180  -2.2664  -2.2039
    -2.1837  -2.1625  -2.1131  -2.0956  -1.9949  -1.9523  -1.8745  -1.8293
    -1.6927  -1.6359  -1.6171  -1.5497  -1.5317  -1.5220  -1.5063  -1.4277
    -1.4147  -1.3706  -1.3319  -1.2765  -1.2153  -1.1846  -1.1638  -1.1316
    -1.1119  -1.0861  -1.0364  -1.0083  -0.9691  -0.9215  -0.8627  -0.8394
    -0.8339  -0.7845  -0.7562  -0.6533  -0.6219  -0.5964  -0.5411  -0.5244
    -0.5176  -0.4926  -0.4610  -0.4451  -0.4092  -0.3833  -0.3503  -0.3339
    -0.2635  -0.2417  -0.2231  -0.1997  -0.1954  -0.1597  -0.0792  -0.0565
    -0.0367  -0.0250  -0.0059   0.0173   0.0335   0.0337   0.0506   0.0598
     0.0828   0.1069   0.1157   0.1315   0.1452   0.1667   0.2040   0.2137
     0.2313   0.2448   0.2785   0.3159   0.3430   0.3669   0.4051   0.4597
     0.4913   0.5151   0.6048   0.6216   0.6559   0.7529   0.8253   0.8544
     0.8844   0.9123   0.9348   0.9691   0.9925   0.9987   1.0596   1.0856
     1.0988   1.1203   1.1444   1.1840   1.2227   1.2320   1.2897   1.3319
     1.3699   1.4895   1.5108   1.5276   1.5569   1.6053   1.6439   1.6530
     1.6664   1.6942   1.7208   1.7339   1.7697   1.8385   1.8685   1.8994
     1.9118   1.9221   1.9428   1.9660   1.9803   2.0965   2.1287   2.1881
     2.2535   2.2731   2.3561   2.3856   2.4030   2.4636   2.4716   2.4981
     2.5874   2.6288   2.6599   2.6999   2.7149   2.7256   2.7293   2.7415
     2.8127   2.8384   2.8427   2.8813   2.8908   2.9149   2.9630   2.9747
     3.0409   3.0500   3.1270   3.1384   3.1750   3.1982   3.2180   3.2278
     3.2798   3.3044   3.3513   3.9522   4.2128   4.2346   4.2908   4.3554
     4.6440   4.7976   4.8657   5.1651   5.2124   5.2434   5.2880   5.3833
     5.6396   5.7712   5.8486   6.0889   6.3804   6.4533   6.5081   6.6441
     6.8188   7.1225   7.3009   7.5492   7.6057   7.6238   8.3627   8.6147
     8.6381   8.6972   8.8798   9.1002   9.1223   9.2128   9.4410   9.4930
     9.5158   9.7394   9.8472   9.8779  10.0841  10.0962  10.1253  10.4500
    10.4815  10.7528  10.8393  10.8707  10.9531  10.9665  11.1247  11.1528

     occupation numbers 
     1.0000   1.0000   1.0000   1.0000   1.0000   1.0000   1.0000   1.0000
     1.0000   1.0000   1.0000   1.0000   1.0000   1.0000   1.0000   1.0000
     1.0000   1.0000   1.0000   1.0000   1.0000   1.0000   1.0000   1.0000
     1.0000   1.0000   1.0000   1.0000   1.0000   1.0000   1.0000   1.0000
     1.0000   1.0000   1.0000   1.0000   1.0000   1.0000   1.0000   1.0000
     1.0000   1.0000   1.0000   1.0000   1.0000   1.0000   1.0000   1.0000
     1.0000   1.0000   1.0000   1.0000   1.0000   1.0000   1.0000   1.0000
     1.0000   1.0000   1.0000   1.0000   1.0000   1.0000   1.0000   1.0000
     1.0000   1.0000   1.0000   1.0000   1.0000   1.0000   1.0000   1.0000
     1.0000   1.0000   1.0000   1.0000   1.0000   1.0000   1.0000   1.0000
     1.0000   1.0000   1.0000   1.0000   1.0000   1.0000   1.0000   1.0000
     1.0000   1.0000   1.0000   1.0000   1.0000   1.0000   1.0000   1.0000
     1.0000   1.0000   1.0000   1.0000   1.0000   1.0000   1.0000   1.0000
     1.0000   1.0000   1.0000   1.0000   1.0000   1.0000   1.0000   1.0000
     1.0000   1.0000   1.0000   1.0000   1.0000   1.0000   1.0000   1.0000
     1.0000   1.0000   1.0000   1.0000   1.0000   1.0000   1.0000   1.0000
     1.0000   1.0000   1.0000   1.0000   1.0000   1.0000   1.0000   1.0000
     1.0000   1.0000   1.0000   1.0000   1.0000   1.0000   1.0000   1.0000
     1.0000   1.0000   1.0000   1.0000   1.0000   1.0000   1.0000   1.0000
     1.0000   1.0000   1.0000   1.0000   1.0000   1.0000   1.0000   1.0000
     1.0000   1.0000   1.0000   1.0000   1.0000   1.0000   1.0000   1.0000
     1.0000   1.0000   1.0000   1.0000   1.0000   1.0000   1.0000   1.0000
     1.0000   1.0000   1.0000   1.0000   1.0000   1.0000   1.0000   1.0000
     1.0000   1.0000   1.0000   1.0000   1.0000   1.0000   1.0000   1.0000
     1.0000   1.0000   1.0000   1.0000   1.0000   1.0000   1.0000   1.0000
     1.0000   1.0000   1.0000   1.0000   1.0000   1.0000   1.0000   1.0000
     1.0000   1.0000   1.0000   1.0000   1.0000   1.0000   1.0000   1.0000
     1.0000   1.0000   1.0000   1.0000   1.0000   1.0000   1.0000   1.0000
     1.0000   1.0000   1.0000   1.0000   1.0000   1.0000   1.0000   1.0000
     1.0000   1.0000   1.0000   1.0000   1.0000   1.0000   1.0000   1.0000
     1.0000   1.0000   1.0000   1.0000   1.0000   1.0000   1.0000   1.0000
     1.0000   1.0000   1.0000   1.0000   1.0000   1.0000   1.0000   1.0000
     1.0000   1.0000   1.0000   1.0000   1.0000   1.0000   1.0000   1.0000
     1.0000   1.0000   1.0000   1.0000   1.0000   1.0000   1.0000   1.0000
     1.0000   1.0000   1.0000   1.0000   1.0000   1.0000   1.0000   1.0000
     1.0000   1.0000   1.0000   1.0000   1.0000   1.0000   1.0000   1.0000
     1.0000   1.0000   1.0000   1.0000   1.0000   1.0000   1.0000   1.0000
     1.0000   1.0000   1.0000   1.0000   1.0000   1.0000   1.0000   1.0000
     1.0000   1.0000   1.0000   1.0000   1.0000   0.9999   0.9999   0.9998
     0.9990   0.9978   0.9958   0.9908   0.9876   0.9846   0.9835   0.9790
     0.9182   0.8702   0.8602   0.7401   0.7018   0.5923   0.3571   0.3054
     0.1046   0.0888   0.0205   0.0164   0.0079   0.0050   0.0034   0.0028
     0.0010   0.0006   0.0002   0.0000   0.0000   0.0000   0.0000   0.0000
     0.0000   0.0000   0.0000   0.0000   0.0000   0.0000   0.0000   0.0000
     0.0000   0.0000   0.0000   0.0000   0.0000   0.0000   0.0000   0.0000
     0.0000   0.0000   0.0000   0.0000   0.0000   0.0000   0.0000   0.0000
     0.0000   0.0000   0.0000   0.0000   0.0000   0.0000   0.0000   0.0000
     0.0000   0.0000   0.0000   0.0000   0.0000   0.0000   0.0000   0.0000
     0.0000   0.0000   0.0000   0.0000   0.0000   0.0000   0.0000   0.0000

          k = 0.1667-0.4811 0.0000 ( 88140 PWs)   bands (ev):

   -95.5293 -95.5253 -95.5197 -95.5185 -95.5180 -95.5138 -95.5115 -95.5109
   -95.4990 -95.4942 -95.4939 -95.4918 -95.4899 -95.4892 -95.4856 -95.4848
   -95.4837 -95.3854 -95.1307 -95.1245 -95.1240 -95.0909 -95.0838 -95.0819
   -95.0775 -95.0748 -95.0712 -95.0670 -95.0655 -95.0648 -95.0611 -95.0577
   -95.0570 -94.8840 -94.8815 -94.8795 -49.8380 -49.8241 -49.8178 -49.8079
   -49.7981 -49.7919 -49.7844 -49.7764 -49.7700 -49.7645 -49.7622 -49.7584
   -49.7480 -49.7355 -49.7318 -49.6833 -49.6769 -49.6736 -49.6703 -49.6637
   -49.6608 -49.6553 -49.6496 -49.6424 -49.6368 -49.6339 -49.6274 -49.6224
   -49.6168 -49.6126 -49.6089 -49.6042 -49.5997 -49.5984 -49.5956 -49.5929
   -49.5889 -49.5826 -49.5788 -49.5774 -49.5726 -49.5681 -49.5639 -49.5614
   -49.5581 -49.5574 -49.5547 -49.5491 -49.5380 -49.5303 -49.5168 -49.4933
   -49.4770 -49.4710 -49.4624 -49.4551 -49.4483 -49.4444 -49.4325 -49.4264
   -49.4192 -49.4049 -49.4019 -49.3956 -49.3728 -49.3673 -49.3283 -49.3005
   -49.2997 -49.2926 -49.2877 -49.2849 -49.2727 -49.2671 -49.2640 -49.2591
   -49.2531 -49.2463 -49.2450 -49.2385 -49.2246 -49.2083 -49.1937 -49.1818
   -49.1473 -49.1232 -49.1087 -49.0974 -49.0873 -49.0711 -49.0394 -49.0305
   -49.0291 -49.0109 -49.0073 -49.0031 -49.0002 -48.9986 -48.9979 -48.9912
   -48.9886 -48.9875 -48.9834 -48.9791 -48.9780 -48.7981 -48.7928 -48.7903
   -15.0520  -5.4923  -4.9530  -4.4565  -4.2123  -3.7368  -3.3841  -3.3343
    -3.3234  -3.2182  -3.1801  -3.1199  -3.0666  -3.0043  -2.9929  -2.8763
    -2.8020  -2.7953  -2.7281  -2.6891  -2.6563  -2.6439  -2.6223  -2.5868
    -2.5320  -2.4950  -2.4351  -2.4197  -2.3603  -2.3180  -2.2665  -2.2039
    -2.1837  -2.1624  -2.1131  -2.0956  -1.9949  -1.9523  -1.8745  -1.8293
    -1.6927  -1.6359  -1.6171  -1.5497  -1.5317  -1.5220  -1.5063  -1.4277
    -1.4147  -1.3706  -1.3319  -1.2765  -1.2153  -1.1846  -1.1638  -1.1316
    -1.1119  -1.0861  -1.0364  -1.0083  -0.9691  -0.9215  -0.8627  -0.8394
    -0.8339  -0.7845  -0.7562  -0.6533  -0.6219  -0.5964  -0.5411  -0.5244
    -0.5176  -0.4926  -0.4609  -0.4451  -0.4092  -0.3833  -0.3503  -0.3339
    -0.2635  -0.2417  -0.2231  -0.1997  -0.1954  -0.1597  -0.0792  -0.0564
    -0.0367  -0.0250  -0.0059   0.0173   0.0335   0.0337   0.0506   0.0598
     0.0828   0.1068   0.1157   0.1315   0.1452   0.1667   0.2040   0.2136
     0.2313   0.2448   0.2785   0.3160   0.3430   0.3669   0.4051   0.4597
     0.4913   0.5151   0.6048   0.6216   0.6559   0.7529   0.8253   0.8544
     0.8844   0.9123   0.9348   0.9691   0.9926   0.9987   1.0595   1.0855
     1.0988   1.1203   1.1445   1.1840   1.2227   1.2320   1.2897   1.3319
     1.3699   1.4895   1.5108   1.5276   1.5569   1.6053   1.6439   1.6530
     1.6664   1.6942   1.7208   1.7339   1.7697   1.8385   1.8685   1.8994
     1.9118   1.9221   1.9428   1.9660   1.9803   2.0965   2.1287   2.1881
     2.2535   2.2731   2.3561   2.3856   2.4030   2.4636   2.4716   2.4981
     2.5874   2.6288   2.6599   2.6999   2.7149   2.7255   2.7293   2.7415
     2.8128   2.8385   2.8427   2.8813   2.8908   2.9149   2.9630   2.9747
     3.0409   3.0500   3.1270   3.1385   3.1750   3.1982   3.2180   3.2277
     3.2798   3.3044   3.3513   3.9522   4.2128   4.2346   4.2908   4.3554
     4.6440   4.7975   4.8656   5.1651   5.2124   5.2434   5.2880   5.3833
     5.6396   5.7712   5.8486   6.0889   6.3804   6.4533   6.5081   6.6441
     6.8187   7.1225   7.3009   7.5493   7.6057   7.6238   8.3627   8.6148
     8.6381   8.6972   8.8798   9.1002   9.1223   9.2128   9.4410   9.4930
     9.5158   9.7394   9.8471   9.8778  10.0840  10.0963  10.1253  10.4500
    10.4815  10.7528  10.8393  10.8707  10.9531  10.9665  11.1247  11.1531

     occupation numbers 
     1.0000   1.0000   1.0000   1.0000   1.0000   1.0000   1.0000   1.0000
     1.0000   1.0000   1.0000   1.0000   1.0000   1.0000   1.0000   1.0000
     1.0000   1.0000   1.0000   1.0000   1.0000   1.0000   1.0000   1.0000
     1.0000   1.0000   1.0000   1.0000   1.0000   1.0000   1.0000   1.0000
     1.0000   1.0000   1.0000   1.0000   1.0000   1.0000   1.0000   1.0000
     1.0000   1.0000   1.0000   1.0000   1.0000   1.0000   1.0000   1.0000
     1.0000   1.0000   1.0000   1.0000   1.0000   1.0000   1.0000   1.0000
     1.0000   1.0000   1.0000   1.0000   1.0000   1.0000   1.0000   1.0000
     1.0000   1.0000   1.0000   1.0000   1.0000   1.0000   1.0000   1.0000
     1.0000   1.0000   1.0000   1.0000   1.0000   1.0000   1.0000   1.0000
     1.0000   1.0000   1.0000   1.0000   1.0000   1.0000   1.0000   1.0000
     1.0000   1.0000   1.0000   1.0000   1.0000   1.0000   1.0000   1.0000
     1.0000   1.0000   1.0000   1.0000   1.0000   1.0000   1.0000   1.0000
     1.0000   1.0000   1.0000   1.0000   1.0000   1.0000   1.0000   1.0000
     1.0000   1.0000   1.0000   1.0000   1.0000   1.0000   1.0000   1.0000
     1.0000   1.0000   1.0000   1.0000   1.0000   1.0000   1.0000   1.0000
     1.0000   1.0000   1.0000   1.0000   1.0000   1.0000   1.0000   1.0000
     1.0000   1.0000   1.0000   1.0000   1.0000   1.0000   1.0000   1.0000
     1.0000   1.0000   1.0000   1.0000   1.0000   1.0000   1.0000   1.0000
     1.0000   1.0000   1.0000   1.0000   1.0000   1.0000   1.0000   1.0000
     1.0000   1.0000   1.0000   1.0000   1.0000   1.0000   1.0000   1.0000
     1.0000   1.0000   1.0000   1.0000   1.0000   1.0000   1.0000   1.0000
     1.0000   1.0000   1.0000   1.0000   1.0000   1.0000   1.0000   1.0000
     1.0000   1.0000   1.0000   1.0000   1.0000   1.0000   1.0000   1.0000
     1.0000   1.0000   1.0000   1.0000   1.0000   1.0000   1.0000   1.0000
     1.0000   1.0000   1.0000   1.0000   1.0000   1.0000   1.0000   1.0000
     1.0000   1.0000   1.0000   1.0000   1.0000   1.0000   1.0000   1.0000
     1.0000   1.0000   1.0000   1.0000   1.0000   1.0000   1.0000   1.0000
     1.0000   1.0000   1.0000   1.0000   1.0000   1.0000   1.0000   1.0000
     1.0000   1.0000   1.0000   1.0000   1.0000   1.0000   1.0000   1.0000
     1.0000   1.0000   1.0000   1.0000   1.0000   1.0000   1.0000   1.0000
     1.0000   1.0000   1.0000   1.0000   1.0000   1.0000   1.0000   1.0000
     1.0000   1.0000   1.0000   1.0000   1.0000   1.0000   1.0000   1.0000
     1.0000   1.0000   1.0000   1.0000   1.0000   1.0000   1.0000   1.0000
     1.0000   1.0000   1.0000   1.0000   1.0000   1.0000   1.0000   1.0000
     1.0000   1.0000   1.0000   1.0000   1.0000   1.0000   1.0000   1.0000
     1.0000   1.0000   1.0000   1.0000   1.0000   1.0000   1.0000   1.0000
     1.0000   1.0000   1.0000   1.0000   1.0000   1.0000   1.0000   1.0000
     1.0000   1.0000   1.0000   1.0000   1.0000   0.9999   0.9999   0.9998
     0.9990   0.9978   0.9958   0.9908   0.9875   0.9846   0.9835   0.9790
     0.9181   0.8702   0.8603   0.7401   0.7018   0.5924   0.3570   0.3053
     0.1046   0.0889   0.0205   0.0163   0.0079   0.0050   0.0034   0.0028
     0.0010   0.0006   0.0002   0.0000   0.0000   0.0000   0.0000   0.0000
     0.0000   0.0000   0.0000   0.0000   0.0000   0.0000   0.0000   0.0000
     0.0000   0.0000   0.0000   0.0000   0.0000   0.0000   0.0000   0.0000
     0.0000   0.0000   0.0000   0.0000   0.0000   0.0000   0.0000   0.0000
     0.0000   0.0000   0.0000   0.0000   0.0000   0.0000   0.0000   0.0000
     0.0000   0.0000   0.0000   0.0000   0.0000   0.0000   0.0000   0.0000
     0.0000   0.0000   0.0000   0.0000   0.0000   0.0000   0.0000   0.0000

          k = 0.1667-0.2887 0.0000 ( 88188 PWs)   bands (ev):

   -95.5303 -95.5242 -95.5193 -95.5186 -95.5182 -95.5136 -95.5118 -95.5111
   -95.4990 -95.4941 -95.4938 -95.4919 -95.4895 -95.4891 -95.4860 -95.4857
   -95.4830 -95.3854 -95.1308 -95.1244 -95.1239 -95.0909 -95.0838 -95.0819
   -95.0790 -95.0728 -95.0704 -95.0673 -95.0661 -95.0651 -95.0615 -95.0575
   -95.0570 -94.8839 -94.8815 -94.8796 -49.8245 -49.8183 -49.8062 -49.7974
   -49.7927 -49.7855 -49.7777 -49.7749 -49.7688 -49.7613 -49.7584 -49.7539
   -49.7508 -49.7419 -49.7315 -49.7025 -49.6976 -49.6917 -49.6777 -49.6739
   -49.6698 -49.6655 -49.6631 -49.6568 -49.6478 -49.6377 -49.6324 -49.6207
   -49.6157 -49.6105 -49.6081 -49.6052 -49.6032 -49.5965 -49.5929 -49.5887
   -49.5843 -49.5814 -49.5774 -49.5742 -49.5699 -49.5657 -49.5640 -49.5590
   -49.5563 -49.5516 -49.5470 -49.5366 -49.5297 -49.5246 -49.5171 -49.4849
   -49.4727 -49.4632 -49.4588 -49.4507 -49.4448 -49.4307 -49.4286 -49.4156
   -49.4121 -49.4081 -49.4003 -49.3829 -49.3820 -49.3796 -49.3551 -49.3206
   -49.3158 -49.3144 -49.3127 -49.2960 -49.2891 -49.2690 -49.2496 -49.2418
   -49.2407 -49.2402 -49.2396 -49.2374 -49.2075 -49.2067 -49.1926 -49.1732
   -49.1582 -49.1233 -49.1109 -49.0923 -49.0774 -49.0669 -49.0401 -49.0300
   -49.0289 -49.0116 -49.0097 -49.0003 -48.9998 -48.9984 -48.9965 -48.9916
   -48.9897 -48.9880 -48.9841 -48.9785 -48.9779 -48.7981 -48.7928 -48.7903
   -15.0520  -5.8833  -4.5890  -4.3694  -4.3244  -3.4965  -3.4458  -3.4203
    -3.4058  -3.4032  -3.3896  -3.3292  -3.2546  -3.1584  -3.1433  -2.8668
    -2.8492  -2.7187  -2.7072  -2.5707  -2.5583  -2.5369  -2.5271  -2.5201
    -2.4964  -2.4444  -2.4284  -2.3961  -2.3474  -2.3373  -2.3022  -2.2441
    -2.2255  -2.2035  -2.1652  -2.0924  -2.0158  -1.8837  -1.8386  -1.7803
    -1.7611  -1.7084  -1.6593  -1.6284  -1.6135  -1.5710  -1.5303  -1.4433
    -1.4094  -1.3193  -1.3038  -1.2941  -1.2282  -1.2166  -1.1819  -1.1079
    -1.0611  -0.8983  -0.8632  -0.8354  -0.8246  -0.8134  -0.7571  -0.7309
    -0.7178  -0.7052  -0.6333  -0.6232  -0.5433  -0.5312  -0.5194  -0.5040
    -0.4964  -0.3828  -0.3585  -0.3285  -0.3142  -0.2921  -0.2478  -0.2015
    -0.1932  -0.1722  -0.1623  -0.1586  -0.1460  -0.1149  -0.1074  -0.0932
    -0.0319  -0.0275   0.0172   0.0335   0.0336   0.0384   0.0553   0.0861
     0.1072   0.1339   0.1391   0.1820   0.1983   0.2051   0.2175   0.2392
     0.2600   0.2748   0.2846   0.3460   0.3584   0.3711   0.4021   0.4930
     0.5218   0.5353   0.5507   0.6060   0.6138   0.7714   0.8526   0.8703
     0.8819   0.9299   0.9506   0.9933   1.0202   1.0362   1.0520   1.0614
     1.0785   1.1763   1.1889   1.2756   1.3561   1.4136   1.4185   1.4573
     1.4798   1.5186   1.5440   1.5610   1.5705   1.6961   1.7347   1.7377
     1.7560   1.7827   1.7921   1.8414   1.8495   1.8780   1.8855   1.9194
     1.9410   1.9823   1.9931   2.0048   2.0227   2.0290   2.0711   2.1174
     2.1393   2.1748   2.3354   2.3814   2.4000   2.4750   2.5001   2.5226
     2.5360   2.6043   2.6235   2.6272   2.6377   2.6548   2.6869   2.6930
     2.7280   2.7405   2.7431   2.8519   2.8640   2.8717   2.8888   2.9130
     2.9192   2.9292   2.9406   2.9893   3.0990   3.1137   3.1205   3.1785
     3.1953   3.2141   3.2458   3.3317   3.3501   3.5771   3.5819   3.6564
     3.9957   4.0056   4.2945   4.3184   4.9339   5.0064   5.0220   5.3541
     5.3621   5.8004   6.4683   6.4891   6.6028   6.7921   6.9642   7.2290
     7.2601   7.6693   7.7703   7.7961   7.8457   7.9828   8.8108   8.8254
     8.8465   8.9200   8.9747   9.1986   9.2499   9.3787   9.4614   9.6140
     9.6398   9.6638   9.9039   9.9666  10.0247  10.4142  10.4420  10.4566
    10.5098  10.5252  10.5778  10.8947  10.9925  11.0055  11.0566  11.0897

     occupation numbers 
     1.0000   1.0000   1.0000   1.0000   1.0000   1.0000   1.0000   1.0000
     1.0000   1.0000   1.0000   1.0000   1.0000   1.0000   1.0000   1.0000
     1.0000   1.0000   1.0000   1.0000   1.0000   1.0000   1.0000   1.0000
     1.0000   1.0000   1.0000   1.0000   1.0000   1.0000   1.0000   1.0000
     1.0000   1.0000   1.0000   1.0000   1.0000   1.0000   1.0000   1.0000
     1.0000   1.0000   1.0000   1.0000   1.0000   1.0000   1.0000   1.0000
     1.0000   1.0000   1.0000   1.0000   1.0000   1.0000   1.0000   1.0000
     1.0000   1.0000   1.0000   1.0000   1.0000   1.0000   1.0000   1.0000
     1.0000   1.0000   1.0000   1.0000   1.0000   1.0000   1.0000   1.0000
     1.0000   1.0000   1.0000   1.0000   1.0000   1.0000   1.0000   1.0000
     1.0000   1.0000   1.0000   1.0000   1.0000   1.0000   1.0000   1.0000
     1.0000   1.0000   1.0000   1.0000   1.0000   1.0000   1.0000   1.0000
     1.0000   1.0000   1.0000   1.0000   1.0000   1.0000   1.0000   1.0000
     1.0000   1.0000   1.0000   1.0000   1.0000   1.0000   1.0000   1.0000
     1.0000   1.0000   1.0000   1.0000   1.0000   1.0000   1.0000   1.0000
     1.0000   1.0000   1.0000   1.0000   1.0000   1.0000   1.0000   1.0000
     1.0000   1.0000   1.0000   1.0000   1.0000   1.0000   1.0000   1.0000
     1.0000   1.0000   1.0000   1.0000   1.0000   1.0000   1.0000   1.0000
     1.0000   1.0000   1.0000   1.0000   1.0000   1.0000   1.0000   1.0000
     1.0000   1.0000   1.0000   1.0000   1.0000   1.0000   1.0000   1.0000
     1.0000   1.0000   1.0000   1.0000   1.0000   1.0000   1.0000   1.0000
     1.0000   1.0000   1.0000   1.0000   1.0000   1.0000   1.0000   1.0000
     1.0000   1.0000   1.0000   1.0000   1.0000   1.0000   1.0000   1.0000
     1.0000   1.0000   1.0000   1.0000   1.0000   1.0000   1.0000   1.0000
     1.0000   1.0000   1.0000   1.0000   1.0000   1.0000   1.0000   1.0000
     1.0000   1.0000   1.0000   1.0000   1.0000   1.0000   1.0000   1.0000
     1.0000   1.0000   1.0000   1.0000   1.0000   1.0000   1.0000   1.0000
     1.0000   1.0000   1.0000   1.0000   1.0000   1.0000   1.0000   1.0000
     1.0000   1.0000   1.0000   1.0000   1.0000   1.0000   1.0000   1.0000
     1.0000   1.0000   1.0000   1.0000   1.0000   1.0000   1.0000   1.0000
     1.0000   1.0000   1.0000   1.0000   1.0000   1.0000   1.0000   1.0000
     1.0000   1.0000   1.0000   1.0000   1.0000   1.0000   1.0000   1.0000
     1.0000   1.0000   1.0000   1.0000   1.0000   1.0000   1.0000   1.0000
     1.0000   1.0000   1.0000   1.0000   1.0000   1.0000   1.0000   1.0000
     1.0000   1.0000   1.0000   1.0000   1.0000   1.0000   1.0000   1.0000
     1.0000   1.0000   1.0000   1.0000   1.0000   1.0000   1.0000   1.0000
     1.0000   1.0000   1.0000   1.0000   1.0000   1.0000   1.0000   1.0000
     1.0000   1.0000   1.0000   1.0000   1.0000   1.0000   1.0000   1.0000
     1.0000   1.0000   1.0000   1.0000   1.0000   0.9999   0.9998   0.9997
     0.9996   0.9986   0.9980   0.9978   0.9973   0.9962   0.9929   0.9919
     0.9839   0.9794   0.9783   0.8366   0.8010   0.7753   0.7101   0.6016
     0.5717   0.5217   0.4648   0.2473   0.0353   0.0266   0.0233   0.0074
     0.0053   0.0036   0.0019   0.0003   0.0002   0.0000   0.0000   0.0000
     0.0000   0.0000   0.0000   0.0000   0.0000   0.0000   0.0000   0.0000
     0.0000   0.0000   0.0000   0.0000   0.0000   0.0000   0.0000   0.0000
     0.0000   0.0000   0.0000   0.0000   0.0000   0.0000   0.0000   0.0000
     0.0000   0.0000   0.0000   0.0000   0.0000   0.0000   0.0000   0.0000
     0.0000   0.0000   0.0000   0.0000   0.0000   0.0000   0.0000   0.0000
     0.0000   0.0000   0.0000   0.0000   0.0000   0.0000   0.0000   0.0000

          k = 0.3333-0.1925 0.0000 ( 88170 PWs)   bands (ev):

   -95.5300 -95.5245 -95.5191 -95.5187 -95.5183 -95.5137 -95.5119 -95.5108
   -95.4990 -95.4941 -95.4939 -95.4918 -95.4896 -95.4892 -95.4859 -95.4853
   -95.4832 -95.3854 -95.1307 -95.1246 -95.1238 -95.0909 -95.0838 -95.0819
   -95.0786 -95.0736 -95.0700 -95.0679 -95.0656 -95.0650 -95.0613 -95.0575
   -95.0572 -94.8840 -94.8814 -94.8796 -49.8327 -49.8133 -49.8081 -49.8032
   -49.7894 -49.7868 -49.7840 -49.7826 -49.7731 -49.7648 -49.7641 -49.7577
   -49.7437 -49.7322 -49.7159 -49.7148 -49.6897 -49.6871 -49.6709 -49.6684
   -49.6628 -49.6601 -49.6597 -49.6578 -49.6454 -49.6450 -49.6261 -49.6212
   -49.6178 -49.6125 -49.6046 -49.6037 -49.6029 -49.5960 -49.5900 -49.5893
   -49.5830 -49.5817 -49.5803 -49.5771 -49.5703 -49.5695 -49.5622 -49.5614
   -49.5578 -49.5511 -49.5469 -49.5395 -49.5373 -49.5275 -49.5137 -49.4901
   -49.4731 -49.4675 -49.4570 -49.4562 -49.4413 -49.4382 -49.4182 -49.4171
   -49.4134 -49.4127 -49.4093 -49.4090 -49.3694 -49.3502 -49.3425 -49.3422
   -49.3087 -49.3083 -49.2936 -49.2918 -49.2875 -49.2710 -49.2513 -49.2510
   -49.2488 -49.2408 -49.2381 -49.2243 -49.2237 -49.2010 -49.1973 -49.1752
   -49.1552 -49.1225 -49.1098 -49.0934 -49.0834 -49.0667 -49.0399 -49.0306
   -49.0286 -49.0113 -49.0092 -49.0013 -49.0003 -48.9984 -48.9955 -48.9931
   -48.9887 -48.9878 -48.9838 -48.9785 -48.9781 -48.7981 -48.7927 -48.7904
   -15.0520  -5.7837  -4.7233  -4.4889  -3.8649  -3.8640  -3.5720  -3.4600
    -3.3953  -3.3254  -3.2603  -3.2230  -3.2211  -2.9971  -2.9652  -2.9130
    -2.9061  -2.8054  -2.6695  -2.6138  -2.5755  -2.5735  -2.5381  -2.5321
    -2.5122  -2.5034  -2.4598  -2.4293  -2.3486  -2.3254  -2.3099  -2.2959
    -2.0936  -2.0896  -2.0487  -2.0347  -2.0083  -2.0050  -1.8108  -1.8048
    -1.7290  -1.7101  -1.6780  -1.6082  -1.5622  -1.5615  -1.5366  -1.5077
    -1.3727  -1.3680  -1.3108  -1.2851  -1.2688  -1.2642  -1.1767  -1.1467
    -1.1191  -1.0107  -0.9276  -0.9242  -0.9040  -0.7912  -0.7577  -0.7292
    -0.7255  -0.6901  -0.6845  -0.6648  -0.5971  -0.4722  -0.4574  -0.4428
    -0.4337  -0.4023  -0.3786  -0.3697  -0.3344  -0.3018  -0.3002  -0.2366
    -0.2350  -0.2170  -0.2037  -0.1837  -0.1757  -0.1697  -0.1643  -0.1211
    -0.1110  -0.0781  -0.0491  -0.0243  -0.0170   0.0133   0.0178   0.0336
     0.0336   0.1256   0.1457   0.1491   0.1706   0.1774   0.2201   0.2837
     0.2868   0.3037   0.3087   0.3405   0.4069   0.4867   0.4931   0.5489
     0.5572   0.6012   0.6151   0.6963   0.7271   0.8727   0.8954   0.8974
     0.9206   0.9223   0.9404   0.9494   0.9703   0.9719   1.0529   1.0639
     1.0934   1.0963   1.1284   1.1783   1.2460   1.2796   1.3003   1.3333
     1.4678   1.4803   1.5021   1.5109   1.5225   1.5340   1.6887   1.7564
     1.7647   1.7824   1.7833   1.8169   1.8278   1.8611   1.8997   1.9160
     1.9754   1.9930   2.0371   2.1015   2.1144   2.1177   2.1293   2.1375
     2.1600   2.1817   2.3341   2.3732   2.3930   2.4196   2.4358   2.4368
     2.4639   2.5353   2.5530   2.5999   2.6416   2.6448   2.6549   2.6616
     2.7638   2.7841   2.7907   2.8418   2.8496   2.8780   2.8879   2.9065
     2.9324   2.9707   3.0560   3.1001   3.1196   3.1262   3.1409   3.1428
     3.3124   3.3219   3.3605   3.7252   3.7383   3.8080   3.8089   3.8244
     4.1008   4.1303   4.2830   5.0048   5.0554   5.1359   5.1570   5.2244
     5.7998   5.8028   5.8298   5.8322   6.5477   6.5711   7.0242   7.1914
     7.2857   7.2919   7.7402   7.7645   8.2214   8.2366   8.5531   8.5542
     8.5827   8.9115   9.0956   9.1634   9.1823   9.4571   9.4626   9.5588
     9.5639   9.6837   9.9211   9.9733  10.1507  10.1991  10.2649  10.2849
    10.3984  10.4348  10.5263  10.6746  11.0170  11.1376  11.1866  11.2096

     occupation numbers 
     1.0000   1.0000   1.0000   1.0000   1.0000   1.0000   1.0000   1.0000
     1.0000   1.0000   1.0000   1.0000   1.0000   1.0000   1.0000   1.0000
     1.0000   1.0000   1.0000   1.0000   1.0000   1.0000   1.0000   1.0000
     1.0000   1.0000   1.0000   1.0000   1.0000   1.0000   1.0000   1.0000
     1.0000   1.0000   1.0000   1.0000   1.0000   1.0000   1.0000   1.0000
     1.0000   1.0000   1.0000   1.0000   1.0000   1.0000   1.0000   1.0000
     1.0000   1.0000   1.0000   1.0000   1.0000   1.0000   1.0000   1.0000
     1.0000   1.0000   1.0000   1.0000   1.0000   1.0000   1.0000   1.0000
     1.0000   1.0000   1.0000   1.0000   1.0000   1.0000   1.0000   1.0000
     1.0000   1.0000   1.0000   1.0000   1.0000   1.0000   1.0000   1.0000
     1.0000   1.0000   1.0000   1.0000   1.0000   1.0000   1.0000   1.0000
     1.0000   1.0000   1.0000   1.0000   1.0000   1.0000   1.0000   1.0000
     1.0000   1.0000   1.0000   1.0000   1.0000   1.0000   1.0000   1.0000
     1.0000   1.0000   1.0000   1.0000   1.0000   1.0000   1.0000   1.0000
     1.0000   1.0000   1.0000   1.0000   1.0000   1.0000   1.0000   1.0000
     1.0000   1.0000   1.0000   1.0000   1.0000   1.0000   1.0000   1.0000
     1.0000   1.0000   1.0000   1.0000   1.0000   1.0000   1.0000   1.0000
     1.0000   1.0000   1.0000   1.0000   1.0000   1.0000   1.0000   1.0000
     1.0000   1.0000   1.0000   1.0000   1.0000   1.0000   1.0000   1.0000
     1.0000   1.0000   1.0000   1.0000   1.0000   1.0000   1.0000   1.0000
     1.0000   1.0000   1.0000   1.0000   1.0000   1.0000   1.0000   1.0000
     1.0000   1.0000   1.0000   1.0000   1.0000   1.0000   1.0000   1.0000
     1.0000   1.0000   1.0000   1.0000   1.0000   1.0000   1.0000   1.0000
     1.0000   1.0000   1.0000   1.0000   1.0000   1.0000   1.0000   1.0000
     1.0000   1.0000   1.0000   1.0000   1.0000   1.0000   1.0000   1.0000
     1.0000   1.0000   1.0000   1.0000   1.0000   1.0000   1.0000   1.0000
     1.0000   1.0000   1.0000   1.0000   1.0000   1.0000   1.0000   1.0000
     1.0000   1.0000   1.0000   1.0000   1.0000   1.0000   1.0000   1.0000
     1.0000   1.0000   1.0000   1.0000   1.0000   1.0000   1.0000   1.0000
     1.0000   1.0000   1.0000   1.0000   1.0000   1.0000   1.0000   1.0000
     1.0000   1.0000   1.0000   1.0000   1.0000   1.0000   1.0000   1.0000
     1.0000   1.0000   1.0000   1.0000   1.0000   1.0000   1.0000   1.0000
     1.0000   1.0000   1.0000   1.0000   1.0000   1.0000   1.0000   1.0000
     1.0000   1.0000   1.0000   1.0000   1.0000   1.0000   1.0000   1.0000
     1.0000   1.0000   1.0000   1.0000   1.0000   1.0000   1.0000   1.0000
     1.0000   1.0000   1.0000   1.0000   1.0000   1.0000   1.0000   1.0000
     1.0000   1.0000   1.0000   1.0000   1.0000   1.0000   1.0000   1.0000
     1.0000   1.0000   1.0000   1.0000   1.0000   1.0000   1.0000   1.0000
     1.0000   1.0000   1.0000   1.0000   1.0000   1.0000   1.0000   1.0000
     0.9999   0.9997   0.9995   0.9987   0.9971   0.9969   0.9962   0.9957
     0.9676   0.9521   0.9457   0.8626   0.8428   0.7525   0.7139   0.6322
     0.5057   0.3227   0.0797   0.0345   0.0237   0.0208   0.0156   0.0150
     0.0005   0.0004   0.0002   0.0000   0.0000   0.0000   0.0000   0.0000
     0.0000   0.0000   0.0000   0.0000   0.0000   0.0000   0.0000   0.0000
     0.0000   0.0000   0.0000   0.0000   0.0000   0.0000   0.0000   0.0000
     0.0000   0.0000   0.0000   0.0000   0.0000   0.0000   0.0000   0.0000
     0.0000   0.0000   0.0000   0.0000   0.0000   0.0000   0.0000   0.0000
     0.0000   0.0000   0.0000   0.0000   0.0000   0.0000   0.0000   0.0000
     0.0000   0.0000   0.0000   0.0000   0.0000   0.0000   0.0000   0.0000

          k = 0.3333 0.0000 0.0000 ( 88188 PWs)   bands (ev):

   -95.5303 -95.5242 -95.5193 -95.5186 -95.5183 -95.5136 -95.5121 -95.5109
   -95.4990 -95.4941 -95.4939 -95.4918 -95.4896 -95.4891 -95.4860 -95.4857
   -95.4830 -95.3854 -95.1308 -95.1246 -95.1238 -95.0909 -95.0838 -95.0819
   -95.0790 -95.0728 -95.0705 -95.0671 -95.0661 -95.0651 -95.0614 -95.0574
   -95.0571 -94.8839 -94.8814 -94.8796 -49.8237 -49.8177 -49.8067 -49.7974
   -49.7933 -49.7854 -49.7775 -49.7744 -49.7692 -49.7613 -49.7589 -49.7543
   -49.7507 -49.7420 -49.7319 -49.7032 -49.6970 -49.6915 -49.6778 -49.6740
   -49.6700 -49.6655 -49.6631 -49.6569 -49.6478 -49.6375 -49.6321 -49.6204
   -49.6156 -49.6106 -49.6081 -49.6050 -49.6030 -49.5966 -49.5928 -49.5887
   -49.5843 -49.5812 -49.5771 -49.5741 -49.5699 -49.5657 -49.5643 -49.5585
   -49.5569 -49.5521 -49.5461 -49.5362 -49.5301 -49.5247 -49.5177 -49.4844
   -49.4733 -49.4629 -49.4588 -49.4508 -49.4451 -49.4305 -49.4285 -49.4157
   -49.4123 -49.4082 -49.4001 -49.3832 -49.3823 -49.3799 -49.3546 -49.3208
   -49.3156 -49.3143 -49.3127 -49.2956 -49.2893 -49.2687 -49.2497 -49.2419
   -49.2407 -49.2406 -49.2396 -49.2372 -49.2075 -49.2068 -49.1924 -49.1735
   -49.1581 -49.1230 -49.1111 -49.0927 -49.0774 -49.0668 -49.0401 -49.0304
   -49.0285 -49.0116 -49.0097 -49.0005 -48.9997 -48.9984 -48.9966 -48.9914
   -48.9898 -48.9880 -48.9840 -48.9785 -48.9780 -48.7981 -48.7927 -48.7904
   -15.0520  -5.8834  -4.5891  -4.3694  -4.3250  -3.4967  -3.4443  -3.4203
    -3.4062  -3.4034  -3.3895  -3.3289  -3.2546  -3.1582  -3.1433  -2.8683
    -2.8508  -2.7181  -2.7068  -2.5723  -2.5589  -2.5366  -2.5268  -2.5202
    -2.4968  -2.4434  -2.4278  -2.3956  -2.3471  -2.3362  -2.3019  -2.2436
    -2.2258  -2.2037  -2.1661  -2.0918  -2.0180  -1.8826  -1.8384  -1.7802
    -1.7597  -1.7083  -1.6589  -1.6284  -1.6127  -1.5714  -1.5309  -1.4429
    -1.4093  -1.3187  -1.3040  -1.2937  -1.2272  -1.2170  -1.1821  -1.1075
    -1.0611  -0.8968  -0.8623  -0.8342  -0.8225  -0.8120  -0.7567  -0.7324
    -0.7167  -0.7052  -0.6333  -0.6231  -0.5456  -0.5317  -0.5209  -0.5047
    -0.4977  -0.3805  -0.3575  -0.3281  -0.3147  -0.2937  -0.2469  -0.2032
    -0.1933  -0.1726  -0.1628  -0.1578  -0.1472  -0.1142  -0.1091  -0.0938
    -0.0319  -0.0279   0.0171   0.0336   0.0336   0.0391   0.0561   0.0866
     0.1069   0.1338   0.1393   0.1818   0.1989   0.2040   0.2166   0.2388
     0.2602   0.2743   0.2846   0.3462   0.3574   0.3719   0.4020   0.4931
     0.5216   0.5349   0.5512   0.6055   0.6133   0.7714   0.8535   0.8687
     0.8823   0.9282   0.9511   0.9936   1.0206   1.0359   1.0512   1.0616
     1.0779   1.1761   1.1877   1.2796   1.3525   1.4134   1.4188   1.4563
     1.4791   1.5188   1.5437   1.5607   1.5701   1.6962   1.7343   1.7375
     1.7565   1.7822   1.7921   1.8421   1.8500   1.8791   1.8867   1.9197
     1.9411   1.9835   1.9938   2.0050   2.0233   2.0305   2.0708   2.1168
     2.1402   2.1726   2.3346   2.3801   2.3993   2.4748   2.4996   2.5229
     2.5365   2.6041   2.6232   2.6265   2.6379   2.6560   2.6873   2.6931
     2.7269   2.7396   2.7420   2.8521   2.8629   2.8733   2.8879   2.9129
     2.9184   2.9294   2.9408   2.9889   3.0992   3.1152   3.1211   3.1803
     3.1971   3.2141   3.2453   3.3327   3.3507   3.5768   3.5815   3.6554
     3.9968   4.0068   4.2957   4.3194   4.9325   5.0059   5.0215   5.3542
     5.3615   5.8007   6.4705   6.4904   6.6032   6.7917   6.9634   7.2288
     7.2596   7.6694   7.7692   7.7946   7.8449   7.9808   8.8103   8.8244
     8.8467   8.9244   8.9729   9.1988   9.2500   9.3826   9.4656   9.6144
     9.6395   9.6637   9.9041   9.9668  10.0249  10.4189  10.4409  10.4566
    10.5093  10.5237  10.5746  10.8949  10.9923  11.0047  11.0547  11.0867

     occupation numbers 
     1.0000   1.0000   1.0000   1.0000   1.0000   1.0000   1.0000   1.0000
     1.0000   1.0000   1.0000   1.0000   1.0000   1.0000   1.0000   1.0000
     1.0000   1.0000   1.0000   1.0000   1.0000   1.0000   1.0000   1.0000
     1.0000   1.0000   1.0000   1.0000   1.0000   1.0000   1.0000   1.0000
     1.0000   1.0000   1.0000   1.0000   1.0000   1.0000   1.0000   1.0000
     1.0000   1.0000   1.0000   1.0000   1.0000   1.0000   1.0000   1.0000
     1.0000   1.0000   1.0000   1.0000   1.0000   1.0000   1.0000   1.0000
     1.0000   1.0000   1.0000   1.0000   1.0000   1.0000   1.0000   1.0000
     1.0000   1.0000   1.0000   1.0000   1.0000   1.0000   1.0000   1.0000
     1.0000   1.0000   1.0000   1.0000   1.0000   1.0000   1.0000   1.0000
     1.0000   1.0000   1.0000   1.0000   1.0000   1.0000   1.0000   1.0000
     1.0000   1.0000   1.0000   1.0000   1.0000   1.0000   1.0000   1.0000
     1.0000   1.0000   1.0000   1.0000   1.0000   1.0000   1.0000   1.0000
     1.0000   1.0000   1.0000   1.0000   1.0000   1.0000   1.0000   1.0000
     1.0000   1.0000   1.0000   1.0000   1.0000   1.0000   1.0000   1.0000
     1.0000   1.0000   1.0000   1.0000   1.0000   1.0000   1.0000   1.0000
     1.0000   1.0000   1.0000   1.0000   1.0000   1.0000   1.0000   1.0000
     1.0000   1.0000   1.0000   1.0000   1.0000   1.0000   1.0000   1.0000
     1.0000   1.0000   1.0000   1.0000   1.0000   1.0000   1.0000   1.0000
     1.0000   1.0000   1.0000   1.0000   1.0000   1.0000   1.0000   1.0000
     1.0000   1.0000   1.0000   1.0000   1.0000   1.0000   1.0000   1.0000
     1.0000   1.0000   1.0000   1.0000   1.0000   1.0000   1.0000   1.0000
     1.0000   1.0000   1.0000   1.0000   1.0000   1.0000   1.0000   1.0000
     1.0000   1.0000   1.0000   1.0000   1.0000   1.0000   1.0000   1.0000
     1.0000   1.0000   1.0000   1.0000   1.0000   1.0000   1.0000   1.0000
     1.0000   1.0000   1.0000   1.0000   1.0000   1.0000   1.0000   1.0000
     1.0000   1.0000   1.0000   1.0000   1.0000   1.0000   1.0000   1.0000
     1.0000   1.0000   1.0000   1.0000   1.0000   1.0000   1.0000   1.0000
     1.0000   1.0000   1.0000   1.0000   1.0000   1.0000   1.0000   1.0000
     1.0000   1.0000   1.0000   1.0000   1.0000   1.0000   1.0000   1.0000
     1.0000   1.0000   1.0000   1.0000   1.0000   1.0000   1.0000   1.0000
     1.0000   1.0000   1.0000   1.0000   1.0000   1.0000   1.0000   1.0000
     1.0000   1.0000   1.0000   1.0000   1.0000   1.0000   1.0000   1.0000
     1.0000   1.0000   1.0000   1.0000   1.0000   1.0000   1.0000   1.0000
     1.0000   1.0000   1.0000   1.0000   1.0000   1.0000   1.0000   1.0000
     1.0000   1.0000   1.0000   1.0000   1.0000   1.0000   1.0000   1.0000
     1.0000   1.0000   1.0000   1.0000   1.0000   1.0000   1.0000   1.0000
     1.0000   1.0000   1.0000   1.0000   1.0000   1.0000   1.0000   1.0000
     1.0000   1.0000   1.0000   1.0000   1.0000   0.9999   0.9998   0.9997
     0.9996   0.9986   0.9980   0.9979   0.9973   0.9961   0.9928   0.9919
     0.9842   0.9798   0.9788   0.8361   0.8045   0.7696   0.7137   0.6021
     0.5752   0.5209   0.4640   0.2487   0.0352   0.0258   0.0230   0.0072
     0.0051   0.0036   0.0020   0.0003   0.0002   0.0000   0.0000   0.0000
     0.0000   0.0000   0.0000   0.0000   0.0000   0.0000   0.0000   0.0000
     0.0000   0.0000   0.0000   0.0000   0.0000   0.0000   0.0000   0.0000
     0.0000   0.0000   0.0000   0.0000   0.0000   0.0000   0.0000   0.0000
     0.0000   0.0000   0.0000   0.0000   0.0000   0.0000   0.0000   0.0000
     0.0000   0.0000   0.0000   0.0000   0.0000   0.0000   0.0000   0.0000
     0.0000   0.0000   0.0000   0.0000   0.0000   0.0000   0.0000   0.0000

          k = 0.3333 0.1925 0.0000 ( 88170 PWs)   bands (ev):

   -95.5300 -95.5245 -95.5191 -95.5187 -95.5183 -95.5137 -95.5119 -95.5108
   -95.4990 -95.4941 -95.4939 -95.4918 -95.4896 -95.4892 -95.4859 -95.4853
   -95.4832 -95.3854 -95.1307 -95.1246 -95.1238 -95.0909 -95.0838 -95.0819
   -95.0786 -95.0736 -95.0701 -95.0679 -95.0656 -95.0650 -95.0613 -95.0575
   -95.0572 -94.8840 -94.8814 -94.8796 -49.8327 -49.8133 -49.8081 -49.8032
   -49.7894 -49.7868 -49.7840 -49.7826 -49.7731 -49.7648 -49.7641 -49.7577
   -49.7437 -49.7322 -49.7159 -49.7148 -49.6897 -49.6871 -49.6709 -49.6684
   -49.6628 -49.6601 -49.6598 -49.6578 -49.6454 -49.6450 -49.6261 -49.6212
   -49.6178 -49.6125 -49.6046 -49.6037 -49.6029 -49.5960 -49.5900 -49.5893
   -49.5830 -49.5817 -49.5803 -49.5771 -49.5703 -49.5695 -49.5622 -49.5614
   -49.5578 -49.5512 -49.5469 -49.5395 -49.5373 -49.5276 -49.5137 -49.4901
   -49.4731 -49.4675 -49.4570 -49.4562 -49.4413 -49.4381 -49.4182 -49.4171
   -49.4134 -49.4127 -49.4093 -49.4090 -49.3694 -49.3501 -49.3425 -49.3422
   -49.3087 -49.3083 -49.2936 -49.2919 -49.2875 -49.2710 -49.2513 -49.2510
   -49.2488 -49.2408 -49.2381 -49.2243 -49.2237 -49.2010 -49.1973 -49.1752
   -49.1552 -49.1225 -49.1098 -49.0934 -49.0834 -49.0668 -49.0399 -49.0306
   -49.0285 -49.0113 -49.0091 -49.0013 -49.0003 -48.9984 -48.9955 -48.9931
   -48.9887 -48.9878 -48.9838 -48.9785 -48.9782 -48.7981 -48.7927 -48.7904
   -15.0520  -5.7837  -4.7233  -4.4890  -3.8649  -3.8640  -3.5720  -3.4601
    -3.3953  -3.3254  -3.2603  -3.2230  -3.2211  -2.9972  -2.9652  -2.9130
    -2.9061  -2.8054  -2.6695  -2.6138  -2.5755  -2.5735  -2.5381  -2.5321
    -2.5122  -2.5034  -2.4598  -2.4293  -2.3486  -2.3253  -2.3099  -2.2959
    -2.0936  -2.0896  -2.0487  -2.0347  -2.0083  -2.0050  -1.8107  -1.8048
    -1.7290  -1.7101  -1.6780  -1.6082  -1.5622  -1.5615  -1.5366  -1.5077
    -1.3727  -1.3680  -1.3108  -1.2851  -1.2688  -1.2642  -1.1767  -1.1467
    -1.1191  -1.0107  -0.9276  -0.9241  -0.9039  -0.7912  -0.7577  -0.7293
    -0.7255  -0.6901  -0.6845  -0.6648  -0.5970  -0.4723  -0.4575  -0.4428
    -0.4337  -0.4022  -0.3787  -0.3697  -0.3343  -0.3018  -0.3002  -0.2366
    -0.2350  -0.2170  -0.2037  -0.1837  -0.1757  -0.1697  -0.1643  -0.1211
    -0.1109  -0.0781  -0.0491  -0.0242  -0.0170   0.0133   0.0178   0.0336
     0.0337   0.1255   0.1457   0.1491   0.1706   0.1774   0.2201   0.2836
     0.2867   0.3037   0.3086   0.3405   0.4069   0.4867   0.4931   0.5489
     0.5572   0.6012   0.6152   0.6962   0.7271   0.8726   0.8954   0.8974
     0.9206   0.9223   0.9404   0.9494   0.9703   0.9719   1.0529   1.0639
     1.0933   1.0963   1.1284   1.1782   1.2461   1.2796   1.3002   1.3332
     1.4678   1.4803   1.5021   1.5109   1.5225   1.5340   1.6887   1.7564
     1.7648   1.7824   1.7834   1.8168   1.8279   1.8611   1.8997   1.9160
     1.9754   1.9930   2.0370   2.1015   2.1144   2.1177   2.1293   2.1375
     2.1599   2.1818   2.3341   2.3732   2.3930   2.4196   2.4357   2.4368
     2.4639   2.5353   2.5530   2.5999   2.6415   2.6448   2.6549   2.6616
     2.7638   2.7840   2.7907   2.8417   2.8496   2.8780   2.8879   2.9065
     2.9325   2.9707   3.0559   3.1002   3.1196   3.1262   3.1409   3.1428
     3.3124   3.3219   3.3605   3.7253   3.7383   3.8080   3.8089   3.8244
     4.1008   4.1303   4.2831   5.0047   5.0554   5.1359   5.1570   5.2243
     5.7998   5.8028   5.8298   5.8322   6.5477   6.5711   7.0243   7.1914
     7.2857   7.2919   7.7401   7.7645   8.2214   8.2367   8.5531   8.5541
     8.5827   8.9115   9.0956   9.1634   9.1824   9.4571   9.4627   9.5588
     9.5639   9.6837   9.9210   9.9733  10.1507  10.1992  10.2649  10.2849
    10.3984  10.4347  10.5264  10.6746  11.0170  11.1376  11.1866  11.2096

     occupation numbers 
     1.0000   1.0000   1.0000   1.0000   1.0000   1.0000   1.0000   1.0000
     1.0000   1.0000   1.0000   1.0000   1.0000   1.0000   1.0000   1.0000
     1.0000   1.0000   1.0000   1.0000   1.0000   1.0000   1.0000   1.0000
     1.0000   1.0000   1.0000   1.0000   1.0000   1.0000   1.0000   1.0000
     1.0000   1.0000   1.0000   1.0000   1.0000   1.0000   1.0000   1.0000
     1.0000   1.0000   1.0000   1.0000   1.0000   1.0000   1.0000   1.0000
     1.0000   1.0000   1.0000   1.0000   1.0000   1.0000   1.0000   1.0000
     1.0000   1.0000   1.0000   1.0000   1.0000   1.0000   1.0000   1.0000
     1.0000   1.0000   1.0000   1.0000   1.0000   1.0000   1.0000   1.0000
     1.0000   1.0000   1.0000   1.0000   1.0000   1.0000   1.0000   1.0000
     1.0000   1.0000   1.0000   1.0000   1.0000   1.0000   1.0000   1.0000
     1.0000   1.0000   1.0000   1.0000   1.0000   1.0000   1.0000   1.0000
     1.0000   1.0000   1.0000   1.0000   1.0000   1.0000   1.0000   1.0000
     1.0000   1.0000   1.0000   1.0000   1.0000   1.0000   1.0000   1.0000
     1.0000   1.0000   1.0000   1.0000   1.0000   1.0000   1.0000   1.0000
     1.0000   1.0000   1.0000   1.0000   1.0000   1.0000   1.0000   1.0000
     1.0000   1.0000   1.0000   1.0000   1.0000   1.0000   1.0000   1.0000
     1.0000   1.0000   1.0000   1.0000   1.0000   1.0000   1.0000   1.0000
     1.0000   1.0000   1.0000   1.0000   1.0000   1.0000   1.0000   1.0000
     1.0000   1.0000   1.0000   1.0000   1.0000   1.0000   1.0000   1.0000
     1.0000   1.0000   1.0000   1.0000   1.0000   1.0000   1.0000   1.0000
     1.0000   1.0000   1.0000   1.0000   1.0000   1.0000   1.0000   1.0000
     1.0000   1.0000   1.0000   1.0000   1.0000   1.0000   1.0000   1.0000
     1.0000   1.0000   1.0000   1.0000   1.0000   1.0000   1.0000   1.0000
     1.0000   1.0000   1.0000   1.0000   1.0000   1.0000   1.0000   1.0000
     1.0000   1.0000   1.0000   1.0000   1.0000   1.0000   1.0000   1.0000
     1.0000   1.0000   1.0000   1.0000   1.0000   1.0000   1.0000   1.0000
     1.0000   1.0000   1.0000   1.0000   1.0000   1.0000   1.0000   1.0000
     1.0000   1.0000   1.0000   1.0000   1.0000   1.0000   1.0000   1.0000
     1.0000   1.0000   1.0000   1.0000   1.0000   1.0000   1.0000   1.0000
     1.0000   1.0000   1.0000   1.0000   1.0000   1.0000   1.0000   1.0000
     1.0000   1.0000   1.0000   1.0000   1.0000   1.0000   1.0000   1.0000
     1.0000   1.0000   1.0000   1.0000   1.0000   1.0000   1.0000   1.0000
     1.0000   1.0000   1.0000   1.0000   1.0000   1.0000   1.0000   1.0000
     1.0000   1.0000   1.0000   1.0000   1.0000   1.0000   1.0000   1.0000
     1.0000   1.0000   1.0000   1.0000   1.0000   1.0000   1.0000   1.0000
     1.0000   1.0000   1.0000   1.0000   1.0000   1.0000   1.0000   1.0000
     1.0000   1.0000   1.0000   1.0000   1.0000   1.0000   1.0000   1.0000
     1.0000   1.0000   1.0000   1.0000   1.0000   1.0000   1.0000   1.0000
     0.9999   0.9997   0.9995   0.9987   0.9971   0.9969   0.9962   0.9957
     0.9676   0.9522   0.9458   0.8626   0.8428   0.7525   0.7139   0.6320
     0.5055   0.3225   0.0797   0.0345   0.0237   0.0208   0.0156   0.0150
     0.0005   0.0004   0.0002   0.0000   0.0000   0.0000   0.0000   0.0000
     0.0000   0.0000   0.0000   0.0000   0.0000   0.0000   0.0000   0.0000
     0.0000   0.0000   0.0000   0.0000   0.0000   0.0000   0.0000   0.0000
     0.0000   0.0000   0.0000   0.0000   0.0000   0.0000   0.0000   0.0000
     0.0000   0.0000   0.0000   0.0000   0.0000   0.0000   0.0000   0.0000
     0.0000   0.0000   0.0000   0.0000   0.0000   0.0000   0.0000   0.0000
     0.0000   0.0000   0.0000   0.0000   0.0000   0.0000   0.0000   0.0000

          k = 0.3333-0.7698 0.0000 ( 88140 PWs)   bands (ev):

   -95.5294 -95.5252 -95.5197 -95.5184 -95.5182 -95.5138 -95.5117 -95.5107
   -95.4990 -95.4942 -95.4940 -95.4917 -95.4899 -95.4893 -95.4855 -95.4849
   -95.4837 -95.3854 -95.1307 -95.1246 -95.1239 -95.0909 -95.0838 -95.0819
   -95.0775 -95.0748 -95.0712 -95.0670 -95.0655 -95.0649 -95.0611 -95.0577
   -95.0570 -94.8840 -94.8814 -94.8795 -49.8367 -49.8250 -49.8178 -49.8080
   -49.7980 -49.7917 -49.7847 -49.7763 -49.7699 -49.7643 -49.7622 -49.7582
   -49.7484 -49.7357 -49.7323 -49.6836 -49.6771 -49.6740 -49.6706 -49.6640
   -49.6611 -49.6550 -49.6495 -49.6421 -49.6364 -49.6332 -49.6273 -49.6222
   -49.6171 -49.6127 -49.6087 -49.6038 -49.5999 -49.5980 -49.5957 -49.5926
   -49.5888 -49.5825 -49.5788 -49.5773 -49.5727 -49.5684 -49.5635 -49.5610
   -49.5585 -49.5576 -49.5548 -49.5494 -49.5372 -49.5307 -49.5174 -49.4930
   -49.4774 -49.4708 -49.4624 -49.4550 -49.4485 -49.4442 -49.4328 -49.4264
   -49.4192 -49.4053 -49.4019 -49.3954 -49.3727 -49.3675 -49.3282 -49.3006
   -49.2999 -49.2925 -49.2873 -49.2849 -49.2722 -49.2669 -49.2642 -49.2589
   -49.2534 -49.2461 -49.2452 -49.2389 -49.2245 -49.2080 -49.1940 -49.1819
   -49.1470 -49.1233 -49.1082 -49.0979 -49.0876 -49.0708 -49.0394 -49.0309
   -49.0287 -49.0109 -49.0073 -49.0031 -49.0004 -48.9985 -48.9980 -48.9912
   -48.9885 -48.9876 -48.9834 -48.9790 -48.9781 -48.7982 -48.7927 -48.7903
   -15.0520  -5.4923  -4.9533  -4.4561  -4.2124  -3.7369  -3.3857  -3.3343
    -3.3233  -3.2178  -3.1788  -3.1200  -3.0671  -3.0051  -2.9925  -2.8761
    -2.8020  -2.7953  -2.7286  -2.6900  -2.6559  -2.6439  -2.6221  -2.5876
    -2.5322  -2.4959  -2.4348  -2.4199  -2.3596  -2.3177  -2.2663  -2.2026
    -2.1828  -2.1618  -2.1122  -2.0950  -1.9947  -1.9534  -1.8746  -1.8282
    -1.6926  -1.6358  -1.6173  -1.5506  -1.5323  -1.5225  -1.5069  -1.4278
    -1.4121  -1.3706  -1.3326  -1.2767  -1.2155  -1.1837  -1.1634  -1.1307
    -1.1114  -1.0837  -1.0351  -1.0086  -0.9674  -0.9221  -0.8635  -0.8398
    -0.8348  -0.7845  -0.7564  -0.6541  -0.6180  -0.5967  -0.5433  -0.5278
    -0.5208  -0.4931  -0.4605  -0.4448  -0.4092  -0.3823  -0.3489  -0.3335
    -0.2629  -0.2411  -0.2237  -0.2000  -0.1946  -0.1583  -0.0804  -0.0565
    -0.0357  -0.0247  -0.0060   0.0173   0.0335   0.0337   0.0510   0.0599
     0.0837   0.1055   0.1148   0.1298   0.1445   0.1662   0.2022   0.2121
     0.2291   0.2483   0.2775   0.3159   0.3437   0.3672   0.4047   0.4600
     0.4912   0.5150   0.6035   0.6210   0.6558   0.7552   0.8261   0.8551
     0.8864   0.9109   0.9325   0.9688   0.9918   0.9981   1.0591   1.0861
     1.0996   1.1201   1.1454   1.1838   1.2210   1.2299   1.2888   1.3324
     1.3696   1.4889   1.5128   1.5274   1.5567   1.6071   1.6436   1.6531
     1.6681   1.6938   1.7209   1.7337   1.7704   1.8388   1.8692   1.8986
     1.9115   1.9221   1.9426   1.9660   1.9801   2.0969   2.1276   2.1881
     2.2535   2.2726   2.3555   2.3863   2.4039   2.4629   2.4712   2.4981
     2.5871   2.6288   2.6603   2.6990   2.7139   2.7248   2.7280   2.7393
     2.8142   2.8402   2.8426   2.8820   2.8896   2.9142   2.9635   2.9751
     3.0407   3.0488   3.1299   3.1406   3.1750   3.1984   3.2185   3.2283
     3.2793   3.3039   3.3536   3.9521   4.2126   4.2347   4.2894   4.3572
     4.6444   4.7956   4.8656   5.1641   5.2146   5.2441   5.2882   5.3831
     5.6423   5.7710   5.8477   6.0874   6.3810   6.4549   6.5080   6.6476
     6.8158   7.1225   7.2998   7.5486   7.6037   7.6247   8.3631   8.6160
     8.6361   8.6979   8.8790   9.1003   9.1231   9.2131   9.4428   9.4879
     9.5143   9.7393   9.8483   9.8774  10.0849  10.1008  10.1258  10.4504
    10.4822  10.7528  10.8398  10.8701  10.9505  10.9629  11.1227  11.1503

     occupation numbers 
     1.0000   1.0000   1.0000   1.0000   1.0000   1.0000   1.0000   1.0000
     1.0000   1.0000   1.0000   1.0000   1.0000   1.0000   1.0000   1.0000
     1.0000   1.0000   1.0000   1.0000   1.0000   1.0000   1.0000   1.0000
     1.0000   1.0000   1.0000   1.0000   1.0000   1.0000   1.0000   1.0000
     1.0000   1.0000   1.0000   1.0000   1.0000   1.0000   1.0000   1.0000
     1.0000   1.0000   1.0000   1.0000   1.0000   1.0000   1.0000   1.0000
     1.0000   1.0000   1.0000   1.0000   1.0000   1.0000   1.0000   1.0000
     1.0000   1.0000   1.0000   1.0000   1.0000   1.0000   1.0000   1.0000
     1.0000   1.0000   1.0000   1.0000   1.0000   1.0000   1.0000   1.0000
     1.0000   1.0000   1.0000   1.0000   1.0000   1.0000   1.0000   1.0000
     1.0000   1.0000   1.0000   1.0000   1.0000   1.0000   1.0000   1.0000
     1.0000   1.0000   1.0000   1.0000   1.0000   1.0000   1.0000   1.0000
     1.0000   1.0000   1.0000   1.0000   1.0000   1.0000   1.0000   1.0000
     1.0000   1.0000   1.0000   1.0000   1.0000   1.0000   1.0000   1.0000
     1.0000   1.0000   1.0000   1.0000   1.0000   1.0000   1.0000   1.0000
     1.0000   1.0000   1.0000   1.0000   1.0000   1.0000   1.0000   1.0000
     1.0000   1.0000   1.0000   1.0000   1.0000   1.0000   1.0000   1.0000
     1.0000   1.0000   1.0000   1.0000   1.0000   1.0000   1.0000   1.0000
     1.0000   1.0000   1.0000   1.0000   1.0000   1.0000   1.0000   1.0000
     1.0000   1.0000   1.0000   1.0000   1.0000   1.0000   1.0000   1.0000
     1.0000   1.0000   1.0000   1.0000   1.0000   1.0000   1.0000   1.0000
     1.0000   1.0000   1.0000   1.0000   1.0000   1.0000   1.0000   1.0000
     1.0000   1.0000   1.0000   1.0000   1.0000   1.0000   1.0000   1.0000
     1.0000   1.0000   1.0000   1.0000   1.0000   1.0000   1.0000   1.0000
     1.0000   1.0000   1.0000   1.0000   1.0000   1.0000   1.0000   1.0000
     1.0000   1.0000   1.0000   1.0000   1.0000   1.0000   1.0000   1.0000
     1.0000   1.0000   1.0000   1.0000   1.0000   1.0000   1.0000   1.0000
     1.0000   1.0000   1.0000   1.0000   1.0000   1.0000   1.0000   1.0000
     1.0000   1.0000   1.0000   1.0000   1.0000   1.0000   1.0000   1.0000
     1.0000   1.0000   1.0000   1.0000   1.0000   1.0000   1.0000   1.0000
     1.0000   1.0000   1.0000   1.0000   1.0000   1.0000   1.0000   1.0000
     1.0000   1.0000   1.0000   1.0000   1.0000   1.0000   1.0000   1.0000
     1.0000   1.0000   1.0000   1.0000   1.0000   1.0000   1.0000   1.0000
     1.0000   1.0000   1.0000   1.0000   1.0000   1.0000   1.0000   1.0000
     1.0000   1.0000   1.0000   1.0000   1.0000   1.0000   1.0000   1.0000
     1.0000   1.0000   1.0000   1.0000   1.0000   1.0000   1.0000   1.0000
     1.0000   1.0000   1.0000   1.0000   1.0000   1.0000   1.0000   1.0000
     1.0000   1.0000   1.0000   1.0000   1.0000   1.0000   1.0000   1.0000
     1.0000   1.0000   1.0000   1.0000   1.0000   0.9999   0.9999   0.9998
     0.9990   0.9978   0.9958   0.9909   0.9878   0.9849   0.9839   0.9799
     0.9159   0.8663   0.8605   0.7374   0.7068   0.5959   0.3547   0.3034
     0.1051   0.0907   0.0193   0.0157   0.0079   0.0050   0.0033   0.0027
     0.0010   0.0006   0.0002   0.0000   0.0000   0.0000   0.0000   0.0000
     0.0000   0.0000   0.0000   0.0000   0.0000   0.0000   0.0000   0.0000
     0.0000   0.0000   0.0000   0.0000   0.0000   0.0000   0.0000   0.0000
     0.0000   0.0000   0.0000   0.0000   0.0000   0.0000   0.0000   0.0000
     0.0000   0.0000   0.0000   0.0000   0.0000   0.0000   0.0000   0.0000
     0.0000   0.0000   0.0000   0.0000   0.0000   0.0000   0.0000   0.0000
     0.0000   0.0000   0.0000   0.0000   0.0000   0.0000   0.0000   0.0000

          k = 0.3333-0.5774 0.0000 ( 88062 PWs)   bands (ev):

   -95.5289 -95.5256 -95.5200 -95.5184 -95.5180 -95.5138 -95.5116 -95.5106
   -95.4990 -95.4942 -95.4940 -95.4916 -95.4902 -95.4892 -95.4849 -95.4847
   -95.4842 -95.3853 -95.1306 -95.1246 -95.1239 -95.0908 -95.0838 -95.0819
   -95.0763 -95.0757 -95.0721 -95.0657 -95.0656 -95.0654 -95.0611 -95.0578
   -95.0569 -94.8840 -94.8814 -94.8795 -49.8356 -49.8293 -49.8274 -49.8058
   -49.8051 -49.7991 -49.7801 -49.7721 -49.7641 -49.7630 -49.7610 -49.7592
   -49.7488 -49.7434 -49.7373 -49.6793 -49.6776 -49.6767 -49.6605 -49.6554
   -49.6515 -49.6435 -49.6408 -49.6391 -49.6353 -49.6318 -49.6249 -49.6196
   -49.6189 -49.6132 -49.6082 -49.6074 -49.6051 -49.5987 -49.5926 -49.5922
   -49.5903 -49.5844 -49.5830 -49.5762 -49.5755 -49.5737 -49.5657 -49.5649
   -49.5631 -49.5568 -49.5519 -49.5498 -49.5365 -49.5345 -49.5225 -49.4874
   -49.4845 -49.4687 -49.4680 -49.4543 -49.4537 -49.4409 -49.4393 -49.4381
   -49.4202 -49.3896 -49.3876 -49.3871 -49.3867 -49.3853 -49.3148 -49.3074
   -49.2824 -49.2722 -49.2715 -49.2705 -49.2703 -49.2631 -49.2613 -49.2610
   -49.2598 -49.2594 -49.2575 -49.2572 -49.2377 -49.1950 -49.1930 -49.1928
   -49.1399 -49.1207 -49.1190 -49.0960 -49.0846 -49.0765 -49.0391 -49.0310
   -49.0289 -49.0107 -49.0052 -49.0047 -49.0003 -48.9998 -48.9985 -48.9891
   -48.9888 -48.9882 -48.9833 -48.9793 -48.9780 -48.7982 -48.7927 -48.7903
   -15.0520  -5.0613  -5.0479  -4.9848  -3.8353  -3.8208  -3.7212  -3.1941
    -3.1747  -3.1710  -3.0508  -3.0487  -3.0222  -2.8998  -2.8691  -2.8273
    -2.7502  -2.7286  -2.7200  -2.7105  -2.7095  -2.6911  -2.6802  -2.6625
    -2.5804  -2.5522  -2.5314  -2.4897  -2.3225  -2.3153  -2.2966  -2.2393
    -2.2323  -2.2103  -2.1809  -2.1406  -2.1352  -1.7669  -1.7612  -1.7265
    -1.7116  -1.6585  -1.6489  -1.6459  -1.6200  -1.6143  -1.2895  -1.2862
    -1.2748  -1.2724  -1.2579  -1.2423  -1.1944  -1.1858  -1.1771  -1.1481
    -1.1086  -1.0820  -1.0530  -1.0512  -1.0167  -0.9961  -0.9754  -0.9736
    -0.8011  -0.7625  -0.7385  -0.7146  -0.6979  -0.6659  -0.5694  -0.5611
    -0.5586  -0.5495  -0.5367  -0.4469  -0.3548  -0.3448  -0.3220  -0.2997
    -0.2869  -0.2317  -0.2291  -0.2220  -0.2000  -0.1968  -0.1867  -0.1769
    -0.1557  -0.0724  -0.0589  -0.0108   0.0020   0.0057   0.0175   0.0336
     0.0337   0.1448   0.1708   0.1871   0.1907   0.1946   0.2102   0.2224
     0.2263   0.2280   0.2616   0.2715   0.2963   0.3682   0.3812   0.4116
     0.4121   0.4265   0.4382   0.7811   0.8063   0.8234   0.8365   0.8543
     0.8560   0.8657   0.8795   0.9166   0.9331   0.9369   0.9430   1.0871
     1.1016   1.1140   1.1432   1.1713   1.1728   1.2057   1.2992   1.3034
     1.4147   1.4245   1.4327   1.6044   1.6140   1.6186   1.6672   1.6836
     1.7052   1.7138   1.7370   1.7411   1.7647   1.7718   1.7731   1.8550
     1.8849   1.9111   2.0187   2.0396   2.0805   2.1082   2.1111   2.1207
     2.1289   2.1465   2.1563   2.5289   2.5419   2.5470   2.5569   2.5709
     2.5840   2.6675   2.6772   2.6796   2.7427   2.7711   2.7737   2.8457
     2.8491   2.8498   2.9260   2.9286   2.9413   2.9444   2.9596   2.9640
     3.0489   3.0540   3.0640   3.1251   3.1274   3.1399   3.1675   3.1784
     3.1995   3.9911   3.9926   4.0047   4.2584   4.2708   4.2830   4.7082
     4.7146   4.7512   5.2694   5.2773   5.2872   5.3025   5.3191   5.3381
     6.0722   6.0789   6.0834   6.4680   6.4851   6.4946   6.5693   6.5879
     6.6208   6.6791   6.6972   6.7027   7.2864   7.3160   7.3187   8.6413
     8.6441   8.6720   8.8179   8.8717   8.8948   9.3268   9.4840   9.4901
     9.5785   9.6050   9.6332  10.2811  10.2972  10.3855  10.3922  10.4775
    10.4896  10.8180  10.8489  10.8721  11.0640  11.1156  11.1735  11.1757

     occupation numbers 
     1.0000   1.0000   1.0000   1.0000   1.0000   1.0000   1.0000   1.0000
     1.0000   1.0000   1.0000   1.0000   1.0000   1.0000   1.0000   1.0000
     1.0000   1.0000   1.0000   1.0000   1.0000   1.0000   1.0000   1.0000
     1.0000   1.0000   1.0000   1.0000   1.0000   1.0000   1.0000   1.0000
     1.0000   1.0000   1.0000   1.0000   1.0000   1.0000   1.0000   1.0000
     1.0000   1.0000   1.0000   1.0000   1.0000   1.0000   1.0000   1.0000
     1.0000   1.0000   1.0000   1.0000   1.0000   1.0000   1.0000   1.0000
     1.0000   1.0000   1.0000   1.0000   1.0000   1.0000   1.0000   1.0000
     1.0000   1.0000   1.0000   1.0000   1.0000   1.0000   1.0000   1.0000
     1.0000   1.0000   1.0000   1.0000   1.0000   1.0000   1.0000   1.0000
     1.0000   1.0000   1.0000   1.0000   1.0000   1.0000   1.0000   1.0000
     1.0000   1.0000   1.0000   1.0000   1.0000   1.0000   1.0000   1.0000
     1.0000   1.0000   1.0000   1.0000   1.0000   1.0000   1.0000   1.0000
     1.0000   1.0000   1.0000   1.0000   1.0000   1.0000   1.0000   1.0000
     1.0000   1.0000   1.0000   1.0000   1.0000   1.0000   1.0000   1.0000
     1.0000   1.0000   1.0000   1.0000   1.0000   1.0000   1.0000   1.0000
     1.0000   1.0000   1.0000   1.0000   1.0000   1.0000   1.0000   1.0000
     1.0000   1.0000   1.0000   1.0000   1.0000   1.0000   1.0000   1.0000
     1.0000   1.0000   1.0000   1.0000   1.0000   1.0000   1.0000   1.0000
     1.0000   1.0000   1.0000   1.0000   1.0000   1.0000   1.0000   1.0000
     1.0000   1.0000   1.0000   1.0000   1.0000   1.0000   1.0000   1.0000
     1.0000   1.0000   1.0000   1.0000   1.0000   1.0000   1.0000   1.0000
     1.0000   1.0000   1.0000   1.0000   1.0000   1.0000   1.0000   1.0000
     1.0000   1.0000   1.0000   1.0000   1.0000   1.0000   1.0000   1.0000
     1.0000   1.0000   1.0000   1.0000   1.0000   1.0000   1.0000   1.0000
     1.0000   1.0000   1.0000   1.0000   1.0000   1.0000   1.0000   1.0000
     1.0000   1.0000   1.0000   1.0000   1.0000   1.0000   1.0000   1.0000
     1.0000   1.0000   1.0000   1.0000   1.0000   1.0000   1.0000   1.0000
     1.0000   1.0000   1.0000   1.0000   1.0000   1.0000   1.0000   1.0000
     1.0000   1.0000   1.0000   1.0000   1.0000   1.0000   1.0000   1.0000
     1.0000   1.0000   1.0000   1.0000   1.0000   1.0000   1.0000   1.0000
     1.0000   1.0000   1.0000   1.0000   1.0000   1.0000   1.0000   1.0000
     1.0000   1.0000   1.0000   1.0000   1.0000   1.0000   1.0000   1.0000
     1.0000   1.0000   1.0000   1.0000   1.0000   1.0000   1.0000   1.0000
     1.0000   1.0000   1.0000   1.0000   1.0000   1.0000   1.0000   1.0000
     1.0000   1.0000   1.0000   1.0000   1.0000   1.0000   1.0000   1.0000
     1.0000   1.0000   1.0000   1.0000   1.0000   1.0000   1.0000   1.0000
     1.0000   1.0000   1.0000   1.0000   1.0000   1.0000   1.0000   1.0000
     1.0000   1.0000   1.0000   0.9997   0.9996   0.9996   0.9995   0.9993
     0.9991   0.9951   0.9941   0.9938   0.9785   0.9627   0.9608   0.8530
     0.8442   0.8423   0.5381   0.5248   0.4618   0.4463   0.3728   0.3526
     0.0907   0.0826   0.0686   0.0213   0.0203   0.0159   0.0092   0.0074
     0.0049   0.0000   0.0000   0.0000   0.0000   0.0000   0.0000   0.0000
     0.0000   0.0000   0.0000   0.0000   0.0000   0.0000   0.0000   0.0000
     0.0000   0.0000   0.0000   0.0000   0.0000   0.0000   0.0000   0.0000
     0.0000   0.0000   0.0000   0.0000   0.0000   0.0000   0.0000   0.0000
     0.0000   0.0000   0.0000   0.0000   0.0000   0.0000   0.0000   0.0000
     0.0000   0.0000   0.0000   0.0000   0.0000   0.0000   0.0000   0.0000
     0.0000   0.0000   0.0000   0.0000   0.0000   0.0000   0.0000   0.0000

          k = 0.3333-0.3849 0.0000 ( 88140 PWs)   bands (ev):

   -95.5294 -95.5252 -95.5197 -95.5184 -95.5182 -95.5138 -95.5117 -95.5107
   -95.4990 -95.4942 -95.4940 -95.4917 -95.4899 -95.4893 -95.4855 -95.4849
   -95.4837 -95.3854 -95.1307 -95.1246 -95.1239 -95.0909 -95.0838 -95.0819
   -95.0775 -95.0747 -95.0712 -95.0670 -95.0655 -95.0649 -95.0611 -95.0577
   -95.0570 -94.8840 -94.8814 -94.8795 -49.8368 -49.8250 -49.8178 -49.8080
   -49.7980 -49.7917 -49.7846 -49.7763 -49.7699 -49.7643 -49.7622 -49.7583
   -49.7484 -49.7357 -49.7323 -49.6836 -49.6771 -49.6740 -49.6706 -49.6640
   -49.6611 -49.6550 -49.6495 -49.6421 -49.6364 -49.6332 -49.6273 -49.6222
   -49.6171 -49.6127 -49.6087 -49.6039 -49.5999 -49.5980 -49.5957 -49.5926
   -49.5888 -49.5825 -49.5788 -49.5773 -49.5727 -49.5684 -49.5635 -49.5610
   -49.5585 -49.5576 -49.5548 -49.5494 -49.5372 -49.5307 -49.5174 -49.4930
   -49.4774 -49.4708 -49.4624 -49.4550 -49.4485 -49.4442 -49.4328 -49.4264
   -49.4192 -49.4053 -49.4019 -49.3954 -49.3727 -49.3674 -49.3282 -49.3006
   -49.2999 -49.2925 -49.2874 -49.2849 -49.2722 -49.2669 -49.2642 -49.2589
   -49.2534 -49.2461 -49.2452 -49.2389 -49.2245 -49.2080 -49.1940 -49.1819
   -49.1470 -49.1233 -49.1082 -49.0979 -49.0876 -49.0708 -49.0394 -49.0309
   -49.0288 -49.0109 -49.0073 -49.0031 -49.0004 -48.9985 -48.9980 -48.9912
   -48.9885 -48.9876 -48.9834 -48.9790 -48.9781 -48.7982 -48.7927 -48.7903
   -15.0520  -5.4923  -4.9533  -4.4561  -4.2124  -3.7369  -3.3857  -3.3343
    -3.3233  -3.2178  -3.1788  -3.1200  -3.0671  -3.0051  -2.9925  -2.8761
    -2.8020  -2.7953  -2.7286  -2.6900  -2.6559  -2.6439  -2.6221  -2.5876
    -2.5322  -2.4959  -2.4348  -2.4199  -2.3596  -2.3177  -2.2663  -2.2026
    -2.1828  -2.1619  -2.1122  -2.0950  -1.9947  -1.9534  -1.8746  -1.8282
    -1.6926  -1.6358  -1.6173  -1.5506  -1.5323  -1.5225  -1.5069  -1.4278
    -1.4122  -1.3706  -1.3326  -1.2767  -1.2155  -1.1838  -1.1634  -1.1307
    -1.1115  -1.0838  -1.0351  -1.0086  -0.9674  -0.9221  -0.8635  -0.8398
    -0.8348  -0.7845  -0.7564  -0.6541  -0.6180  -0.5967  -0.5432  -0.5277
    -0.5207  -0.4930  -0.4604  -0.4448  -0.4093  -0.3823  -0.3489  -0.3334
    -0.2629  -0.2411  -0.2237  -0.2000  -0.1947  -0.1583  -0.0804  -0.0564
    -0.0357  -0.0247  -0.0060   0.0173   0.0336   0.0336   0.0510   0.0598
     0.0837   0.1055   0.1148   0.1298   0.1445   0.1662   0.2023   0.2121
     0.2291   0.2483   0.2775   0.3159   0.3437   0.3672   0.4047   0.4600
     0.4912   0.5150   0.6035   0.6211   0.6558   0.7552   0.8261   0.8551
     0.8863   0.9110   0.9326   0.9688   0.9918   0.9981   1.0591   1.0861
     1.0996   1.1201   1.1454   1.1838   1.2210   1.2299   1.2888   1.3324
     1.3696   1.4889   1.5127   1.5274   1.5567   1.6071   1.6436   1.6531
     1.6681   1.6938   1.7208   1.7337   1.7704   1.8388   1.8691   1.8986
     1.9115   1.9221   1.9426   1.9660   1.9801   2.0969   2.1276   2.1881
     2.2535   2.2726   2.3555   2.3863   2.4039   2.4629   2.4712   2.4981
     2.5871   2.6288   2.6603   2.6990   2.7140   2.7248   2.7280   2.7394
     2.8142   2.8402   2.8426   2.8820   2.8896   2.9142   2.9635   2.9752
     3.0407   3.0488   3.1299   3.1406   3.1750   3.1984   3.2185   3.2283
     3.2793   3.3039   3.3535   3.9521   4.2126   4.2348   4.2894   4.3572
     4.6444   4.7956   4.8656   5.1640   5.2146   5.2441   5.2882   5.3831
     5.6422   5.7710   5.8477   6.0874   6.3811   6.4548   6.5080   6.6476
     6.8158   7.1225   7.2998   7.5486   7.6038   7.6247   8.3631   8.6160
     8.6362   8.6979   8.8790   9.1003   9.1231   9.2131   9.4427   9.4880
     9.5144   9.7393   9.8482   9.8773  10.0848  10.1008  10.1257  10.4503
    10.4822  10.7528  10.8398  10.8701  10.9505  10.9630  11.1229  11.1523

     occupation numbers 
     1.0000   1.0000   1.0000   1.0000   1.0000   1.0000   1.0000   1.0000
     1.0000   1.0000   1.0000   1.0000   1.0000   1.0000   1.0000   1.0000
     1.0000   1.0000   1.0000   1.0000   1.0000   1.0000   1.0000   1.0000
     1.0000   1.0000   1.0000   1.0000   1.0000   1.0000   1.0000   1.0000
     1.0000   1.0000   1.0000   1.0000   1.0000   1.0000   1.0000   1.0000
     1.0000   1.0000   1.0000   1.0000   1.0000   1.0000   1.0000   1.0000
     1.0000   1.0000   1.0000   1.0000   1.0000   1.0000   1.0000   1.0000
     1.0000   1.0000   1.0000   1.0000   1.0000   1.0000   1.0000   1.0000
     1.0000   1.0000   1.0000   1.0000   1.0000   1.0000   1.0000   1.0000
     1.0000   1.0000   1.0000   1.0000   1.0000   1.0000   1.0000   1.0000
     1.0000   1.0000   1.0000   1.0000   1.0000   1.0000   1.0000   1.0000
     1.0000   1.0000   1.0000   1.0000   1.0000   1.0000   1.0000   1.0000
     1.0000   1.0000   1.0000   1.0000   1.0000   1.0000   1.0000   1.0000
     1.0000   1.0000   1.0000   1.0000   1.0000   1.0000   1.0000   1.0000
     1.0000   1.0000   1.0000   1.0000   1.0000   1.0000   1.0000   1.0000
     1.0000   1.0000   1.0000   1.0000   1.0000   1.0000   1.0000   1.0000
     1.0000   1.0000   1.0000   1.0000   1.0000   1.0000   1.0000   1.0000
     1.0000   1.0000   1.0000   1.0000   1.0000   1.0000   1.0000   1.0000
     1.0000   1.0000   1.0000   1.0000   1.0000   1.0000   1.0000   1.0000
     1.0000   1.0000   1.0000   1.0000   1.0000   1.0000   1.0000   1.0000
     1.0000   1.0000   1.0000   1.0000   1.0000   1.0000   1.0000   1.0000
     1.0000   1.0000   1.0000   1.0000   1.0000   1.0000   1.0000   1.0000
     1.0000   1.0000   1.0000   1.0000   1.0000   1.0000   1.0000   1.0000
     1.0000   1.0000   1.0000   1.0000   1.0000   1.0000   1.0000   1.0000
     1.0000   1.0000   1.0000   1.0000   1.0000   1.0000   1.0000   1.0000
     1.0000   1.0000   1.0000   1.0000   1.0000   1.0000   1.0000   1.0000
     1.0000   1.0000   1.0000   1.0000   1.0000   1.0000   1.0000   1.0000
     1.0000   1.0000   1.0000   1.0000   1.0000   1.0000   1.0000   1.0000
     1.0000   1.0000   1.0000   1.0000   1.0000   1.0000   1.0000   1.0000
     1.0000   1.0000   1.0000   1.0000   1.0000   1.0000   1.0000   1.0000
     1.0000   1.0000   1.0000   1.0000   1.0000   1.0000   1.0000   1.0000
     1.0000   1.0000   1.0000   1.0000   1.0000   1.0000   1.0000   1.0000
     1.0000   1.0000   1.0000   1.0000   1.0000   1.0000   1.0000   1.0000
     1.0000   1.0000   1.0000   1.0000   1.0000   1.0000   1.0000   1.0000
     1.0000   1.0000   1.0000   1.0000   1.0000   1.0000   1.0000   1.0000
     1.0000   1.0000   1.0000   1.0000   1.0000   1.0000   1.0000   1.0000
     1.0000   1.0000   1.0000   1.0000   1.0000   1.0000   1.0000   1.0000
     1.0000   1.0000   1.0000   1.0000   1.0000   1.0000   1.0000   1.0000
     1.0000   1.0000   1.0000   1.0000   1.0000   0.9999   0.9999   0.9998
     0.9990   0.9978   0.9958   0.9909   0.9878   0.9849   0.9839   0.9799
     0.9159   0.8663   0.8605   0.7373   0.7068   0.5959   0.3547   0.3034
     0.1051   0.0907   0.0193   0.0157   0.0079   0.0050   0.0033   0.0028
     0.0010   0.0006   0.0002   0.0000   0.0000   0.0000   0.0000   0.0000
     0.0000   0.0000   0.0000   0.0000   0.0000   0.0000   0.0000   0.0000
     0.0000   0.0000   0.0000   0.0000   0.0000   0.0000   0.0000   0.0000
     0.0000   0.0000   0.0000   0.0000   0.0000   0.0000   0.0000   0.0000
     0.0000   0.0000   0.0000   0.0000   0.0000   0.0000   0.0000   0.0000
     0.0000   0.0000   0.0000   0.0000   0.0000   0.0000   0.0000   0.0000
     0.0000   0.0000   0.0000   0.0000   0.0000   0.0000   0.0000   0.0000

          k =-0.5000 0.2887 0.0000 ( 88178 PWs)   bands (ev):

   -95.5293 -95.5253 -95.5192 -95.5187 -95.5183 -95.5138 -95.5118 -95.5106
   -95.4990 -95.4942 -95.4940 -95.4917 -95.4898 -95.4894 -95.4858 -95.4845
   -95.4839 -95.3854 -95.1307 -95.1247 -95.1238 -95.0909 -95.0838 -95.0819
   -95.0773 -95.0753 -95.0702 -95.0681 -95.0653 -95.0647 -95.0611 -95.0576
   -95.0572 -94.8840 -94.8814 -94.8796 -49.8409 -49.8197 -49.8126 -49.8077
   -49.7942 -49.7900 -49.7882 -49.7867 -49.7705 -49.7683 -49.7669 -49.7640
   -49.7423 -49.7321 -49.7059 -49.7053 -49.6730 -49.6720 -49.6658 -49.6649
   -49.6619 -49.6551 -49.6536 -49.6481 -49.6437 -49.6340 -49.6298 -49.6199
   -49.6147 -49.6096 -49.6092 -49.6035 -49.6021 -49.5933 -49.5926 -49.5891
   -49.5842 -49.5829 -49.5792 -49.5764 -49.5714 -49.5687 -49.5667 -49.5643
   -49.5597 -49.5552 -49.5534 -49.5500 -49.5431 -49.5313 -49.5113 -49.4990
   -49.4750 -49.4731 -49.4596 -49.4576 -49.4486 -49.4391 -49.4199 -49.4197
   -49.4175 -49.4165 -49.4147 -49.4142 -49.3609 -49.3348 -49.3344 -49.3302
   -49.2993 -49.2924 -49.2791 -49.2788 -49.2763 -49.2758 -49.2744 -49.2478
   -49.2416 -49.2405 -49.2403 -49.2394 -49.2263 -49.2262 -49.1866 -49.1837
   -49.1494 -49.1191 -49.1051 -49.0975 -49.0956 -49.0683 -49.0394 -49.0311
   -49.0286 -49.0109 -49.0070 -49.0042 -49.0004 -48.9984 -48.9958 -48.9935
   -48.9880 -48.9873 -48.9834 -48.9788 -48.9783 -48.7982 -48.7927 -48.7903
   -15.0520  -5.3321  -5.2839  -4.0833  -4.0227  -3.8755  -3.8625  -3.4564
    -3.2945  -3.0193  -2.9895  -2.9543  -2.9429  -2.9258  -2.9136  -2.9047
    -2.8835  -2.8659  -2.8461  -2.7966  -2.7560  -2.7384  -2.7072  -2.7016
    -2.6027  -2.5148  -2.3788  -2.3764  -2.3406  -2.3381  -2.1154  -2.1112
    -2.0878  -2.0582  -2.0336  -2.0239  -1.9583  -1.9528  -1.8189  -1.8093
    -1.7368  -1.7250  -1.7204  -1.6433  -1.6372  -1.5094  -1.5084  -1.4737
    -1.4482  -1.3853  -1.3531  -1.2487  -1.2447  -1.2297  -1.1744  -1.1245
    -1.1151  -1.0884  -1.0839  -0.9804  -0.9665  -0.9075  -0.8668  -0.8428
    -0.7980  -0.7802  -0.6660  -0.6304  -0.6260  -0.6189  -0.5837  -0.5740
    -0.5687  -0.5597  -0.5209  -0.3496  -0.3285  -0.3070  -0.3053  -0.3012
    -0.3006  -0.2693  -0.2564  -0.2531  -0.2193  -0.2042  -0.1317  -0.1303
    -0.0860  -0.0808  -0.0675  -0.0367   0.0174   0.0249   0.0336   0.0336
     0.0839   0.1381   0.1594   0.1699   0.1766   0.1869   0.1933   0.2096
     0.2401   0.2802   0.3016   0.4219   0.4383   0.4440   0.5348   0.6185
     0.6706   0.7237   0.7428   0.7636   0.7702   0.8391   0.8551   0.8673
     0.8829   0.8879   0.8909   0.9136   0.9274   0.9569   0.9721   1.0054
     1.0547   1.0556   1.0798   1.0840   1.1376   1.1938   1.2223   1.2386
     1.2676   1.3003   1.4414   1.4613   1.5997   1.6479   1.6642   1.6694
     1.6709   1.7001   1.7977   1.8259   1.9007   1.9093   1.9217   1.9272
     1.9384   1.9577   2.0273   2.0396   2.0611   2.0615   2.0805   2.1638
     2.1839   2.2346   2.2726   2.3162   2.4011   2.4491   2.4498   2.4589
     2.5486   2.5652   2.6403   2.6414   2.6528   2.6589   2.7099   2.7123
     2.7334   2.7454   2.7568   2.8040   2.9267   2.9351   2.9379   2.9541
     2.9603   2.9667   3.0218   3.1890   3.2152   3.2208   3.2299   3.2331
     3.4368   3.4746   3.7375   3.7509   3.9328   4.4045   4.4476   4.7980
     4.8014   4.8041   4.8094   5.2743   5.2844   5.2964   5.3146   5.3351
     5.6232   5.7962   5.7994   5.9192   6.1802   6.1982   6.3508   6.3733
     6.3874   6.4305   8.2615   8.2627   8.2950   8.3188   8.5198   8.5392
     8.6487   8.8031   8.8383   8.8539   8.8823   8.9081   9.1823   9.3022
     9.3459   9.7731   9.7784   9.8431   9.8939  10.1736  10.3114  10.3323
    10.3799  10.6218  10.8042  10.8664  10.8699  10.9020  10.9066  10.9468

     occupation numbers 
     1.0000   1.0000   1.0000   1.0000   1.0000   1.0000   1.0000   1.0000
     1.0000   1.0000   1.0000   1.0000   1.0000   1.0000   1.0000   1.0000
     1.0000   1.0000   1.0000   1.0000   1.0000   1.0000   1.0000   1.0000
     1.0000   1.0000   1.0000   1.0000   1.0000   1.0000   1.0000   1.0000
     1.0000   1.0000   1.0000   1.0000   1.0000   1.0000   1.0000   1.0000
     1.0000   1.0000   1.0000   1.0000   1.0000   1.0000   1.0000   1.0000
     1.0000   1.0000   1.0000   1.0000   1.0000   1.0000   1.0000   1.0000
     1.0000   1.0000   1.0000   1.0000   1.0000   1.0000   1.0000   1.0000
     1.0000   1.0000   1.0000   1.0000   1.0000   1.0000   1.0000   1.0000
     1.0000   1.0000   1.0000   1.0000   1.0000   1.0000   1.0000   1.0000
     1.0000   1.0000   1.0000   1.0000   1.0000   1.0000   1.0000   1.0000
     1.0000   1.0000   1.0000   1.0000   1.0000   1.0000   1.0000   1.0000
     1.0000   1.0000   1.0000   1.0000   1.0000   1.0000   1.0000   1.0000
     1.0000   1.0000   1.0000   1.0000   1.0000   1.0000   1.0000   1.0000
     1.0000   1.0000   1.0000   1.0000   1.0000   1.0000   1.0000   1.0000
     1.0000   1.0000   1.0000   1.0000   1.0000   1.0000   1.0000   1.0000
     1.0000   1.0000   1.0000   1.0000   1.0000   1.0000   1.0000   1.0000
     1.0000   1.0000   1.0000   1.0000   1.0000   1.0000   1.0000   1.0000
     1.0000   1.0000   1.0000   1.0000   1.0000   1.0000   1.0000   1.0000
     1.0000   1.0000   1.0000   1.0000   1.0000   1.0000   1.0000   1.0000
     1.0000   1.0000   1.0000   1.0000   1.0000   1.0000   1.0000   1.0000
     1.0000   1.0000   1.0000   1.0000   1.0000   1.0000   1.0000   1.0000
     1.0000   1.0000   1.0000   1.0000   1.0000   1.0000   1.0000   1.0000
     1.0000   1.0000   1.0000   1.0000   1.0000   1.0000   1.0000   1.0000
     1.0000   1.0000   1.0000   1.0000   1.0000   1.0000   1.0000   1.0000
     1.0000   1.0000   1.0000   1.0000   1.0000   1.0000   1.0000   1.0000
     1.0000   1.0000   1.0000   1.0000   1.0000   1.0000   1.0000   1.0000
     1.0000   1.0000   1.0000   1.0000   1.0000   1.0000   1.0000   1.0000
     1.0000   1.0000   1.0000   1.0000   1.0000   1.0000   1.0000   1.0000
     1.0000   1.0000   1.0000   1.0000   1.0000   1.0000   1.0000   1.0000
     1.0000   1.0000   1.0000   1.0000   1.0000   1.0000   1.0000   1.0000
     1.0000   1.0000   1.0000   1.0000   1.0000   1.0000   1.0000   1.0000
     1.0000   1.0000   1.0000   1.0000   1.0000   1.0000   1.0000   1.0000
     1.0000   1.0000   1.0000   1.0000   1.0000   1.0000   1.0000   1.0000
     1.0000   1.0000   1.0000   1.0000   1.0000   1.0000   1.0000   1.0000
     1.0000   1.0000   1.0000   1.0000   1.0000   1.0000   1.0000   1.0000
     1.0000   1.0000   1.0000   1.0000   1.0000   1.0000   1.0000   1.0000
     1.0000   1.0000   1.0000   1.0000   1.0000   1.0000   1.0000   1.0000
     1.0000   1.0000   1.0000   1.0000   1.0000   0.9999   0.9999   0.9999
     0.9995   0.9994   0.9972   0.9971   0.9964   0.9959   0.9887   0.9882
     0.9821   0.9774   0.9717   0.9304   0.5346   0.4925   0.4785   0.3987
     0.3697   0.3401   0.1463   0.0060   0.0036   0.0032   0.0027   0.0025
     0.0000   0.0000   0.0000   0.0000   0.0000   0.0000   0.0000   0.0000
     0.0000   0.0000   0.0000   0.0000   0.0000   0.0000   0.0000   0.0000
     0.0000   0.0000   0.0000   0.0000   0.0000   0.0000   0.0000   0.0000
     0.0000   0.0000   0.0000   0.0000   0.0000   0.0000   0.0000   0.0000
     0.0000   0.0000   0.0000   0.0000   0.0000   0.0000   0.0000   0.0000
     0.0000   0.0000   0.0000   0.0000   0.0000   0.0000   0.0000   0.0000
     0.0000   0.0000   0.0000   0.0000   0.0000   0.0000   0.0000   0.0000

          k =-0.5000 0.4811 0.0000 ( 88140 PWs)   bands (ev):

   -95.5294 -95.5252 -95.5197 -95.5184 -95.5182 -95.5138 -95.5118 -95.5106
   -95.4990 -95.4942 -95.4940 -95.4916 -95.4900 -95.4892 -95.4855 -95.4848
   -95.4837 -95.3854 -95.1307 -95.1247 -95.1238 -95.0909 -95.0838 -95.0819
   -95.0775 -95.0747 -95.0713 -95.0669 -95.0655 -95.0649 -95.0611 -95.0576
   -95.0571 -94.8840 -94.8814 -94.8796 -49.8367 -49.8240 -49.8186 -49.8081
   -49.7979 -49.7918 -49.7846 -49.7763 -49.7701 -49.7644 -49.7620 -49.7583
   -49.7486 -49.7360 -49.7322 -49.6845 -49.6773 -49.6737 -49.6702 -49.6635
   -49.6608 -49.6552 -49.6495 -49.6423 -49.6366 -49.6335 -49.6272 -49.6224
   -49.6168 -49.6126 -49.6084 -49.6036 -49.5999 -49.5980 -49.5955 -49.5926
   -49.5886 -49.5830 -49.5786 -49.5772 -49.5729 -49.5679 -49.5639 -49.5612
   -49.5584 -49.5574 -49.5547 -49.5492 -49.5375 -49.5310 -49.5175 -49.4929
   -49.4776 -49.4706 -49.4624 -49.4551 -49.4485 -49.4441 -49.4325 -49.4266
   -49.4192 -49.4052 -49.4017 -49.3957 -49.3730 -49.3675 -49.3281 -49.3005
   -49.2999 -49.2927 -49.2870 -49.2847 -49.2723 -49.2670 -49.2639 -49.2591
   -49.2536 -49.2461 -49.2452 -49.2391 -49.2243 -49.2081 -49.1939 -49.1821
   -49.1469 -49.1230 -49.1085 -49.0983 -49.0873 -49.0708 -49.0394 -49.0310
   -49.0286 -49.0109 -49.0074 -49.0030 -49.0004 -48.9984 -48.9980 -48.9912
   -48.9886 -48.9876 -48.9834 -48.9790 -48.9781 -48.7982 -48.7927 -48.7903
   -15.0520  -5.4924  -4.9532  -4.4563  -4.2125  -3.7368  -3.3857  -3.3339
    -3.3231  -3.2179  -3.1800  -3.1201  -3.0674  -3.0045  -2.9916  -2.8754
    -2.8027  -2.7956  -2.7286  -2.6906  -2.6574  -2.6439  -2.6219  -2.5875
    -2.5318  -2.4942  -2.4348  -2.4197  -2.3599  -2.3179  -2.2657  -2.2035
    -2.1830  -2.1617  -2.1127  -2.0959  -1.9945  -1.9522  -1.8745  -1.8283
    -1.6926  -1.6356  -1.6174  -1.5501  -1.5321  -1.5221  -1.5067  -1.4272
    -1.4123  -1.3707  -1.3327  -1.2774  -1.2149  -1.1834  -1.1636  -1.1317
    -1.1111  -1.0838  -1.0352  -1.0080  -0.9669  -0.9206  -0.8629  -0.8395
    -0.8340  -0.7851  -0.7548  -0.6536  -0.6195  -0.5974  -0.5433  -0.5278
    -0.5209  -0.4937  -0.4618  -0.4446  -0.4085  -0.3829  -0.3504  -0.3337
    -0.2630  -0.2410  -0.2224  -0.2002  -0.1944  -0.1582  -0.0805  -0.0578
    -0.0370  -0.0253  -0.0060   0.0172   0.0336   0.0336   0.0511   0.0600
     0.0820   0.1059   0.1139   0.1300   0.1444   0.1659   0.2032   0.2140
     0.2304   0.2492   0.2785   0.3152   0.3436   0.3664   0.4051   0.4595
     0.4910   0.5150   0.6027   0.6209   0.6557   0.7540   0.8259   0.8544
     0.8870   0.9115   0.9328   0.9679   0.9912   0.9980   1.0607   1.0871
     1.0996   1.1204   1.1451   1.1837   1.2208   1.2306   1.2887   1.3321
     1.3693   1.4891   1.5116   1.5274   1.5569   1.6059   1.6435   1.6528
     1.6661   1.6951   1.7216   1.7339   1.7696   1.8395   1.8698   1.8983
     1.9124   1.9226   1.9434   1.9665   1.9804   2.0963   2.1275   2.1898
     2.2527   2.2721   2.3554   2.3854   2.4030   2.4635   2.4713   2.4986
     2.5875   2.6282   2.6602   2.7000   2.7133   2.7250   2.7282   2.7403
     2.8121   2.8392   2.8428   2.8819   2.8901   2.9152   2.9623   2.9738
     3.0406   3.0510   3.1275   3.1388   3.1750   3.1982   3.2209   3.2305
     3.2795   3.3052   3.3536   3.9520   4.2117   4.2341   4.2893   4.3571
     4.6437   4.7966   4.8658   5.1658   5.2151   5.2441   5.2887   5.3837
     5.6420   5.7714   5.8465   6.0884   6.3797   6.4552   6.5075   6.6471
     6.8167   7.1209   7.3014   7.5461   7.6051   7.6247   8.3622   8.6140
     8.6351   8.6995   8.8792   9.1005   9.1226   9.2123   9.4438   9.4886
     9.5143   9.7415   9.8530   9.8786  10.0870  10.0967  10.1256  10.4526
    10.4820  10.7528  10.8376  10.8702  10.9499  10.9625  11.1227  11.2022

     occupation numbers 
     1.0000   1.0000   1.0000   1.0000   1.0000   1.0000   1.0000   1.0000
     1.0000   1.0000   1.0000   1.0000   1.0000   1.0000   1.0000   1.0000
     1.0000   1.0000   1.0000   1.0000   1.0000   1.0000   1.0000   1.0000
     1.0000   1.0000   1.0000   1.0000   1.0000   1.0000   1.0000   1.0000
     1.0000   1.0000   1.0000   1.0000   1.0000   1.0000   1.0000   1.0000
     1.0000   1.0000   1.0000   1.0000   1.0000   1.0000   1.0000   1.0000
     1.0000   1.0000   1.0000   1.0000   1.0000   1.0000   1.0000   1.0000
     1.0000   1.0000   1.0000   1.0000   1.0000   1.0000   1.0000   1.0000
     1.0000   1.0000   1.0000   1.0000   1.0000   1.0000   1.0000   1.0000
     1.0000   1.0000   1.0000   1.0000   1.0000   1.0000   1.0000   1.0000
     1.0000   1.0000   1.0000   1.0000   1.0000   1.0000   1.0000   1.0000
     1.0000   1.0000   1.0000   1.0000   1.0000   1.0000   1.0000   1.0000
     1.0000   1.0000   1.0000   1.0000   1.0000   1.0000   1.0000   1.0000
     1.0000   1.0000   1.0000   1.0000   1.0000   1.0000   1.0000   1.0000
     1.0000   1.0000   1.0000   1.0000   1.0000   1.0000   1.0000   1.0000
     1.0000   1.0000   1.0000   1.0000   1.0000   1.0000   1.0000   1.0000
     1.0000   1.0000   1.0000   1.0000   1.0000   1.0000   1.0000   1.0000
     1.0000   1.0000   1.0000   1.0000   1.0000   1.0000   1.0000   1.0000
     1.0000   1.0000   1.0000   1.0000   1.0000   1.0000   1.0000   1.0000
     1.0000   1.0000   1.0000   1.0000   1.0000   1.0000   1.0000   1.0000
     1.0000   1.0000   1.0000   1.0000   1.0000   1.0000   1.0000   1.0000
     1.0000   1.0000   1.0000   1.0000   1.0000   1.0000   1.0000   1.0000
     1.0000   1.0000   1.0000   1.0000   1.0000   1.0000   1.0000   1.0000
     1.0000   1.0000   1.0000   1.0000   1.0000   1.0000   1.0000   1.0000
     1.0000   1.0000   1.0000   1.0000   1.0000   1.0000   1.0000   1.0000
     1.0000   1.0000   1.0000   1.0000   1.0000   1.0000   1.0000   1.0000
     1.0000   1.0000   1.0000   1.0000   1.0000   1.0000   1.0000   1.0000
     1.0000   1.0000   1.0000   1.0000   1.0000   1.0000   1.0000   1.0000
     1.0000   1.0000   1.0000   1.0000   1.0000   1.0000   1.0000   1.0000
     1.0000   1.0000   1.0000   1.0000   1.0000   1.0000   1.0000   1.0000
     1.0000   1.0000   1.0000   1.0000   1.0000   1.0000   1.0000   1.0000
     1.0000   1.0000   1.0000   1.0000   1.0000   1.0000   1.0000   1.0000
     1.0000   1.0000   1.0000   1.0000   1.0000   1.0000   1.0000   1.0000
     1.0000   1.0000   1.0000   1.0000   1.0000   1.0000   1.0000   1.0000
     1.0000   1.0000   1.0000   1.0000   1.0000   1.0000   1.0000   1.0000
     1.0000   1.0000   1.0000   1.0000   1.0000   1.0000   1.0000   1.0000
     1.0000   1.0000   1.0000   1.0000   1.0000   1.0000   1.0000   1.0000
     1.0000   1.0000   1.0000   1.0000   1.0000   1.0000   1.0000   1.0000
     1.0000   1.0000   1.0000   1.0000   1.0000   0.9999   0.9999   0.9998
     0.9990   0.9978   0.9958   0.9907   0.9879   0.9848   0.9838   0.9795
     0.9191   0.8686   0.8601   0.7377   0.7049   0.5908   0.3602   0.3092
     0.1052   0.0872   0.0203   0.0162   0.0079   0.0050   0.0032   0.0026
     0.0010   0.0006   0.0002   0.0000   0.0000   0.0000   0.0000   0.0000
     0.0000   0.0000   0.0000   0.0000   0.0000   0.0000   0.0000   0.0000
     0.0000   0.0000   0.0000   0.0000   0.0000   0.0000   0.0000   0.0000
     0.0000   0.0000   0.0000   0.0000   0.0000   0.0000   0.0000   0.0000
     0.0000   0.0000   0.0000   0.0000   0.0000   0.0000   0.0000   0.0000
     0.0000   0.0000   0.0000   0.0000   0.0000   0.0000   0.0000   0.0000
     0.0000   0.0000   0.0000   0.0000   0.0000   0.0000   0.0000   0.0000

          k =-0.5000 0.6736 0.0000 ( 88140 PWs)   bands (ev):

   -95.5294 -95.5252 -95.5197 -95.5184 -95.5182 -95.5138 -95.5118 -95.5106
   -95.4990 -95.4942 -95.4940 -95.4916 -95.4900 -95.4892 -95.4855 -95.4848
   -95.4837 -95.3854 -95.1307 -95.1247 -95.1238 -95.0909 -95.0838 -95.0819
   -95.0775 -95.0747 -95.0712 -95.0669 -95.0655 -95.0649 -95.0611 -95.0576
   -95.0571 -94.8840 -94.8814 -94.8796 -49.8367 -49.8240 -49.8186 -49.8081
   -49.7979 -49.7917 -49.7846 -49.7763 -49.7701 -49.7644 -49.7620 -49.7583
   -49.7487 -49.7360 -49.7322 -49.6845 -49.6773 -49.6737 -49.6702 -49.6635
   -49.6608 -49.6552 -49.6495 -49.6422 -49.6366 -49.6335 -49.6272 -49.6224
   -49.6168 -49.6126 -49.6084 -49.6036 -49.5999 -49.5980 -49.5955 -49.5926
   -49.5886 -49.5830 -49.5786 -49.5772 -49.5729 -49.5679 -49.5639 -49.5612
   -49.5584 -49.5574 -49.5547 -49.5492 -49.5374 -49.5310 -49.5175 -49.4929
   -49.4776 -49.4706 -49.4624 -49.4551 -49.4485 -49.4441 -49.4325 -49.4266
   -49.4192 -49.4052 -49.4017 -49.3957 -49.3730 -49.3675 -49.3281 -49.3005
   -49.2999 -49.2927 -49.2870 -49.2847 -49.2723 -49.2670 -49.2639 -49.2591
   -49.2536 -49.2461 -49.2452 -49.2391 -49.2243 -49.2081 -49.1939 -49.1821
   -49.1469 -49.1230 -49.1085 -49.0983 -49.0873 -49.0708 -49.0394 -49.0310
   -49.0286 -49.0109 -49.0074 -49.0030 -49.0004 -48.9984 -48.9980 -48.9911
   -48.9886 -48.9876 -48.9834 -48.9790 -48.9781 -48.7982 -48.7927 -48.7903
   -15.0520  -5.4924  -4.9532  -4.4563  -4.2125  -3.7368  -3.3857  -3.3339
    -3.3231  -3.2178  -3.1800  -3.1201  -3.0674  -3.0045  -2.9916  -2.8754
    -2.8027  -2.7957  -2.7287  -2.6906  -2.6574  -2.6439  -2.6219  -2.5875
    -2.5318  -2.4942  -2.4348  -2.4197  -2.3599  -2.3179  -2.2657  -2.2035
    -2.1830  -2.1617  -2.1127  -2.0959  -1.9945  -1.9522  -1.8745  -1.8283
    -1.6926  -1.6356  -1.6174  -1.5501  -1.5321  -1.5221  -1.5067  -1.4272
    -1.4122  -1.3707  -1.3327  -1.2774  -1.2150  -1.1834  -1.1636  -1.1317
    -1.1111  -1.0838  -1.0352  -1.0080  -0.9669  -0.9206  -0.8630  -0.8395
    -0.8340  -0.7851  -0.7548  -0.6536  -0.6194  -0.5974  -0.5434  -0.5279
    -0.5210  -0.4937  -0.4618  -0.4446  -0.4085  -0.3829  -0.3504  -0.3337
    -0.2630  -0.2410  -0.2224  -0.2003  -0.1944  -0.1581  -0.0805  -0.0578
    -0.0369  -0.0253  -0.0060   0.0172   0.0335   0.0337   0.0511   0.0600
     0.0820   0.1058   0.1139   0.1300   0.1444   0.1659   0.2032   0.2140
     0.2304   0.2492   0.2785   0.3152   0.3436   0.3664   0.4051   0.4595
     0.4910   0.5150   0.6027   0.6209   0.6557   0.7540   0.8260   0.8544
     0.8871   0.9115   0.9327   0.9679   0.9912   0.9980   1.0607   1.0871
     1.0996   1.1204   1.1451   1.1837   1.2207   1.2306   1.2887   1.3321
     1.3693   1.4891   1.5117   1.5274   1.5569   1.6060   1.6435   1.6528
     1.6661   1.6951   1.7216   1.7339   1.7696   1.8395   1.8698   1.8983
     1.9124   1.9226   1.9434   1.9665   1.9804   2.0963   2.1275   2.1898
     2.2527   2.2721   2.3554   2.3854   2.4030   2.4635   2.4713   2.4986
     2.5875   2.6282   2.6602   2.7000   2.7133   2.7250   2.7282   2.7402
     2.8121   2.8392   2.8428   2.8819   2.8900   2.9152   2.9623   2.9738
     3.0406   3.0510   3.1276   3.1388   3.1750   3.1982   3.2209   3.2306
     3.2795   3.3051   3.3536   3.9520   4.2117   4.2341   4.2892   4.3571
     4.6437   4.7966   4.8658   5.1658   5.2151   5.2441   5.2887   5.3836
     5.6421   5.7714   5.8465   6.0884   6.3797   6.4552   6.5075   6.6472
     6.8166   7.1209   7.3014   7.5461   7.6050   7.6247   8.3622   8.6140
     8.6350   8.6995   8.8792   9.1005   9.1226   9.2123   9.4438   9.4885
     9.5143   9.7415   9.8530   9.8786  10.0870  10.0968  10.1256  10.4526
    10.4820  10.7528  10.8376  10.8702  10.9499  10.9624  11.1223  11.2047

     occupation numbers 
     1.0000   1.0000   1.0000   1.0000   1.0000   1.0000   1.0000   1.0000
     1.0000   1.0000   1.0000   1.0000   1.0000   1.0000   1.0000   1.0000
     1.0000   1.0000   1.0000   1.0000   1.0000   1.0000   1.0000   1.0000
     1.0000   1.0000   1.0000   1.0000   1.0000   1.0000   1.0000   1.0000
     1.0000   1.0000   1.0000   1.0000   1.0000   1.0000   1.0000   1.0000
     1.0000   1.0000   1.0000   1.0000   1.0000   1.0000   1.0000   1.0000
     1.0000   1.0000   1.0000   1.0000   1.0000   1.0000   1.0000   1.0000
     1.0000   1.0000   1.0000   1.0000   1.0000   1.0000   1.0000   1.0000
     1.0000   1.0000   1.0000   1.0000   1.0000   1.0000   1.0000   1.0000
     1.0000   1.0000   1.0000   1.0000   1.0000   1.0000   1.0000   1.0000
     1.0000   1.0000   1.0000   1.0000   1.0000   1.0000   1.0000   1.0000
     1.0000   1.0000   1.0000   1.0000   1.0000   1.0000   1.0000   1.0000
     1.0000   1.0000   1.0000   1.0000   1.0000   1.0000   1.0000   1.0000
     1.0000   1.0000   1.0000   1.0000   1.0000   1.0000   1.0000   1.0000
     1.0000   1.0000   1.0000   1.0000   1.0000   1.0000   1.0000   1.0000
     1.0000   1.0000   1.0000   1.0000   1.0000   1.0000   1.0000   1.0000
     1.0000   1.0000   1.0000   1.0000   1.0000   1.0000   1.0000   1.0000
     1.0000   1.0000   1.0000   1.0000   1.0000   1.0000   1.0000   1.0000
     1.0000   1.0000   1.0000   1.0000   1.0000   1.0000   1.0000   1.0000
     1.0000   1.0000   1.0000   1.0000   1.0000   1.0000   1.0000   1.0000
     1.0000   1.0000   1.0000   1.0000   1.0000   1.0000   1.0000   1.0000
     1.0000   1.0000   1.0000   1.0000   1.0000   1.0000   1.0000   1.0000
     1.0000   1.0000   1.0000   1.0000   1.0000   1.0000   1.0000   1.0000
     1.0000   1.0000   1.0000   1.0000   1.0000   1.0000   1.0000   1.0000
     1.0000   1.0000   1.0000   1.0000   1.0000   1.0000   1.0000   1.0000
     1.0000   1.0000   1.0000   1.0000   1.0000   1.0000   1.0000   1.0000
     1.0000   1.0000   1.0000   1.0000   1.0000   1.0000   1.0000   1.0000
     1.0000   1.0000   1.0000   1.0000   1.0000   1.0000   1.0000   1.0000
     1.0000   1.0000   1.0000   1.0000   1.0000   1.0000   1.0000   1.0000
     1.0000   1.0000   1.0000   1.0000   1.0000   1.0000   1.0000   1.0000
     1.0000   1.0000   1.0000   1.0000   1.0000   1.0000   1.0000   1.0000
     1.0000   1.0000   1.0000   1.0000   1.0000   1.0000   1.0000   1.0000
     1.0000   1.0000   1.0000   1.0000   1.0000   1.0000   1.0000   1.0000
     1.0000   1.0000   1.0000   1.0000   1.0000   1.0000   1.0000   1.0000
     1.0000   1.0000   1.0000   1.0000   1.0000   1.0000   1.0000   1.0000
     1.0000   1.0000   1.0000   1.0000   1.0000   1.0000   1.0000   1.0000
     1.0000   1.0000   1.0000   1.0000   1.0000   1.0000   1.0000   1.0000
     1.0000   1.0000   1.0000   1.0000   1.0000   1.0000   1.0000   1.0000
     1.0000   1.0000   1.0000   1.0000   1.0000   0.9999   0.9999   0.9998
     0.9990   0.9978   0.9958   0.9907   0.9879   0.9848   0.9838   0.9795
     0.9190   0.8685   0.8601   0.7377   0.7050   0.5908   0.3602   0.3092
     0.1052   0.0873   0.0202   0.0162   0.0079   0.0050   0.0032   0.0026
     0.0010   0.0006   0.0002   0.0000   0.0000   0.0000   0.0000   0.0000
     0.0000   0.0000   0.0000   0.0000   0.0000   0.0000   0.0000   0.0000
     0.0000   0.0000   0.0000   0.0000   0.0000   0.0000   0.0000   0.0000
     0.0000   0.0000   0.0000   0.0000   0.0000   0.0000   0.0000   0.0000
     0.0000   0.0000   0.0000   0.0000   0.0000   0.0000   0.0000   0.0000
     0.0000   0.0000   0.0000   0.0000   0.0000   0.0000   0.0000   0.0000
     0.0000   0.0000   0.0000   0.0000   0.0000   0.0000   0.0000   0.0000

          k =-0.5000-0.2887 0.0000 ( 88178 PWs)   bands (ev):

   -95.5293 -95.5253 -95.5192 -95.5187 -95.5183 -95.5139 -95.5118 -95.5106
   -95.4990 -95.4942 -95.4940 -95.4917 -95.4898 -95.4894 -95.4857 -95.4845
   -95.4839 -95.3854 -95.1307 -95.1247 -95.1238 -95.0909 -95.0838 -95.0819
   -95.0773 -95.0753 -95.0702 -95.0681 -95.0653 -95.0647 -95.0611 -95.0575
   -95.0572 -94.8840 -94.8814 -94.8796 -49.8409 -49.8197 -49.8126 -49.8077
   -49.7943 -49.7900 -49.7882 -49.7866 -49.7705 -49.7683 -49.7670 -49.7640
   -49.7423 -49.7322 -49.7059 -49.7053 -49.6730 -49.6720 -49.6658 -49.6649
   -49.6619 -49.6550 -49.6536 -49.6481 -49.6437 -49.6340 -49.6298 -49.6199
   -49.6147 -49.6096 -49.6092 -49.6035 -49.6021 -49.5933 -49.5926 -49.5891
   -49.5842 -49.5829 -49.5792 -49.5764 -49.5714 -49.5686 -49.5667 -49.5643
   -49.5597 -49.5552 -49.5534 -49.5500 -49.5431 -49.5313 -49.5113 -49.4990
   -49.4750 -49.4731 -49.4596 -49.4576 -49.4486 -49.4391 -49.4199 -49.4197
   -49.4175 -49.4165 -49.4147 -49.4142 -49.3609 -49.3348 -49.3344 -49.3301
   -49.2993 -49.2924 -49.2791 -49.2788 -49.2763 -49.2758 -49.2744 -49.2478
   -49.2416 -49.2405 -49.2403 -49.2394 -49.2263 -49.2262 -49.1866 -49.1837
   -49.1494 -49.1190 -49.1051 -49.0975 -49.0956 -49.0683 -49.0394 -49.0311
   -49.0285 -49.0109 -49.0070 -49.0042 -49.0004 -48.9984 -48.9958 -48.9935
   -48.9880 -48.9873 -48.9834 -48.9788 -48.9783 -48.7982 -48.7927 -48.7903
   -15.0520  -5.3321  -5.2839  -4.0833  -4.0227  -3.8755  -3.8625  -3.4564
    -3.2945  -3.0193  -2.9895  -2.9543  -2.9429  -2.9258  -2.9135  -2.9047
    -2.8834  -2.8659  -2.8461  -2.7966  -2.7561  -2.7384  -2.7072  -2.7016
    -2.6027  -2.5148  -2.3788  -2.3764  -2.3406  -2.3381  -2.1154  -2.1111
    -2.0878  -2.0581  -2.0336  -2.0239  -1.9583  -1.9528  -1.8189  -1.8093
    -1.7368  -1.7250  -1.7204  -1.6434  -1.6373  -1.5095  -1.5084  -1.4737
    -1.4482  -1.3854  -1.3530  -1.2487  -1.2446  -1.2296  -1.1744  -1.1244
    -1.1150  -1.0884  -1.0839  -0.9804  -0.9665  -0.9075  -0.8668  -0.8429
    -0.7980  -0.7802  -0.6659  -0.6305  -0.6260  -0.6189  -0.5838  -0.5740
    -0.5687  -0.5597  -0.5209  -0.3495  -0.3285  -0.3069  -0.3053  -0.3012
    -0.3006  -0.2693  -0.2564  -0.2531  -0.2193  -0.2043  -0.1317  -0.1302
    -0.0860  -0.0807  -0.0675  -0.0366   0.0174   0.0249   0.0335   0.0337
     0.0839   0.1381   0.1593   0.1699   0.1765   0.1869   0.1933   0.2095
     0.2400   0.2803   0.3017   0.4219   0.4382   0.4439   0.5348   0.6185
     0.6706   0.7237   0.7429   0.7636   0.7702   0.8391   0.8551   0.8674
     0.8829   0.8879   0.8909   0.9136   0.9275   0.9569   0.9721   1.0054
     1.0547   1.0555   1.0798   1.0839   1.1376   1.1937   1.2223   1.2386
     1.2676   1.3003   1.4414   1.4613   1.5998   1.6480   1.6642   1.6694
     1.6709   1.7001   1.7976   1.8259   1.9007   1.9093   1.9218   1.9272
     1.9385   1.9577   2.0273   2.0396   2.0611   2.0615   2.0806   2.1638
     2.1839   2.2345   2.2725   2.3162   2.4011   2.4491   2.4498   2.4589
     2.5486   2.5652   2.6403   2.6414   2.6528   2.6589   2.7099   2.7123
     2.7334   2.7453   2.7568   2.8040   2.9267   2.9351   2.9379   2.9541
     2.9603   2.9668   3.0218   3.1890   3.2153   3.2209   3.2300   3.2331
     3.4368   3.4745   3.7376   3.7509   3.9328   4.4045   4.4475   4.7980
     4.8014   4.8041   4.8094   5.2743   5.2844   5.2964   5.3146   5.3351
     5.6234   5.7962   5.7995   5.9192   6.1802   6.1982   6.3508   6.3733
     6.3874   6.4305   8.2615   8.2626   8.2949   8.3188   8.5198   8.5393
     8.6486   8.8031   8.8383   8.8539   8.8823   8.9081   9.1823   9.3022
     9.3458   9.7731   9.7784   9.8431   9.8939  10.1737  10.3114  10.3323
    10.3798  10.6217  10.8043  10.8664  10.8700  10.9021  10.9066  10.9467

     occupation numbers 
     1.0000   1.0000   1.0000   1.0000   1.0000   1.0000   1.0000   1.0000
     1.0000   1.0000   1.0000   1.0000   1.0000   1.0000   1.0000   1.0000
     1.0000   1.0000   1.0000   1.0000   1.0000   1.0000   1.0000   1.0000
     1.0000   1.0000   1.0000   1.0000   1.0000   1.0000   1.0000   1.0000
     1.0000   1.0000   1.0000   1.0000   1.0000   1.0000   1.0000   1.0000
     1.0000   1.0000   1.0000   1.0000   1.0000   1.0000   1.0000   1.0000
     1.0000   1.0000   1.0000   1.0000   1.0000   1.0000   1.0000   1.0000
     1.0000   1.0000   1.0000   1.0000   1.0000   1.0000   1.0000   1.0000
     1.0000   1.0000   1.0000   1.0000   1.0000   1.0000   1.0000   1.0000
     1.0000   1.0000   1.0000   1.0000   1.0000   1.0000   1.0000   1.0000
     1.0000   1.0000   1.0000   1.0000   1.0000   1.0000   1.0000   1.0000
     1.0000   1.0000   1.0000   1.0000   1.0000   1.0000   1.0000   1.0000
     1.0000   1.0000   1.0000   1.0000   1.0000   1.0000   1.0000   1.0000
     1.0000   1.0000   1.0000   1.0000   1.0000   1.0000   1.0000   1.0000
     1.0000   1.0000   1.0000   1.0000   1.0000   1.0000   1.0000   1.0000
     1.0000   1.0000   1.0000   1.0000   1.0000   1.0000   1.0000   1.0000
     1.0000   1.0000   1.0000   1.0000   1.0000   1.0000   1.0000   1.0000
     1.0000   1.0000   1.0000   1.0000   1.0000   1.0000   1.0000   1.0000
     1.0000   1.0000   1.0000   1.0000   1.0000   1.0000   1.0000   1.0000
     1.0000   1.0000   1.0000   1.0000   1.0000   1.0000   1.0000   1.0000
     1.0000   1.0000   1.0000   1.0000   1.0000   1.0000   1.0000   1.0000
     1.0000   1.0000   1.0000   1.0000   1.0000   1.0000   1.0000   1.0000
     1.0000   1.0000   1.0000   1.0000   1.0000   1.0000   1.0000   1.0000
     1.0000   1.0000   1.0000   1.0000   1.0000   1.0000   1.0000   1.0000
     1.0000   1.0000   1.0000   1.0000   1.0000   1.0000   1.0000   1.0000
     1.0000   1.0000   1.0000   1.0000   1.0000   1.0000   1.0000   1.0000
     1.0000   1.0000   1.0000   1.0000   1.0000   1.0000   1.0000   1.0000
     1.0000   1.0000   1.0000   1.0000   1.0000   1.0000   1.0000   1.0000
     1.0000   1.0000   1.0000   1.0000   1.0000   1.0000   1.0000   1.0000
     1.0000   1.0000   1.0000   1.0000   1.0000   1.0000   1.0000   1.0000
     1.0000   1.0000   1.0000   1.0000   1.0000   1.0000   1.0000   1.0000
     1.0000   1.0000   1.0000   1.0000   1.0000   1.0000   1.0000   1.0000
     1.0000   1.0000   1.0000   1.0000   1.0000   1.0000   1.0000   1.0000
     1.0000   1.0000   1.0000   1.0000   1.0000   1.0000   1.0000   1.0000
     1.0000   1.0000   1.0000   1.0000   1.0000   1.0000   1.0000   1.0000
     1.0000   1.0000   1.0000   1.0000   1.0000   1.0000   1.0000   1.0000
     1.0000   1.0000   1.0000   1.0000   1.0000   1.0000   1.0000   1.0000
     1.0000   1.0000   1.0000   1.0000   1.0000   1.0000   1.0000   1.0000
     1.0000   1.0000   1.0000   1.0000   1.0000   0.9999   0.9999   0.9999
     0.9995   0.9994   0.9972   0.9971   0.9964   0.9959   0.9887   0.9882
     0.9821   0.9774   0.9717   0.9304   0.5344   0.4925   0.4784   0.3987
     0.3696   0.3400   0.1463   0.0060   0.0036   0.0032   0.0027   0.0025
     0.0000   0.0000   0.0000   0.0000   0.0000   0.0000   0.0000   0.0000
     0.0000   0.0000   0.0000   0.0000   0.0000   0.0000   0.0000   0.0000
     0.0000   0.0000   0.0000   0.0000   0.0000   0.0000   0.0000   0.0000
     0.0000   0.0000   0.0000   0.0000   0.0000   0.0000   0.0000   0.0000
     0.0000   0.0000   0.0000   0.0000   0.0000   0.0000   0.0000   0.0000
     0.0000   0.0000   0.0000   0.0000   0.0000   0.0000   0.0000   0.0000
     0.0000   0.0000   0.0000   0.0000   0.0000   0.0000   0.0000   0.0000

 ------ SPIN DOWN ----------


          k = 0.0000 0.0000 0.0000 ( 88097 PWs)   bands (ev):

   -95.5311 -95.5226 -95.5186 -95.5186 -95.5181 -95.5129 -95.5120 -95.5115
   -95.4989 -95.4938 -95.4934 -95.4919 -95.4883 -95.4883 -95.4867 -95.4865
   -95.4821 -95.3853 -95.1310 -95.1243 -95.1237 -95.0909 -95.0837 -95.0818
   -95.0804 -95.0695 -95.0693 -95.0690 -95.0658 -95.0657 -95.0624 -95.0572
   -95.0569 -94.8835 -94.8811 -94.8792 -49.8000 -49.7868 -49.7778 -49.7764
   -49.7709 -49.7694 -49.7682 -49.7636 -49.7635 -49.7569 -49.7560 -49.7559
   -49.7497 -49.7480 -49.7431 -49.7425 -49.7268 -49.7265 -49.7241 -49.6898
   -49.6894 -49.6812 -49.6735 -49.6729 -49.6541 -49.6539 -49.6530 -49.6118
   -49.6116 -49.6086 -49.5992 -49.5953 -49.5951 -49.5945 -49.5893 -49.5799
   -49.5795 -49.5776 -49.5765 -49.5763 -49.5757 -49.5730 -49.5728 -49.5464
   -49.5455 -49.5425 -49.5315 -49.5286 -49.5275 -49.5143 -49.5133 -49.4685
   -49.4677 -49.4574 -49.4408 -49.4407 -49.4237 -49.4123 -49.4117 -49.4065
   -49.3975 -49.3854 -49.3833 -49.3832 -49.3817 -49.3816 -49.3814 -49.3741
   -49.3729 -49.3655 -49.3654 -49.2998 -49.2985 -49.2621 -49.2411 -49.2404
   -49.2239 -49.2236 -49.2233 -49.2208 -49.2208 -49.2191 -49.1738 -49.1666
   -49.1663 -49.1174 -49.1173 -49.0867 -49.0621 -49.0619 -49.0412 -49.0293
   -49.0284 -49.0131 -49.0110 -49.0001 -48.9983 -48.9945 -48.9943 -48.9940
   -48.9895 -48.9895 -48.9863 -48.9779 -48.9775 -48.7973 -48.7922 -48.7898
   -11.9193  -6.1920  -4.8885  -3.8020  -3.7508  -3.7129  -3.7118  -3.7040
    -3.6919  -3.6919  -3.6525  -3.1418  -3.1407  -3.1380  -3.1095  -3.1089
    -3.0672  -2.6587  -2.6580  -2.6489  -2.6183  -2.6183  -2.5897  -2.4228
    -2.4227  -2.4025  -2.3898  -2.3671  -2.3670  -2.2086  -2.2083  -2.1926
    -2.1650  -2.1566  -2.1565  -2.1362  -2.1358  -2.1283  -2.0749  -2.0732
    -2.0246  -1.5489  -1.5482  -1.4983  -1.4982  -1.4718  -1.4717  -1.4628
    -1.3828  -1.3821  -1.3649  -1.3031  -1.3029  -1.1676  -1.1669  -0.7077
    -0.7065  -0.6959  -0.6736  -0.6728  -0.6556  -0.6063  -0.5052  -0.5051
    -0.4962  -0.4897  -0.4791  -0.4788  -0.4675  -0.4568  -0.4568  -0.4400
    -0.4279  -0.4262  -0.3939  -0.3525  -0.3514  -0.2637  -0.2621  -0.2338
    -0.2215  -0.2205  -0.2181  -0.0455  -0.0442  -0.0313   0.0062   0.0072
     0.0252   0.0502   0.0511   0.1319   0.1321   0.1447   0.1457   0.1533
     0.1536   0.1988   0.1988   0.2016   0.2097   0.3404   0.3422   0.3435
     0.4118   0.4201   0.4223   0.4355   0.8852   0.8859   0.9117   0.9220
     0.9234   0.9322   0.9568   0.9581   0.9889   0.9966   1.0163   1.0171
     1.0775   1.0791   1.1123   1.1125   1.1759   1.1848   1.1849   1.3137
     1.3836   1.3840   1.4159   1.4202   1.4610   1.4686   1.6781   1.7038
     1.7047   1.7178   1.7186   1.7457   1.8106   1.8106   1.9033   1.9040
     1.9315   1.9415   1.9419   1.9555   2.1132   2.1261   2.1274   2.1460
     2.1532   2.1533   2.1598   2.1604   2.1608   2.1897   2.1902   2.1904
     2.2532   2.3016   2.3017   2.3377   2.3383   2.3651   2.3710   2.3716
     2.3941   2.4442   2.4453   2.4678   2.4678   2.4929   2.5157   2.5158
     2.5482   2.5616   2.5619   2.5862   2.6108   2.6109   2.6730   2.6744
     2.6768   2.6798   2.6915   2.6929   2.7014   2.9071   2.9114   2.9630
     2.9631   2.9677   2.9990   3.0143   3.0147   3.0310   3.0316   3.0326
     3.7460   3.7975   3.7984   3.8380   3.8510   3.8521   3.8563   6.1176
     6.1257   6.1274   6.1713   6.1736   6.1835   7.6446   7.6459   7.6925
     7.7019   7.7022   7.7186   8.4063   8.4065   8.7044   8.9604   8.9624
     8.9898   9.0353   9.0385   9.0749   9.5118   9.5605   9.5607   9.5843
     9.7963  10.2658  10.2663  10.2675  10.7466  10.8563  10.8589  10.9130
    10.9151  10.9297  10.9744  11.3455  11.3693  11.3710  11.4087  11.7373

     occupation numbers 
     1.0000   1.0000   1.0000   1.0000   1.0000   1.0000   1.0000   1.0000
     1.0000   1.0000   1.0000   1.0000   1.0000   1.0000   1.0000   1.0000
     1.0000   1.0000   1.0000   1.0000   1.0000   1.0000   1.0000   1.0000
     1.0000   1.0000   1.0000   1.0000   1.0000   1.0000   1.0000   1.0000
     1.0000   1.0000   1.0000   1.0000   1.0000   1.0000   1.0000   1.0000
     1.0000   1.0000   1.0000   1.0000   1.0000   1.0000   1.0000   1.0000
     1.0000   1.0000   1.0000   1.0000   1.0000   1.0000   1.0000   1.0000
     1.0000   1.0000   1.0000   1.0000   1.0000   1.0000   1.0000   1.0000
     1.0000   1.0000   1.0000   1.0000   1.0000   1.0000   1.0000   1.0000
     1.0000   1.0000   1.0000   1.0000   1.0000   1.0000   1.0000   1.0000
     1.0000   1.0000   1.0000   1.0000   1.0000   1.0000   1.0000   1.0000
     1.0000   1.0000   1.0000   1.0000   1.0000   1.0000   1.0000   1.0000
     1.0000   1.0000   1.0000   1.0000   1.0000   1.0000   1.0000   1.0000
     1.0000   1.0000   1.0000   1.0000   1.0000   1.0000   1.0000   1.0000
     1.0000   1.0000   1.0000   1.0000   1.0000   1.0000   1.0000   1.0000
     1.0000   1.0000   1.0000   1.0000   1.0000   1.0000   1.0000   1.0000
     1.0000   1.0000   1.0000   1.0000   1.0000   1.0000   1.0000   1.0000
     1.0000   1.0000   1.0000   1.0000   1.0000   1.0000   1.0000   1.0000
     1.0000   1.0000   1.0000   1.0000   1.0000   1.0000   1.0000   1.0000
     1.0000   1.0000   1.0000   1.0000   1.0000   1.0000   1.0000   1.0000
     1.0000   1.0000   1.0000   1.0000   1.0000   1.0000   1.0000   1.0000
     1.0000   1.0000   1.0000   1.0000   1.0000   1.0000   1.0000   1.0000
     1.0000   1.0000   1.0000   1.0000   1.0000   1.0000   1.0000   1.0000
     1.0000   1.0000   1.0000   1.0000   1.0000   1.0000   1.0000   1.0000
     1.0000   1.0000   1.0000   1.0000   1.0000   1.0000   1.0000   1.0000
     1.0000   1.0000   1.0000   1.0000   1.0000   1.0000   1.0000   1.0000
     1.0000   1.0000   1.0000   1.0000   1.0000   1.0000   1.0000   1.0000
     1.0000   1.0000   1.0000   1.0000   1.0000   1.0000   1.0000   1.0000
     1.0000   1.0000   1.0000   1.0000   1.0000   1.0000   1.0000   1.0000
     1.0000   1.0000   1.0000   1.0000   1.0000   1.0000   1.0000   1.0000
     1.0000   1.0000   1.0000   1.0000   1.0000   1.0000   1.0000   1.0000
     1.0000   1.0000   1.0000   1.0000   1.0000   1.0000   1.0000   1.0000
     1.0000   1.0000   1.0000   1.0000   1.0000   1.0000   1.0000   1.0000
     1.0000   1.0000   1.0000   1.0000   1.0000   1.0000   1.0000   1.0000
     1.0000   1.0000   1.0000   1.0000   1.0000   1.0000   1.0000   1.0000
     1.0000   1.0000   1.0000   1.0000   1.0000   1.0000   1.0000   1.0000
     1.0000   1.0000   1.0000   1.0000   1.0000   1.0000   1.0000   1.0000
     1.0000   1.0000   1.0000   1.0000   1.0000   1.0000   1.0000   1.0000
     1.0000   1.0000   1.0000   1.0000   1.0000   1.0000   1.0000   1.0000
     1.0000   0.9999   0.9999   0.9999   0.9999   0.9999   0.9998   0.9998
     0.9996   0.9994   0.9994   0.9990   0.9984   0.9984   0.9946   0.9944
     0.9942   0.9938   0.9922   0.9919   0.9905   0.6295   0.6091   0.3570
     0.3568   0.3360   0.2126   0.1661   0.1650   0.1248   0.1234   0.1214
     0.0000   0.0000   0.0000   0.0000   0.0000   0.0000   0.0000   0.0000
     0.0000   0.0000   0.0000   0.0000   0.0000   0.0000   0.0000   0.0000
     0.0000   0.0000   0.0000   0.0000   0.0000   0.0000   0.0000   0.0000
     0.0000   0.0000   0.0000   0.0000   0.0000   0.0000   0.0000   0.0000
     0.0000   0.0000   0.0000   0.0000   0.0000   0.0000   0.0000   0.0000
     0.0000   0.0000   0.0000   0.0000   0.0000   0.0000   0.0000   0.0000

          k = 0.0000 0.1925 0.0000 ( 88230 PWs)   bands (ev):

   -95.5308 -95.5231 -95.5187 -95.5186 -95.5180 -95.5132 -95.5116 -95.5114
   -95.4989 -95.4939 -95.4935 -95.4918 -95.4888 -95.4886 -95.4863 -95.4860
   -95.4823 -95.3853 -95.1309 -95.1243 -95.1238 -95.0909 -95.0837 -95.0818
   -95.0799 -95.0713 -95.0695 -95.0680 -95.0660 -95.0654 -95.0619 -95.0573
   -95.0570 -94.8835 -94.8811 -94.8792 -49.8121 -49.7990 -49.7943 -49.7894
   -49.7803 -49.7765 -49.7744 -49.7713 -49.7693 -49.7557 -49.7539 -49.7528
   -49.7475 -49.7376 -49.7327 -49.7324 -49.7199 -49.7129 -49.7013 -49.6777
   -49.6773 -49.6764 -49.6708 -49.6661 -49.6516 -49.6510 -49.6444 -49.6158
   -49.6154 -49.6055 -49.6026 -49.6025 -49.5959 -49.5946 -49.5929 -49.5827
   -49.5809 -49.5794 -49.5779 -49.5770 -49.5713 -49.5693 -49.5671 -49.5519
   -49.5506 -49.5456 -49.5337 -49.5334 -49.5255 -49.5208 -49.5143 -49.4751
   -49.4691 -49.4581 -49.4501 -49.4473 -49.4357 -49.4186 -49.4139 -49.4112
   -49.4012 -49.4008 -49.3940 -49.3938 -49.3868 -49.3836 -49.3609 -49.3607
   -49.3409 -49.3401 -49.3365 -49.2977 -49.2937 -49.2649 -49.2448 -49.2403
   -49.2330 -49.2324 -49.2307 -49.2205 -49.2200 -49.2096 -49.1756 -49.1686
   -49.1677 -49.1195 -49.1151 -49.0883 -49.0678 -49.0635 -49.0408 -49.0293
   -49.0289 -49.0124 -49.0106 -49.0001 -48.9984 -48.9973 -48.9947 -48.9926
   -48.9898 -48.9888 -48.9851 -48.9781 -48.9777 -48.7974 -48.7922 -48.7897
   -11.9193  -6.0877  -4.7860  -4.1349  -3.8194  -3.8168  -3.6960  -3.6045
    -3.5154  -3.5029  -3.4921  -3.2289  -3.1772  -3.0938  -3.0766  -3.0560
    -3.0311  -2.6913  -2.6099  -2.6080  -2.6007  -2.5721  -2.5485  -2.5263
    -2.4607  -2.4506  -2.3592  -2.3429  -2.3264  -2.2557  -2.2518  -2.2375
    -2.2225  -2.2080  -2.1858  -2.1634  -2.0185  -1.9992  -1.9518  -1.9317
    -1.8968  -1.6327  -1.6294  -1.6021  -1.5579  -1.5451  -1.5048  -1.4921
    -1.3613  -1.3412  -1.2828  -1.2611  -1.2317  -1.1750  -1.1512  -0.9050
    -0.8022  -0.8008  -0.7734  -0.7731  -0.7514  -0.6697  -0.6689  -0.6505
    -0.6220  -0.6189  -0.5998  -0.5542  -0.5201  -0.4920  -0.4694  -0.4534
    -0.3908  -0.3647  -0.3514  -0.3023  -0.2962  -0.2950  -0.2511  -0.1832
    -0.1758  -0.1524  -0.1163  -0.0578  -0.0484  -0.0434  -0.0270  -0.0092
     0.0087   0.0102   0.0339   0.0768   0.0812   0.1160   0.1398   0.1520
     0.1758   0.1938   0.2620   0.2728   0.3103   0.3238   0.3449   0.3932
     0.3965   0.4011   0.4061   0.4186   0.4767   0.4833   0.5140   0.5530
     0.6509   0.6882   0.8895   0.9371   0.9558   0.9586   0.9774   0.9785
     1.0297   1.0298   1.1135   1.1447   1.2683   1.3300   1.3618   1.3881
     1.3894   1.3966   1.4083   1.4207   1.4264   1.4314   1.5359   1.5408
     1.5984   1.6038   1.6669   1.6927   1.8138   1.8189   1.8218   1.8483
     1.8783   1.9075   1.9598   1.9602   1.9719   2.0426   2.0475   2.0703
     2.0731   2.0894   2.0942   2.1105   2.1775   2.1976   2.2365   2.2449
     2.3378   2.3688   2.3717   2.4088   2.4268   2.4665   2.4701   2.5231
     2.5272   2.5381   2.5538   2.5600   2.5677   2.5900   2.6030   2.6207
     2.6360   2.6427   2.7047   2.7155   2.8765   2.8892   2.8921   2.9091
     2.9272   2.9275   2.9500   2.9596   2.9627   2.9631   2.9745   2.9802
     2.9872   2.9943   3.0052   3.0075   3.1030   3.1332   3.1338   3.2093
     3.4217   3.7149   3.7287   4.2489   4.2627   4.3023   4.3866   5.5705
     5.9235   5.9276   6.5711   6.5744   6.7689   6.7690   6.8162   7.7651
     7.7810   7.8291   7.8436   8.1679   8.5283   8.5290   8.7091   8.7232
     8.7895   8.9488   8.9751   9.2483   9.3818   9.3920   9.6071   9.6598
     9.8468  10.1494  10.2654  10.3450  10.5038  10.5177  10.6039  10.6403
    10.8167  10.8237  10.8623  10.9212  10.9280  11.0962  11.3105  11.3386

     occupation numbers 
     1.0000   1.0000   1.0000   1.0000   1.0000   1.0000   1.0000   1.0000
     1.0000   1.0000   1.0000   1.0000   1.0000   1.0000   1.0000   1.0000
     1.0000   1.0000   1.0000   1.0000   1.0000   1.0000   1.0000   1.0000
     1.0000   1.0000   1.0000   1.0000   1.0000   1.0000   1.0000   1.0000
     1.0000   1.0000   1.0000   1.0000   1.0000   1.0000   1.0000   1.0000
     1.0000   1.0000   1.0000   1.0000   1.0000   1.0000   1.0000   1.0000
     1.0000   1.0000   1.0000   1.0000   1.0000   1.0000   1.0000   1.0000
     1.0000   1.0000   1.0000   1.0000   1.0000   1.0000   1.0000   1.0000
     1.0000   1.0000   1.0000   1.0000   1.0000   1.0000   1.0000   1.0000
     1.0000   1.0000   1.0000   1.0000   1.0000   1.0000   1.0000   1.0000
     1.0000   1.0000   1.0000   1.0000   1.0000   1.0000   1.0000   1.0000
     1.0000   1.0000   1.0000   1.0000   1.0000   1.0000   1.0000   1.0000
     1.0000   1.0000   1.0000   1.0000   1.0000   1.0000   1.0000   1.0000
     1.0000   1.0000   1.0000   1.0000   1.0000   1.0000   1.0000   1.0000
     1.0000   1.0000   1.0000   1.0000   1.0000   1.0000   1.0000   1.0000
     1.0000   1.0000   1.0000   1.0000   1.0000   1.0000   1.0000   1.0000
     1.0000   1.0000   1.0000   1.0000   1.0000   1.0000   1.0000   1.0000
     1.0000   1.0000   1.0000   1.0000   1.0000   1.0000   1.0000   1.0000
     1.0000   1.0000   1.0000   1.0000   1.0000   1.0000   1.0000   1.0000
     1.0000   1.0000   1.0000   1.0000   1.0000   1.0000   1.0000   1.0000
     1.0000   1.0000   1.0000   1.0000   1.0000   1.0000   1.0000   1.0000
     1.0000   1.0000   1.0000   1.0000   1.0000   1.0000   1.0000   1.0000
     1.0000   1.0000   1.0000   1.0000   1.0000   1.0000   1.0000   1.0000
     1.0000   1.0000   1.0000   1.0000   1.0000   1.0000   1.0000   1.0000
     1.0000   1.0000   1.0000   1.0000   1.0000   1.0000   1.0000   1.0000
     1.0000   1.0000   1.0000   1.0000   1.0000   1.0000   1.0000   1.0000
     1.0000   1.0000   1.0000   1.0000   1.0000   1.0000   1.0000   1.0000
     1.0000   1.0000   1.0000   1.0000   1.0000   1.0000   1.0000   1.0000
     1.0000   1.0000   1.0000   1.0000   1.0000   1.0000   1.0000   1.0000
     1.0000   1.0000   1.0000   1.0000   1.0000   1.0000   1.0000   1.0000
     1.0000   1.0000   1.0000   1.0000   1.0000   1.0000   1.0000   1.0000
     1.0000   1.0000   1.0000   1.0000   1.0000   1.0000   1.0000   1.0000
     1.0000   1.0000   1.0000   1.0000   1.0000   1.0000   1.0000   1.0000
     1.0000   1.0000   1.0000   1.0000   1.0000   1.0000   1.0000   1.0000
     1.0000   1.0000   1.0000   1.0000   1.0000   1.0000   1.0000   1.0000
     1.0000   1.0000   1.0000   1.0000   1.0000   1.0000   1.0000   1.0000
     1.0000   1.0000   1.0000   1.0000   1.0000   1.0000   1.0000   1.0000
     1.0000   1.0000   1.0000   1.0000   1.0000   1.0000   1.0000   1.0000
     1.0000   1.0000   1.0000   1.0000   1.0000   0.9999   0.9999   0.9997
     0.9997   0.9996   0.9995   0.9994   0.9993   0.9990   0.9987   0.9981
     0.9974   0.9970   0.9898   0.9874   0.7579   0.7083   0.6964   0.6200
     0.5322   0.5303   0.4185   0.3727   0.3583   0.3567   0.3061   0.2824
     0.2549   0.2290   0.1928   0.1857   0.0326   0.0181   0.0179   0.0040
     0.0001   0.0000   0.0000   0.0000   0.0000   0.0000   0.0000   0.0000
     0.0000   0.0000   0.0000   0.0000   0.0000   0.0000   0.0000   0.0000
     0.0000   0.0000   0.0000   0.0000   0.0000   0.0000   0.0000   0.0000
     0.0000   0.0000   0.0000   0.0000   0.0000   0.0000   0.0000   0.0000
     0.0000   0.0000   0.0000   0.0000   0.0000   0.0000   0.0000   0.0000
     0.0000   0.0000   0.0000   0.0000   0.0000   0.0000   0.0000   0.0000

          k = 0.0000 0.3849 0.0000 ( 88170 PWs)   bands (ev):

   -95.5298 -95.5243 -95.5189 -95.5187 -95.5179 -95.5135 -95.5112 -95.5111
   -95.4989 -95.4940 -95.4936 -95.4916 -95.4893 -95.4889 -95.4858 -95.4850
   -95.4829 -95.3853 -95.1307 -95.1243 -95.1240 -95.0908 -95.0837 -95.0818
   -95.0785 -95.0736 -95.0699 -95.0679 -95.0656 -95.0648 -95.0613 -95.0576
   -95.0570 -94.8836 -94.8811 -94.8791 -49.8338 -49.8131 -49.8075 -49.8021
   -49.7886 -49.7870 -49.7836 -49.7828 -49.7730 -49.7644 -49.7638 -49.7576
   -49.7429 -49.7316 -49.7150 -49.7140 -49.6894 -49.6864 -49.6705 -49.6675
   -49.6630 -49.6597 -49.6596 -49.6578 -49.6452 -49.6448 -49.6265 -49.6215
   -49.6182 -49.6124 -49.6046 -49.6027 -49.6026 -49.5961 -49.5895 -49.5895
   -49.5827 -49.5815 -49.5802 -49.5770 -49.5700 -49.5698 -49.5617 -49.5612
   -49.5566 -49.5500 -49.5471 -49.5401 -49.5378 -49.5265 -49.5125 -49.4905
   -49.4724 -49.4677 -49.4570 -49.4562 -49.4414 -49.4380 -49.4174 -49.4169
   -49.4132 -49.4126 -49.4091 -49.4090 -49.3692 -49.3503 -49.3422 -49.3420
   -49.3086 -49.3082 -49.2943 -49.2912 -49.2876 -49.2714 -49.2513 -49.2510
   -49.2488 -49.2398 -49.2378 -49.2244 -49.2238 -49.2011 -49.1970 -49.1750
   -49.1551 -49.1221 -49.1098 -49.0925 -49.0828 -49.0667 -49.0398 -49.0298
   -49.0292 -49.0112 -49.0090 -49.0013 -49.0000 -48.9985 -48.9953 -48.9931
   -48.9888 -48.9876 -48.9837 -48.9786 -48.9780 -48.7974 -48.7922 -48.7896
   -11.9193  -5.7836  -4.7228  -4.4888  -3.8654  -3.8644  -3.5718  -3.4583
    -3.3952  -3.3249  -3.2605  -3.2233  -3.2225  -2.9965  -2.9642  -2.9119
    -2.9058  -2.8055  -2.6685  -2.6137  -2.5751  -2.5741  -2.5375  -2.5322
    -2.5126  -2.5034  -2.4590  -2.4283  -2.3493  -2.3255  -2.3100  -2.2965
    -2.0933  -2.0902  -2.0487  -2.0348  -2.0084  -2.0052  -1.8115  -1.8058
    -1.7289  -1.7101  -1.6783  -1.6099  -1.5616  -1.5611  -1.5356  -1.5073
    -1.3727  -1.3675  -1.3105  -1.2849  -1.2692  -1.2643  -1.1761  -1.1470
    -1.1201  -1.0107  -0.9302  -0.9265  -0.9067  -0.7915  -0.7573  -0.7269
    -0.7239  -0.6899  -0.6838  -0.6639  -0.5997  -0.4681  -0.4534  -0.4415
    -0.4322  -0.4027  -0.3775  -0.3693  -0.3352  -0.3036  -0.3016  -0.2358
    -0.2357  -0.2176  -0.2030  -0.1841  -0.1749  -0.1701  -0.1638  -0.1207
    -0.1109  -0.0786  -0.0491  -0.0256  -0.0149   0.0123   0.1277   0.1463
     0.1497   0.1714   0.1790   0.2203   0.2843   0.2883   0.3041   0.3103
     0.3417   0.4071   0.4871   0.4931   0.5481   0.5570   0.6006   0.6142
     0.6969   0.7272   0.8735   0.8950   0.8958   0.9212   0.9229   0.9406
     0.9499   0.9703   0.9708   1.0541   1.0659   1.0958   1.0965   1.1299
     1.1787   1.2425   1.2805   1.3032   1.3341   1.4683   1.4815   1.5033
     1.5114   1.5226   1.5348   1.6866   1.7559   1.7633   1.7815   1.7823
     1.8188   1.8266   1.8619   1.8991   1.9155   1.9753   1.9925   2.0376
     2.1014   2.1144   2.1179   2.1302   2.1372   2.1603   2.1813   2.3343
     2.3730   2.3941   2.4204   2.4369   2.4377   2.4646   2.5358   2.5534
     2.5999   2.6424   2.6451   2.6555   2.6620   2.7640   2.7864   2.7927
     2.8428   2.8502   2.8780   2.8883   2.9053   2.9300   2.9609   2.9630
     2.9631   2.9689   3.0609   3.1002   3.1185   3.1249   3.1398   3.1402
     3.3125   3.3234   3.3608   3.7235   3.7362   3.8095   3.8099   3.8252
     4.1007   4.1309   4.2806   5.0072   5.0550   5.1370   5.1581   5.2270
     5.7996   5.8027   5.8282   5.8316   6.5478   6.5714   7.0220   7.1974
     7.2865   7.2916   7.7418   7.7652   8.2218   8.2355   8.5548   8.5588
     8.5868   8.9874   9.0966   9.1620   9.1819   9.4567   9.4614   9.5607
     9.5650   9.7373   9.9287  10.0051  10.1492  10.1983  10.2673  10.2852
    10.4389  10.4620  10.5656  10.7223  11.0349  11.1402  11.1884  11.2141

     occupation numbers 
     1.0000   1.0000   1.0000   1.0000   1.0000   1.0000   1.0000   1.0000
     1.0000   1.0000   1.0000   1.0000   1.0000   1.0000   1.0000   1.0000
     1.0000   1.0000   1.0000   1.0000   1.0000   1.0000   1.0000   1.0000
     1.0000   1.0000   1.0000   1.0000   1.0000   1.0000   1.0000   1.0000
     1.0000   1.0000   1.0000   1.0000   1.0000   1.0000   1.0000   1.0000
     1.0000   1.0000   1.0000   1.0000   1.0000   1.0000   1.0000   1.0000
     1.0000   1.0000   1.0000   1.0000   1.0000   1.0000   1.0000   1.0000
     1.0000   1.0000   1.0000   1.0000   1.0000   1.0000   1.0000   1.0000
     1.0000   1.0000   1.0000   1.0000   1.0000   1.0000   1.0000   1.0000
     1.0000   1.0000   1.0000   1.0000   1.0000   1.0000   1.0000   1.0000
     1.0000   1.0000   1.0000   1.0000   1.0000   1.0000   1.0000   1.0000
     1.0000   1.0000   1.0000   1.0000   1.0000   1.0000   1.0000   1.0000
     1.0000   1.0000   1.0000   1.0000   1.0000   1.0000   1.0000   1.0000
     1.0000   1.0000   1.0000   1.0000   1.0000   1.0000   1.0000   1.0000
     1.0000   1.0000   1.0000   1.0000   1.0000   1.0000   1.0000   1.0000
     1.0000   1.0000   1.0000   1.0000   1.0000   1.0000   1.0000   1.0000
     1.0000   1.0000   1.0000   1.0000   1.0000   1.0000   1.0000   1.0000
     1.0000   1.0000   1.0000   1.0000   1.0000   1.0000   1.0000   1.0000
     1.0000   1.0000   1.0000   1.0000   1.0000   1.0000   1.0000   1.0000
     1.0000   1.0000   1.0000   1.0000   1.0000   1.0000   1.0000   1.0000
     1.0000   1.0000   1.0000   1.0000   1.0000   1.0000   1.0000   1.0000
     1.0000   1.0000   1.0000   1.0000   1.0000   1.0000   1.0000   1.0000
     1.0000   1.0000   1.0000   1.0000   1.0000   1.0000   1.0000   1.0000
     1.0000   1.0000   1.0000   1.0000   1.0000   1.0000   1.0000   1.0000
     1.0000   1.0000   1.0000   1.0000   1.0000   1.0000   1.0000   1.0000
     1.0000   1.0000   1.0000   1.0000   1.0000   1.0000   1.0000   1.0000
     1.0000   1.0000   1.0000   1.0000   1.0000   1.0000   1.0000   1.0000
     1.0000   1.0000   1.0000   1.0000   1.0000   1.0000   1.0000   1.0000
     1.0000   1.0000   1.0000   1.0000   1.0000   1.0000   1.0000   1.0000
     1.0000   1.0000   1.0000   1.0000   1.0000   1.0000   1.0000   1.0000
     1.0000   1.0000   1.0000   1.0000   1.0000   1.0000   1.0000   1.0000
     1.0000   1.0000   1.0000   1.0000   1.0000   1.0000   1.0000   1.0000
     1.0000   1.0000   1.0000   1.0000   1.0000   1.0000   1.0000   1.0000
     1.0000   1.0000   1.0000   1.0000   1.0000   1.0000   1.0000   1.0000
     1.0000   1.0000   1.0000   1.0000   1.0000   1.0000   1.0000   1.0000
     1.0000   1.0000   1.0000   1.0000   1.0000   1.0000   1.0000   1.0000
     1.0000   1.0000   1.0000   1.0000   1.0000   1.0000   1.0000   1.0000
     1.0000   1.0000   1.0000   1.0000   1.0000   1.0000   1.0000   1.0000
     1.0000   1.0000   1.0000   1.0000   1.0000   0.9999   0.9996   0.9995
     0.9987   0.9971   0.9969   0.9962   0.9956   0.9675   0.9499   0.9436
     0.8601   0.8412   0.7525   0.7120   0.6378   0.5178   0.3669   0.3572
     0.3565   0.3306   0.0727   0.0345   0.0242   0.0213   0.0159   0.0158
     0.0005   0.0004   0.0002   0.0000   0.0000   0.0000   0.0000   0.0000
     0.0000   0.0000   0.0000   0.0000   0.0000   0.0000   0.0000   0.0000
     0.0000   0.0000   0.0000   0.0000   0.0000   0.0000   0.0000   0.0000
     0.0000   0.0000   0.0000   0.0000   0.0000   0.0000   0.0000   0.0000
     0.0000   0.0000   0.0000   0.0000   0.0000   0.0000   0.0000   0.0000
     0.0000   0.0000   0.0000   0.0000   0.0000   0.0000   0.0000   0.0000
     0.0000   0.0000   0.0000   0.0000   0.0000   0.0000   0.0000   0.0000

          k = 0.0000-0.5774 0.0000 ( 88178 PWs)   bands (ev):

   -95.5291 -95.5252 -95.5189 -95.5187 -95.5178 -95.5136 -95.5111 -95.5109
   -95.4989 -95.4940 -95.4937 -95.4916 -95.4894 -95.4891 -95.4856 -95.4841
   -95.4836 -95.3853 -95.1306 -95.1243 -95.1241 -95.0908 -95.0837 -95.0819
   -95.0772 -95.0753 -95.0700 -95.0681 -95.0653 -95.0645 -95.0611 -95.0577
   -95.0570 -94.8836 -94.8811 -94.8791 -49.8420 -49.8195 -49.8119 -49.8067
   -49.7934 -49.7902 -49.7879 -49.7869 -49.7704 -49.7678 -49.7662 -49.7644
   -49.7416 -49.7316 -49.7048 -49.7042 -49.6721 -49.6709 -49.6647 -49.6647
   -49.6618 -49.6551 -49.6530 -49.6483 -49.6438 -49.6345 -49.6299 -49.6204
   -49.6152 -49.6101 -49.6085 -49.6036 -49.6019 -49.5929 -49.5929 -49.5889
   -49.5836 -49.5828 -49.5787 -49.5765 -49.5712 -49.5692 -49.5656 -49.5643
   -49.5598 -49.5539 -49.5538 -49.5487 -49.5439 -49.5304 -49.5101 -49.4994
   -49.4743 -49.4733 -49.4596 -49.4576 -49.4488 -49.4389 -49.4194 -49.4192
   -49.4173 -49.4163 -49.4145 -49.4142 -49.3607 -49.3345 -49.3341 -49.3303
   -49.2989 -49.2933 -49.2791 -49.2788 -49.2762 -49.2759 -49.2749 -49.2476
   -49.2417 -49.2401 -49.2396 -49.2393 -49.2265 -49.2263 -49.1862 -49.1835
   -49.1495 -49.1188 -49.1057 -49.0958 -49.0949 -49.0683 -49.0394 -49.0303
   -49.0292 -49.0108 -49.0068 -49.0042 -49.0000 -48.9986 -48.9956 -48.9935
   -48.9881 -48.9870 -48.9833 -48.9789 -48.9781 -48.7975 -48.7922 -48.7896
   -11.9193  -5.3316  -5.2840  -4.0830  -4.0227  -3.8753  -3.8634  -3.4547
    -3.2946  -3.0183  -2.9893  -2.9541  -2.9418  -2.9248  -2.9141  -2.9055
    -2.8840  -2.8659  -2.8460  -2.7964  -2.7545  -2.7383  -2.7065  -2.7006
    -2.6026  -2.5147  -2.3790  -2.3770  -2.3410  -2.3382  -2.1164  -2.1127
    -2.0886  -2.0593  -2.0337  -2.0248  -1.9583  -1.9540  -1.8193  -1.8093
    -1.7368  -1.7243  -1.7203  -1.6415  -1.6351  -1.5090  -1.5077  -1.4735
    -1.4479  -1.3853  -1.3536  -1.2476  -1.2475  -1.2327  -1.1752  -1.1255
    -1.1167  -1.0899  -1.0856  -0.9803  -0.9669  -0.9069  -0.8661  -0.8418
    -0.7976  -0.7796  -0.6691  -0.6279  -0.6239  -0.6165  -0.5809  -0.5731
    -0.5677  -0.5592  -0.5204  -0.3504  -0.3287  -0.3074  -0.3049  -0.3019
    -0.3006  -0.2700  -0.2555  -0.2534  -0.2182  -0.2011  -0.1329  -0.1302
    -0.0858  -0.0817  -0.0696  -0.0384   0.0271   0.0853   0.1393   0.1609
     0.1717   0.1786   0.1892   0.1932   0.2128   0.2428   0.2757   0.2980
     0.4214   0.4415   0.4474   0.5357   0.6182   0.6711   0.7241   0.7433
     0.7625   0.7711   0.8387   0.8564   0.8665   0.8813   0.8857   0.8911
     0.9124   0.9249   0.9576   0.9722   1.0051   1.0571   1.0584   1.0811
     1.0854   1.1395   1.1946   1.2225   1.2405   1.2682   1.3006   1.4430
     1.4635   1.5969   1.6458   1.6636   1.6701   1.6702   1.7004   1.8001
     1.8271   1.8999   1.9086   1.9207   1.9256   1.9369   1.9569   2.0273
     2.0400   2.0616   2.0621   2.0793   2.1637   2.1832   2.2369   2.2737
     2.3169   2.4020   2.4501   2.4505   2.4599   2.5492   2.5652   2.6409
     2.6422   2.6535   2.6596   2.7094   2.7129   2.7359   2.7471   2.7565
     2.8039   2.9256   2.9358   2.9368   2.9541   2.9588   2.9628   2.9628
     2.9661   2.9672   3.0203   3.1894   3.2139   3.2192   3.2286   3.2317
     3.4369   3.4750   3.7357   3.7488   3.9358   4.4065   4.4504   4.7989
     4.8012   4.8044   4.8094   5.2742   5.2843   5.2965   5.3150   5.3347
     5.6158   5.7939   5.7989   5.9184   6.1835   6.2039   6.3518   6.3744
     6.3887   6.4307   8.2619   8.2647   8.2969   8.3192   8.5215   8.5427
     8.6530   8.8043   8.8372   8.8534   8.8816   8.9066   9.2852   9.3314
     9.3584   9.7727   9.7777   9.8423   9.8935  10.2360  10.3316  10.3769
    10.4052  10.6262  10.8018  10.8669  10.9007  10.9029  10.9285  10.9506

     occupation numbers 
     1.0000   1.0000   1.0000   1.0000   1.0000   1.0000   1.0000   1.0000
     1.0000   1.0000   1.0000   1.0000   1.0000   1.0000   1.0000   1.0000
     1.0000   1.0000   1.0000   1.0000   1.0000   1.0000   1.0000   1.0000
     1.0000   1.0000   1.0000   1.0000   1.0000   1.0000   1.0000   1.0000
     1.0000   1.0000   1.0000   1.0000   1.0000   1.0000   1.0000   1.0000
     1.0000   1.0000   1.0000   1.0000   1.0000   1.0000   1.0000   1.0000
     1.0000   1.0000   1.0000   1.0000   1.0000   1.0000   1.0000   1.0000
     1.0000   1.0000   1.0000   1.0000   1.0000   1.0000   1.0000   1.0000
     1.0000   1.0000   1.0000   1.0000   1.0000   1.0000   1.0000   1.0000
     1.0000   1.0000   1.0000   1.0000   1.0000   1.0000   1.0000   1.0000
     1.0000   1.0000   1.0000   1.0000   1.0000   1.0000   1.0000   1.0000
     1.0000   1.0000   1.0000   1.0000   1.0000   1.0000   1.0000   1.0000
     1.0000   1.0000   1.0000   1.0000   1.0000   1.0000   1.0000   1.0000
     1.0000   1.0000   1.0000   1.0000   1.0000   1.0000   1.0000   1.0000
     1.0000   1.0000   1.0000   1.0000   1.0000   1.0000   1.0000   1.0000
     1.0000   1.0000   1.0000   1.0000   1.0000   1.0000   1.0000   1.0000
     1.0000   1.0000   1.0000   1.0000   1.0000   1.0000   1.0000   1.0000
     1.0000   1.0000   1.0000   1.0000   1.0000   1.0000   1.0000   1.0000
     1.0000   1.0000   1.0000   1.0000   1.0000   1.0000   1.0000   1.0000
     1.0000   1.0000   1.0000   1.0000   1.0000   1.0000   1.0000   1.0000
     1.0000   1.0000   1.0000   1.0000   1.0000   1.0000   1.0000   1.0000
     1.0000   1.0000   1.0000   1.0000   1.0000   1.0000   1.0000   1.0000
     1.0000   1.0000   1.0000   1.0000   1.0000   1.0000   1.0000   1.0000
     1.0000   1.0000   1.0000   1.0000   1.0000   1.0000   1.0000   1.0000
     1.0000   1.0000   1.0000   1.0000   1.0000   1.0000   1.0000   1.0000
     1.0000   1.0000   1.0000   1.0000   1.0000   1.0000   1.0000   1.0000
     1.0000   1.0000   1.0000   1.0000   1.0000   1.0000   1.0000   1.0000
     1.0000   1.0000   1.0000   1.0000   1.0000   1.0000   1.0000   1.0000
     1.0000   1.0000   1.0000   1.0000   1.0000   1.0000   1.0000   1.0000
     1.0000   1.0000   1.0000   1.0000   1.0000   1.0000   1.0000   1.0000
     1.0000   1.0000   1.0000   1.0000   1.0000   1.0000   1.0000   1.0000
     1.0000   1.0000   1.0000   1.0000   1.0000   1.0000   1.0000   1.0000
     1.0000   1.0000   1.0000   1.0000   1.0000   1.0000   1.0000   1.0000
     1.0000   1.0000   1.0000   1.0000   1.0000   1.0000   1.0000   1.0000
     1.0000   1.0000   1.0000   1.0000   1.0000   1.0000   1.0000   1.0000
     1.0000   1.0000   1.0000   1.0000   1.0000   1.0000   1.0000   1.0000
     1.0000   1.0000   1.0000   1.0000   1.0000   1.0000   1.0000   1.0000
     1.0000   1.0000   1.0000   1.0000   1.0000   1.0000   1.0000   1.0000
     1.0000   1.0000   0.9999   0.9999   0.9999   0.9995   0.9994   0.9971
     0.9971   0.9963   0.9959   0.9888   0.9880   0.9812   0.9766   0.9719
     0.9305   0.5399   0.4891   0.4842   0.3990   0.3764   0.3582   0.3580
     0.3428   0.3380   0.1501   0.0060   0.0037   0.0033   0.0027   0.0026
     0.0000   0.0000   0.0000   0.0000   0.0000   0.0000   0.0000   0.0000
     0.0000   0.0000   0.0000   0.0000   0.0000   0.0000   0.0000   0.0000
     0.0000   0.0000   0.0000   0.0000   0.0000   0.0000   0.0000   0.0000
     0.0000   0.0000   0.0000   0.0000   0.0000   0.0000   0.0000   0.0000
     0.0000   0.0000   0.0000   0.0000   0.0000   0.0000   0.0000   0.0000
     0.0000   0.0000   0.0000   0.0000   0.0000   0.0000   0.0000   0.0000
     0.0000   0.0000   0.0000   0.0000   0.0000   0.0000   0.0000   0.0000

          k = 0.1667-0.0962 0.0000 ( 88230 PWs)   bands (ev):

   -95.5308 -95.5231 -95.5187 -95.5185 -95.5181 -95.5131 -95.5119 -95.5112
   -95.4989 -95.4938 -95.4936 -95.4918 -95.4888 -95.4886 -95.4863 -95.4860
   -95.4823 -95.3853 -95.1309 -95.1244 -95.1237 -95.0909 -95.0837 -95.0818
   -95.0799 -95.0712 -95.0696 -95.0679 -95.0659 -95.0655 -95.0619 -95.0573
   -95.0570 -94.8835 -94.8811 -94.8792 -49.8111 -49.7987 -49.7945 -49.7904
   -49.7805 -49.7766 -49.7739 -49.7715 -49.7692 -49.7560 -49.7543 -49.7525
   -49.7477 -49.7379 -49.7329 -49.7321 -49.7195 -49.7133 -49.7011 -49.6777
   -49.6774 -49.6762 -49.6713 -49.6660 -49.6517 -49.6511 -49.6439 -49.6156
   -49.6153 -49.6053 -49.6027 -49.6024 -49.5964 -49.5944 -49.5931 -49.5822
   -49.5809 -49.5794 -49.5778 -49.5768 -49.5717 -49.5689 -49.5677 -49.5516
   -49.5506 -49.5460 -49.5334 -49.5326 -49.5265 -49.5201 -49.5150 -49.4746
   -49.4697 -49.4581 -49.4498 -49.4472 -49.4358 -49.4184 -49.4145 -49.4113
   -49.4013 -49.4008 -49.3941 -49.3938 -49.3868 -49.3833 -49.3611 -49.3608
   -49.3408 -49.3401 -49.3364 -49.2969 -49.2945 -49.2647 -49.2443 -49.2410
   -49.2330 -49.2323 -49.2309 -49.2204 -49.2198 -49.2098 -49.1754 -49.1688
   -49.1677 -49.1195 -49.1151 -49.0884 -49.0679 -49.0634 -49.0408 -49.0297
   -49.0285 -49.0124 -49.0106 -49.0002 -48.9983 -48.9973 -48.9948 -48.9925
   -48.9898 -48.9889 -48.9851 -48.9781 -48.9777 -48.7974 -48.7921 -48.7897
   -11.9193  -6.0878  -4.7860  -4.1360  -3.8186  -3.8163  -3.6961  -3.6046
    -3.5160  -3.5023  -3.4921  -3.2284  -3.1767  -3.0946  -3.0769  -3.0565
    -3.0315  -2.6908  -2.6107  -2.6078  -2.6006  -2.5725  -2.5481  -2.5261
    -2.4606  -2.4501  -2.3595  -2.3441  -2.3262  -2.2554  -2.2513  -2.2380
    -2.2220  -2.2092  -2.1852  -2.1628  -2.0187  -1.9991  -1.9507  -1.9327
    -1.8960  -1.6327  -1.6292  -1.6021  -1.5577  -1.5450  -1.5045  -1.4925
    -1.3609  -1.3409  -1.2830  -1.2614  -1.2316  -1.1747  -1.1516  -0.9035
    -0.8023  -0.7998  -0.7725  -0.7710  -0.7508  -0.6730  -0.6689  -0.6496
    -0.6237  -0.6191  -0.6004  -0.5535  -0.5197  -0.4916  -0.4687  -0.4513
    -0.3909  -0.3670  -0.3536  -0.3045  -0.2978  -0.2944  -0.2518  -0.1811
    -0.1726  -0.1510  -0.1186  -0.0580  -0.0478  -0.0440  -0.0279  -0.0087
     0.0097   0.0105   0.0340   0.0768   0.0798   0.1148   0.1392   0.1534
     0.1783   0.1936   0.2608   0.2714   0.3105   0.3237   0.3446   0.3930
     0.3953   0.4010   0.4060   0.4178   0.4768   0.4833   0.5138   0.5531
     0.6521   0.6899   0.8901   0.9378   0.9561   0.9586   0.9759   0.9785
     1.0285   1.0301   1.1130   1.1446   1.2675   1.3286   1.3613   1.3885
     1.3916   1.3969   1.4049   1.4202   1.4256   1.4311   1.5365   1.5427
     1.5974   1.6038   1.6669   1.6927   1.8132   1.8194   1.8215   1.8488
     1.8796   1.9077   1.9599   1.9608   1.9718   2.0425   2.0468   2.0704
     2.0731   2.0898   2.0944   2.1110   2.1769   2.1977   2.2368   2.2457
     2.3382   2.3690   2.3710   2.4084   2.4254   2.4665   2.4698   2.5228
     2.5253   2.5385   2.5540   2.5600   2.5682   2.5893   2.6028   2.6209
     2.6364   2.6433   2.7031   2.7137   2.8772   2.8900   2.8924   2.9118
     2.9264   2.9268   2.9506   2.9596   2.9627   2.9631   2.9757   2.9807
     2.9871   2.9954   3.0059   3.0090   3.1033   3.1327   3.1341   3.2087
     3.4196   3.7166   3.7311   4.2483   4.2627   4.3013   4.3855   5.5684
     5.9254   5.9289   6.5713   6.5752   6.7687   6.7689   6.8147   7.7650
     7.7811   7.8283   7.8446   8.1636   8.5271   8.5303   8.7106   8.7262
     8.7899   8.9492   8.9755   9.2451   9.3835   9.3953   9.6069   9.6597
     9.8469  10.1485  10.2665  10.3452  10.5033  10.5168  10.6023  10.6395
    10.8167  10.8225  10.8621  10.9194  10.9272  11.0937  11.3110  11.3384

     occupation numbers 
     1.0000   1.0000   1.0000   1.0000   1.0000   1.0000   1.0000   1.0000
     1.0000   1.0000   1.0000   1.0000   1.0000   1.0000   1.0000   1.0000
     1.0000   1.0000   1.0000   1.0000   1.0000   1.0000   1.0000   1.0000
     1.0000   1.0000   1.0000   1.0000   1.0000   1.0000   1.0000   1.0000
     1.0000   1.0000   1.0000   1.0000   1.0000   1.0000   1.0000   1.0000
     1.0000   1.0000   1.0000   1.0000   1.0000   1.0000   1.0000   1.0000
     1.0000   1.0000   1.0000   1.0000   1.0000   1.0000   1.0000   1.0000
     1.0000   1.0000   1.0000   1.0000   1.0000   1.0000   1.0000   1.0000
     1.0000   1.0000   1.0000   1.0000   1.0000   1.0000   1.0000   1.0000
     1.0000   1.0000   1.0000   1.0000   1.0000   1.0000   1.0000   1.0000
     1.0000   1.0000   1.0000   1.0000   1.0000   1.0000   1.0000   1.0000
     1.0000   1.0000   1.0000   1.0000   1.0000   1.0000   1.0000   1.0000
     1.0000   1.0000   1.0000   1.0000   1.0000   1.0000   1.0000   1.0000
     1.0000   1.0000   1.0000   1.0000   1.0000   1.0000   1.0000   1.0000
     1.0000   1.0000   1.0000   1.0000   1.0000   1.0000   1.0000   1.0000
     1.0000   1.0000   1.0000   1.0000   1.0000   1.0000   1.0000   1.0000
     1.0000   1.0000   1.0000   1.0000   1.0000   1.0000   1.0000   1.0000
     1.0000   1.0000   1.0000   1.0000   1.0000   1.0000   1.0000   1.0000
     1.0000   1.0000   1.0000   1.0000   1.0000   1.0000   1.0000   1.0000
     1.0000   1.0000   1.0000   1.0000   1.0000   1.0000   1.0000   1.0000
     1.0000   1.0000   1.0000   1.0000   1.0000   1.0000   1.0000   1.0000
     1.0000   1.0000   1.0000   1.0000   1.0000   1.0000   1.0000   1.0000
     1.0000   1.0000   1.0000   1.0000   1.0000   1.0000   1.0000   1.0000
     1.0000   1.0000   1.0000   1.0000   1.0000   1.0000   1.0000   1.0000
     1.0000   1.0000   1.0000   1.0000   1.0000   1.0000   1.0000   1.0000
     1.0000   1.0000   1.0000   1.0000   1.0000   1.0000   1.0000   1.0000
     1.0000   1.0000   1.0000   1.0000   1.0000   1.0000   1.0000   1.0000
     1.0000   1.0000   1.0000   1.0000   1.0000   1.0000   1.0000   1.0000
     1.0000   1.0000   1.0000   1.0000   1.0000   1.0000   1.0000   1.0000
     1.0000   1.0000   1.0000   1.0000   1.0000   1.0000   1.0000   1.0000
     1.0000   1.0000   1.0000   1.0000   1.0000   1.0000   1.0000   1.0000
     1.0000   1.0000   1.0000   1.0000   1.0000   1.0000   1.0000   1.0000
     1.0000   1.0000   1.0000   1.0000   1.0000   1.0000   1.0000   1.0000
     1.0000   1.0000   1.0000   1.0000   1.0000   1.0000   1.0000   1.0000
     1.0000   1.0000   1.0000   1.0000   1.0000   1.0000   1.0000   1.0000
     1.0000   1.0000   1.0000   1.0000   1.0000   1.0000   1.0000   1.0000
     1.0000   1.0000   1.0000   1.0000   1.0000   1.0000   1.0000   1.0000
     1.0000   1.0000   1.0000   1.0000   1.0000   1.0000   1.0000   1.0000
     1.0000   1.0000   1.0000   1.0000   1.0000   0.9999   0.9999   0.9997
     0.9997   0.9996   0.9995   0.9994   0.9993   0.9990   0.9987   0.9981
     0.9974   0.9970   0.9902   0.9878   0.7554   0.7051   0.6952   0.6075
     0.5361   0.5340   0.4158   0.3727   0.3585   0.3565   0.3011   0.2806
     0.2556   0.2252   0.1906   0.1813   0.0325   0.0183   0.0178   0.0041
     0.0001   0.0000   0.0000   0.0000   0.0000   0.0000   0.0000   0.0000
     0.0000   0.0000   0.0000   0.0000   0.0000   0.0000   0.0000   0.0000
     0.0000   0.0000   0.0000   0.0000   0.0000   0.0000   0.0000   0.0000
     0.0000   0.0000   0.0000   0.0000   0.0000   0.0000   0.0000   0.0000
     0.0000   0.0000   0.0000   0.0000   0.0000   0.0000   0.0000   0.0000
     0.0000   0.0000   0.0000   0.0000   0.0000   0.0000   0.0000   0.0000

          k = 0.1667 0.0962 0.0000 ( 88230 PWs)   bands (ev):

   -95.5308 -95.5231 -95.5187 -95.5185 -95.5181 -95.5131 -95.5119 -95.5112
   -95.4989 -95.4938 -95.4936 -95.4918 -95.4888 -95.4886 -95.4863 -95.4860
   -95.4823 -95.3853 -95.1309 -95.1244 -95.1237 -95.0909 -95.0837 -95.0818
   -95.0799 -95.0712 -95.0696 -95.0679 -95.0659 -95.0655 -95.0619 -95.0573
   -95.0570 -94.8835 -94.8811 -94.8792 -49.8111 -49.7987 -49.7945 -49.7904
   -49.7805 -49.7766 -49.7739 -49.7715 -49.7692 -49.7560 -49.7543 -49.7525
   -49.7478 -49.7379 -49.7329 -49.7321 -49.7195 -49.7133 -49.7011 -49.6777
   -49.6774 -49.6762 -49.6713 -49.6660 -49.6517 -49.6511 -49.6439 -49.6156
   -49.6153 -49.6052 -49.6027 -49.6024 -49.5964 -49.5944 -49.5931 -49.5821
   -49.5809 -49.5794 -49.5778 -49.5768 -49.5717 -49.5689 -49.5677 -49.5515
   -49.5506 -49.5460 -49.5334 -49.5326 -49.5265 -49.5201 -49.5150 -49.4746
   -49.4697 -49.4581 -49.4498 -49.4472 -49.4358 -49.4183 -49.4145 -49.4113
   -49.4013 -49.4008 -49.3941 -49.3938 -49.3868 -49.3832 -49.3611 -49.3608
   -49.3408 -49.3401 -49.3364 -49.2969 -49.2945 -49.2647 -49.2443 -49.2410
   -49.2330 -49.2323 -49.2309 -49.2204 -49.2198 -49.2098 -49.1754 -49.1688
   -49.1677 -49.1195 -49.1151 -49.0884 -49.0679 -49.0634 -49.0408 -49.0297
   -49.0285 -49.0124 -49.0106 -49.0002 -48.9983 -48.9973 -48.9948 -48.9925
   -48.9898 -48.9889 -48.9851 -48.9780 -48.9777 -48.7974 -48.7921 -48.7897
   -11.9193  -6.0878  -4.7860  -4.1360  -3.8186  -3.8163  -3.6961  -3.6046
    -3.5160  -3.5023  -3.4921  -3.2284  -3.1767  -3.0946  -3.0769  -3.0566
    -3.0315  -2.6908  -2.6107  -2.6078  -2.6006  -2.5725  -2.5481  -2.5261
    -2.4606  -2.4501  -2.3596  -2.3442  -2.3261  -2.2554  -2.2513  -2.2380
    -2.2220  -2.2092  -2.1852  -2.1628  -2.0187  -1.9991  -1.9507  -1.9327
    -1.8960  -1.6327  -1.6292  -1.6021  -1.5577  -1.5450  -1.5045  -1.4925
    -1.3609  -1.3408  -1.2830  -1.2614  -1.2316  -1.1747  -1.1516  -0.9035
    -0.8023  -0.7997  -0.7725  -0.7710  -0.7508  -0.6731  -0.6690  -0.6495
    -0.6237  -0.6191  -0.6004  -0.5535  -0.5197  -0.4916  -0.4687  -0.4513
    -0.3909  -0.3671  -0.3536  -0.3046  -0.2978  -0.2944  -0.2518  -0.1810
    -0.1725  -0.1510  -0.1186  -0.0580  -0.0478  -0.0440  -0.0279  -0.0087
     0.0097   0.0105   0.0340   0.0768   0.0798   0.1148   0.1392   0.1534
     0.1783   0.1936   0.2608   0.2714   0.3105   0.3237   0.3446   0.3930
     0.3953   0.4010   0.4060   0.4178   0.4768   0.4833   0.5138   0.5531
     0.6521   0.6899   0.8901   0.9378   0.9561   0.9586   0.9759   0.9785
     1.0285   1.0301   1.1130   1.1446   1.2674   1.3285   1.3613   1.3885
     1.3916   1.3969   1.4048   1.4202   1.4256   1.4311   1.5365   1.5427
     1.5974   1.6038   1.6669   1.6927   1.8132   1.8194   1.8215   1.8488
     1.8796   1.9077   1.9599   1.9608   1.9718   2.0424   2.0468   2.0703
     2.0731   2.0898   2.0944   2.1110   2.1769   2.1977   2.2368   2.2457
     2.3382   2.3690   2.3710   2.4084   2.4253   2.4665   2.4698   2.5228
     2.5253   2.5386   2.5540   2.5600   2.5682   2.5893   2.6028   2.6209
     2.6364   2.6433   2.7030   2.7137   2.8772   2.8900   2.8924   2.9118
     2.9264   2.9268   2.9506   2.9596   2.9627   2.9631   2.9757   2.9807
     2.9871   2.9954   3.0059   3.0090   3.1033   3.1327   3.1341   3.2087
     3.4196   3.7166   3.7312   4.2483   4.2627   4.3013   4.3854   5.5683
     5.9255   5.9289   6.5713   6.5752   6.7687   6.7689   6.8146   7.7650
     7.7811   7.8283   7.8447   8.1635   8.5271   8.5303   8.7106   8.7263
     8.7899   8.9492   8.9755   9.2450   9.3836   9.3953   9.6069   9.6597
     9.8469  10.1485  10.2666  10.3452  10.5033  10.5168  10.6023  10.6395
    10.8167  10.8225  10.8621  10.9194  10.9271  11.0937  11.3111  11.3384

     occupation numbers 
     1.0000   1.0000   1.0000   1.0000   1.0000   1.0000   1.0000   1.0000
     1.0000   1.0000   1.0000   1.0000   1.0000   1.0000   1.0000   1.0000
     1.0000   1.0000   1.0000   1.0000   1.0000   1.0000   1.0000   1.0000
     1.0000   1.0000   1.0000   1.0000   1.0000   1.0000   1.0000   1.0000
     1.0000   1.0000   1.0000   1.0000   1.0000   1.0000   1.0000   1.0000
     1.0000   1.0000   1.0000   1.0000   1.0000   1.0000   1.0000   1.0000
     1.0000   1.0000   1.0000   1.0000   1.0000   1.0000   1.0000   1.0000
     1.0000   1.0000   1.0000   1.0000   1.0000   1.0000   1.0000   1.0000
     1.0000   1.0000   1.0000   1.0000   1.0000   1.0000   1.0000   1.0000
     1.0000   1.0000   1.0000   1.0000   1.0000   1.0000   1.0000   1.0000
     1.0000   1.0000   1.0000   1.0000   1.0000   1.0000   1.0000   1.0000
     1.0000   1.0000   1.0000   1.0000   1.0000   1.0000   1.0000   1.0000
     1.0000   1.0000   1.0000   1.0000   1.0000   1.0000   1.0000   1.0000
     1.0000   1.0000   1.0000   1.0000   1.0000   1.0000   1.0000   1.0000
     1.0000   1.0000   1.0000   1.0000   1.0000   1.0000   1.0000   1.0000
     1.0000   1.0000   1.0000   1.0000   1.0000   1.0000   1.0000   1.0000
     1.0000   1.0000   1.0000   1.0000   1.0000   1.0000   1.0000   1.0000
     1.0000   1.0000   1.0000   1.0000   1.0000   1.0000   1.0000   1.0000
     1.0000   1.0000   1.0000   1.0000   1.0000   1.0000   1.0000   1.0000
     1.0000   1.0000   1.0000   1.0000   1.0000   1.0000   1.0000   1.0000
     1.0000   1.0000   1.0000   1.0000   1.0000   1.0000   1.0000   1.0000
     1.0000   1.0000   1.0000   1.0000   1.0000   1.0000   1.0000   1.0000
     1.0000   1.0000   1.0000   1.0000   1.0000   1.0000   1.0000   1.0000
     1.0000   1.0000   1.0000   1.0000   1.0000   1.0000   1.0000   1.0000
     1.0000   1.0000   1.0000   1.0000   1.0000   1.0000   1.0000   1.0000
     1.0000   1.0000   1.0000   1.0000   1.0000   1.0000   1.0000   1.0000
     1.0000   1.0000   1.0000   1.0000   1.0000   1.0000   1.0000   1.0000
     1.0000   1.0000   1.0000   1.0000   1.0000   1.0000   1.0000   1.0000
     1.0000   1.0000   1.0000   1.0000   1.0000   1.0000   1.0000   1.0000
     1.0000   1.0000   1.0000   1.0000   1.0000   1.0000   1.0000   1.0000
     1.0000   1.0000   1.0000   1.0000   1.0000   1.0000   1.0000   1.0000
     1.0000   1.0000   1.0000   1.0000   1.0000   1.0000   1.0000   1.0000
     1.0000   1.0000   1.0000   1.0000   1.0000   1.0000   1.0000   1.0000
     1.0000   1.0000   1.0000   1.0000   1.0000   1.0000   1.0000   1.0000
     1.0000   1.0000   1.0000   1.0000   1.0000   1.0000   1.0000   1.0000
     1.0000   1.0000   1.0000   1.0000   1.0000   1.0000   1.0000   1.0000
     1.0000   1.0000   1.0000   1.0000   1.0000   1.0000   1.0000   1.0000
     1.0000   1.0000   1.0000   1.0000   1.0000   1.0000   1.0000   1.0000
     1.0000   1.0000   1.0000   1.0000   1.0000   0.9999   0.9999   0.9997
     0.9997   0.9996   0.9995   0.9994   0.9993   0.9990   0.9987   0.9981
     0.9974   0.9970   0.9902   0.9879   0.7553   0.7050   0.6952   0.6073
     0.5362   0.5341   0.4157   0.3727   0.3584   0.3567   0.3010   0.2806
     0.2555   0.2251   0.1905   0.1812   0.0325   0.0183   0.0178   0.0041
     0.0001   0.0000   0.0000   0.0000   0.0000   0.0000   0.0000   0.0000
     0.0000   0.0000   0.0000   0.0000   0.0000   0.0000   0.0000   0.0000
     0.0000   0.0000   0.0000   0.0000   0.0000   0.0000   0.0000   0.0000
     0.0000   0.0000   0.0000   0.0000   0.0000   0.0000   0.0000   0.0000
     0.0000   0.0000   0.0000   0.0000   0.0000   0.0000   0.0000   0.0000
     0.0000   0.0000   0.0000   0.0000   0.0000   0.0000   0.0000   0.0000

          k = 0.1667 0.2887 0.0000 ( 88188 PWs)   bands (ev):

   -95.5301 -95.5240 -95.5191 -95.5184 -95.5180 -95.5134 -95.5116 -95.5109
   -95.4989 -95.4940 -95.4936 -95.4916 -95.4892 -95.4889 -95.4857 -95.4854
   -95.4827 -95.3853 -95.1307 -95.1244 -95.1238 -95.0908 -95.0837 -95.0818
   -95.0790 -95.0728 -95.0703 -95.0672 -95.0660 -95.0650 -95.0614 -95.0575
   -95.0570 -94.8836 -94.8811 -94.8792 -49.8242 -49.8180 -49.8059 -49.7971
   -49.7925 -49.7853 -49.7774 -49.7746 -49.7685 -49.7609 -49.7582 -49.7537
   -49.7505 -49.7416 -49.7313 -49.7022 -49.6973 -49.6914 -49.6775 -49.6736
   -49.6696 -49.6652 -49.6629 -49.6565 -49.6476 -49.6374 -49.6321 -49.6204
   -49.6154 -49.6102 -49.6079 -49.6049 -49.6029 -49.5962 -49.5927 -49.5884
   -49.5840 -49.5811 -49.5771 -49.5739 -49.5696 -49.5655 -49.5637 -49.5587
   -49.5560 -49.5514 -49.5467 -49.5364 -49.5294 -49.5243 -49.5169 -49.4847
   -49.4725 -49.4631 -49.4588 -49.4507 -49.4447 -49.4306 -49.4285 -49.4154
   -49.4120 -49.4080 -49.4002 -49.3828 -49.3819 -49.3796 -49.3550 -49.3205
   -49.3157 -49.3143 -49.3127 -49.2958 -49.2890 -49.2689 -49.2495 -49.2417
   -49.2406 -49.2401 -49.2395 -49.2373 -49.2074 -49.2066 -49.1925 -49.1732
   -49.1579 -49.1230 -49.1106 -49.0920 -49.0771 -49.0666 -49.0401 -49.0300
   -49.0289 -49.0114 -49.0096 -49.0002 -48.9997 -48.9983 -48.9964 -48.9915
   -48.9896 -48.9880 -48.9840 -48.9785 -48.9779 -48.7974 -48.7921 -48.7897
   -11.9193  -5.8833  -4.5890  -4.3694  -4.3244  -3.4964  -3.4456  -3.4202
    -3.4057  -3.4031  -3.3895  -3.3291  -3.2546  -3.1583  -3.1432  -2.8667
    -2.8491  -2.7185  -2.7070  -2.5705  -2.5582  -2.5368  -2.5270  -2.5200
    -2.4963  -2.4442  -2.4283  -2.3960  -2.3473  -2.3371  -2.3020  -2.2439
    -2.2253  -2.2033  -2.1650  -2.0922  -2.0157  -1.8836  -1.8385  -1.7802
    -1.7609  -1.7083  -1.6592  -1.6282  -1.6133  -1.5709  -1.5301  -1.4431
    -1.4093  -1.3191  -1.3037  -1.2940  -1.2280  -1.2165  -1.1817  -1.1077
    -1.0609  -0.8982  -0.8631  -0.8352  -0.8244  -0.8133  -0.7569  -0.7307
    -0.7175  -0.7050  -0.6331  -0.6230  -0.5432  -0.5311  -0.5192  -0.5039
    -0.4962  -0.3826  -0.3583  -0.3284  -0.3140  -0.2919  -0.2476  -0.2013
    -0.1930  -0.1720  -0.1621  -0.1584  -0.1459  -0.1148  -0.1073  -0.0930
    -0.0316  -0.0272   0.0384   0.0554   0.0863   0.1074   0.1340   0.1392
     0.1820   0.1984   0.2052   0.2177   0.2393   0.2601   0.2749   0.2847
     0.3461   0.3586   0.3712   0.4022   0.4931   0.5220   0.5353   0.5508
     0.6062   0.6140   0.7715   0.8528   0.8703   0.8821   0.9300   0.9508
     0.9934   1.0204   1.0363   1.0522   1.0616   1.0786   1.1765   1.1891
     1.2759   1.3562   1.4137   1.4187   1.4574   1.4799   1.5187   1.5442
     1.5611   1.5705   1.6962   1.7348   1.7378   1.7562   1.7829   1.7922
     1.8416   1.8496   1.8782   1.8856   1.9195   1.9412   1.9824   1.9933
     2.0050   2.0229   2.0291   2.0712   2.1175   2.1392   2.1746   2.3356
     2.3815   2.4002   2.4752   2.5003   2.5227   2.5361   2.6044   2.6237
     2.6269   2.6379   2.6549   2.6871   2.6932   2.7282   2.7407   2.7433
     2.8522   2.8641   2.8713   2.8888   2.9130   2.9192   2.9290   2.9408
     2.9626   2.9631   2.9651   2.9895   3.0992   3.1139   3.1207   3.1789
     3.1956   3.2143   3.2460   3.3324   3.3509   3.5773   3.5820   3.6583
     3.9959   4.0057   4.2947   4.3187   4.9354   5.0065   5.0222   5.3551
     5.3625   5.8006   6.4687   6.4895   6.6030   6.7922   6.9644   7.2293
     7.2603   7.6694   7.7750   7.7974   7.8466   7.9829   8.8128   8.8299
     8.9113   8.9278   8.9748   9.1988   9.2501   9.3826   9.4640   9.6149
     9.6400   9.6641   9.9486  10.0242  10.0441  10.4147  10.4424  10.4894
    10.5102  10.5272  10.5787  10.9457  11.0430  11.0567  11.0727  11.1054

     occupation numbers 
     1.0000   1.0000   1.0000   1.0000   1.0000   1.0000   1.0000   1.0000
     1.0000   1.0000   1.0000   1.0000   1.0000   1.0000   1.0000   1.0000
     1.0000   1.0000   1.0000   1.0000   1.0000   1.0000   1.0000   1.0000
     1.0000   1.0000   1.0000   1.0000   1.0000   1.0000   1.0000   1.0000
     1.0000   1.0000   1.0000   1.0000   1.0000   1.0000   1.0000   1.0000
     1.0000   1.0000   1.0000   1.0000   1.0000   1.0000   1.0000   1.0000
     1.0000   1.0000   1.0000   1.0000   1.0000   1.0000   1.0000   1.0000
     1.0000   1.0000   1.0000   1.0000   1.0000   1.0000   1.0000   1.0000
     1.0000   1.0000   1.0000   1.0000   1.0000   1.0000   1.0000   1.0000
     1.0000   1.0000   1.0000   1.0000   1.0000   1.0000   1.0000   1.0000
     1.0000   1.0000   1.0000   1.0000   1.0000   1.0000   1.0000   1.0000
     1.0000   1.0000   1.0000   1.0000   1.0000   1.0000   1.0000   1.0000
     1.0000   1.0000   1.0000   1.0000   1.0000   1.0000   1.0000   1.0000
     1.0000   1.0000   1.0000   1.0000   1.0000   1.0000   1.0000   1.0000
     1.0000   1.0000   1.0000   1.0000   1.0000   1.0000   1.0000   1.0000
     1.0000   1.0000   1.0000   1.0000   1.0000   1.0000   1.0000   1.0000
     1.0000   1.0000   1.0000   1.0000   1.0000   1.0000   1.0000   1.0000
     1.0000   1.0000   1.0000   1.0000   1.0000   1.0000   1.0000   1.0000
     1.0000   1.0000   1.0000   1.0000   1.0000   1.0000   1.0000   1.0000
     1.0000   1.0000   1.0000   1.0000   1.0000   1.0000   1.0000   1.0000
     1.0000   1.0000   1.0000   1.0000   1.0000   1.0000   1.0000   1.0000
     1.0000   1.0000   1.0000   1.0000   1.0000   1.0000   1.0000   1.0000
     1.0000   1.0000   1.0000   1.0000   1.0000   1.0000   1.0000   1.0000
     1.0000   1.0000   1.0000   1.0000   1.0000   1.0000   1.0000   1.0000
     1.0000   1.0000   1.0000   1.0000   1.0000   1.0000   1.0000   1.0000
     1.0000   1.0000   1.0000   1.0000   1.0000   1.0000   1.0000   1.0000
     1.0000   1.0000   1.0000   1.0000   1.0000   1.0000   1.0000   1.0000
     1.0000   1.0000   1.0000   1.0000   1.0000   1.0000   1.0000   1.0000
     1.0000   1.0000   1.0000   1.0000   1.0000   1.0000   1.0000   1.0000
     1.0000   1.0000   1.0000   1.0000   1.0000   1.0000   1.0000   1.0000
     1.0000   1.0000   1.0000   1.0000   1.0000   1.0000   1.0000   1.0000
     1.0000   1.0000   1.0000   1.0000   1.0000   1.0000   1.0000   1.0000
     1.0000   1.0000   1.0000   1.0000   1.0000   1.0000   1.0000   1.0000
     1.0000   1.0000   1.0000   1.0000   1.0000   1.0000   1.0000   1.0000
     1.0000   1.0000   1.0000   1.0000   1.0000   1.0000   1.0000   1.0000
     1.0000   1.0000   1.0000   1.0000   1.0000   1.0000   1.0000   1.0000
     1.0000   1.0000   1.0000   1.0000   1.0000   1.0000   1.0000   1.0000
     1.0000   1.0000   1.0000   1.0000   1.0000   1.0000   1.0000   1.0000
     1.0000   1.0000   0.9999   0.9998   0.9997   0.9996   0.9986   0.9980
     0.9978   0.9973   0.9962   0.9928   0.9919   0.9838   0.9793   0.9783
     0.8360   0.8005   0.7765   0.7099   0.6015   0.5716   0.5230   0.4639
     0.3591   0.3565   0.3477   0.2463   0.0351   0.0264   0.0231   0.0074
     0.0053   0.0036   0.0019   0.0003   0.0002   0.0000   0.0000   0.0000
     0.0000   0.0000   0.0000   0.0000   0.0000   0.0000   0.0000   0.0000
     0.0000   0.0000   0.0000   0.0000   0.0000   0.0000   0.0000   0.0000
     0.0000   0.0000   0.0000   0.0000   0.0000   0.0000   0.0000   0.0000
     0.0000   0.0000   0.0000   0.0000   0.0000   0.0000   0.0000   0.0000
     0.0000   0.0000   0.0000   0.0000   0.0000   0.0000   0.0000   0.0000
     0.0000   0.0000   0.0000   0.0000   0.0000   0.0000   0.0000   0.0000

          k = 0.1667-0.6736 0.0000 ( 88140 PWs)   bands (ev):

   -95.5291 -95.5250 -95.5195 -95.5183 -95.5178 -95.5136 -95.5113 -95.5107
   -95.4989 -95.4940 -95.4937 -95.4915 -95.4896 -95.4890 -95.4853 -95.4845
   -95.4834 -95.3853 -95.1306 -95.1244 -95.1239 -95.0908 -95.0837 -95.0818
   -95.0774 -95.0747 -95.0711 -95.0669 -95.0655 -95.0648 -95.0611 -95.0577
   -95.0569 -94.8836 -94.8811 -94.8791 -49.8378 -49.8238 -49.8176 -49.8076
   -49.7978 -49.7916 -49.7841 -49.7762 -49.7697 -49.7642 -49.7619 -49.7582
   -49.7478 -49.7353 -49.7316 -49.6830 -49.6767 -49.6734 -49.6700 -49.6634
   -49.6605 -49.6550 -49.6493 -49.6422 -49.6366 -49.6336 -49.6271 -49.6222
   -49.6166 -49.6124 -49.6086 -49.6040 -49.5994 -49.5981 -49.5954 -49.5926
   -49.5886 -49.5824 -49.5785 -49.5771 -49.5724 -49.5678 -49.5636 -49.5611
   -49.5578 -49.5571 -49.5544 -49.5488 -49.5377 -49.5301 -49.5165 -49.4932
   -49.4768 -49.4709 -49.4623 -49.4551 -49.4482 -49.4443 -49.4325 -49.4263
   -49.4190 -49.4048 -49.4018 -49.3955 -49.3726 -49.3672 -49.3282 -49.3004
   -49.2996 -49.2925 -49.2876 -49.2848 -49.2726 -49.2671 -49.2640 -49.2590
   -49.2530 -49.2462 -49.2449 -49.2384 -49.2245 -49.2082 -49.1937 -49.1817
   -49.1470 -49.1228 -49.1083 -49.0971 -49.0869 -49.0708 -49.0394 -49.0305
   -49.0291 -49.0108 -49.0072 -49.0031 -49.0001 -48.9985 -48.9979 -48.9911
   -48.9885 -48.9875 -48.9833 -48.9790 -48.9780 -48.7975 -48.7921 -48.7896
   -11.9193  -5.4922  -4.9530  -4.4565  -4.2123  -3.7368  -3.3840  -3.3343
    -3.3234  -3.2180  -3.1800  -3.1198  -3.0665  -3.0042  -2.9928  -2.8761
    -2.8018  -2.7951  -2.7280  -2.6890  -2.6562  -2.6437  -2.6221  -2.5867
    -2.5319  -2.4949  -2.4350  -2.4195  -2.3602  -2.3179  -2.2663  -2.2038
    -2.1836  -2.1623  -2.1130  -2.0955  -1.9948  -1.9521  -1.8744  -1.8291
    -1.6926  -1.6358  -1.6170  -1.5496  -1.5316  -1.5218  -1.5061  -1.4275
    -1.4145  -1.3705  -1.3317  -1.2763  -1.2151  -1.1844  -1.1637  -1.1314
    -1.1118  -1.0859  -1.0363  -1.0081  -0.9689  -0.9213  -0.8625  -0.8393
    -0.8338  -0.7844  -0.7560  -0.6531  -0.6218  -0.5963  -0.5409  -0.5242
    -0.5174  -0.4925  -0.4608  -0.4449  -0.4090  -0.3832  -0.3502  -0.3338
    -0.2633  -0.2415  -0.2229  -0.1995  -0.1953  -0.1594  -0.0789  -0.0563
    -0.0365  -0.0248  -0.0057   0.0507   0.0600   0.0830   0.1070   0.1159
     0.1316   0.1453   0.1668   0.2041   0.2139   0.2315   0.2450   0.2786
     0.3161   0.3432   0.3671   0.4052   0.4599   0.4914   0.5153   0.6049
     0.6217   0.6561   0.7530   0.8255   0.8546   0.8846   0.9125   0.9350
     0.9693   0.9927   0.9989   1.0597   1.0857   1.0989   1.1205   1.1445
     1.1841   1.2228   1.2321   1.2897   1.3320   1.3701   1.4897   1.5110
     1.5277   1.5570   1.6054   1.6441   1.6532   1.6665   1.6943   1.7209
     1.7340   1.7698   1.8387   1.8687   1.8996   1.9120   1.9222   1.9428
     1.9662   1.9805   2.0966   2.1289   2.1883   2.2535   2.2731   2.3562
     2.3858   2.4031   2.4637   2.4716   2.4983   2.5876   2.6290   2.6601
     2.7001   2.7150   2.7255   2.7292   2.7414   2.8125   2.8386   2.8429
     2.8807   2.8908   2.9151   2.9608   2.9624   2.9630   2.9660   2.9754
     3.0416   3.0524   3.1273   3.1387   3.1752   3.1984   3.2183   3.2280
     3.2800   3.3046   3.3521   3.9524   4.2137   4.2350   4.2909   4.3557
     4.6441   4.7984   4.8658   5.1652   5.2126   5.2440   5.2883   5.3834
     5.6398   5.7713   5.8504   6.0890   6.3806   6.4537   6.5084   6.6442
     6.8211   7.1226   7.3013   7.5494   7.6065   7.6263   8.3630   8.6150
     8.6383   8.6974   8.8802   9.1225   9.1824   9.2135   9.4484   9.4992
     9.5635   9.7396   9.8500   9.9200  10.0859  10.0981  10.1651  10.4504
    10.5269  10.7874  10.8416  10.9225  10.9594  10.9814  11.1272  11.1533

     occupation numbers 
     1.0000   1.0000   1.0000   1.0000   1.0000   1.0000   1.0000   1.0000
     1.0000   1.0000   1.0000   1.0000   1.0000   1.0000   1.0000   1.0000
     1.0000   1.0000   1.0000   1.0000   1.0000   1.0000   1.0000   1.0000
     1.0000   1.0000   1.0000   1.0000   1.0000   1.0000   1.0000   1.0000
     1.0000   1.0000   1.0000   1.0000   1.0000   1.0000   1.0000   1.0000
     1.0000   1.0000   1.0000   1.0000   1.0000   1.0000   1.0000   1.0000
     1.0000   1.0000   1.0000   1.0000   1.0000   1.0000   1.0000   1.0000
     1.0000   1.0000   1.0000   1.0000   1.0000   1.0000   1.0000   1.0000
     1.0000   1.0000   1.0000   1.0000   1.0000   1.0000   1.0000   1.0000
     1.0000   1.0000   1.0000   1.0000   1.0000   1.0000   1.0000   1.0000
     1.0000   1.0000   1.0000   1.0000   1.0000   1.0000   1.0000   1.0000
     1.0000   1.0000   1.0000   1.0000   1.0000   1.0000   1.0000   1.0000
     1.0000   1.0000   1.0000   1.0000   1.0000   1.0000   1.0000   1.0000
     1.0000   1.0000   1.0000   1.0000   1.0000   1.0000   1.0000   1.0000
     1.0000   1.0000   1.0000   1.0000   1.0000   1.0000   1.0000   1.0000
     1.0000   1.0000   1.0000   1.0000   1.0000   1.0000   1.0000   1.0000
     1.0000   1.0000   1.0000   1.0000   1.0000   1.0000   1.0000   1.0000
     1.0000   1.0000   1.0000   1.0000   1.0000   1.0000   1.0000   1.0000
     1.0000   1.0000   1.0000   1.0000   1.0000   1.0000   1.0000   1.0000
     1.0000   1.0000   1.0000   1.0000   1.0000   1.0000   1.0000   1.0000
     1.0000   1.0000   1.0000   1.0000   1.0000   1.0000   1.0000   1.0000
     1.0000   1.0000   1.0000   1.0000   1.0000   1.0000   1.0000   1.0000
     1.0000   1.0000   1.0000   1.0000   1.0000   1.0000   1.0000   1.0000
     1.0000   1.0000   1.0000   1.0000   1.0000   1.0000   1.0000   1.0000
     1.0000   1.0000   1.0000   1.0000   1.0000   1.0000   1.0000   1.0000
     1.0000   1.0000   1.0000   1.0000   1.0000   1.0000   1.0000   1.0000
     1.0000   1.0000   1.0000   1.0000   1.0000   1.0000   1.0000   1.0000
     1.0000   1.0000   1.0000   1.0000   1.0000   1.0000   1.0000   1.0000
     1.0000   1.0000   1.0000   1.0000   1.0000   1.0000   1.0000   1.0000
     1.0000   1.0000   1.0000   1.0000   1.0000   1.0000   1.0000   1.0000
     1.0000   1.0000   1.0000   1.0000   1.0000   1.0000   1.0000   1.0000
     1.0000   1.0000   1.0000   1.0000   1.0000   1.0000   1.0000   1.0000
     1.0000   1.0000   1.0000   1.0000   1.0000   1.0000   1.0000   1.0000
     1.0000   1.0000   1.0000   1.0000   1.0000   1.0000   1.0000   1.0000
     1.0000   1.0000   1.0000   1.0000   1.0000   1.0000   1.0000   1.0000
     1.0000   1.0000   1.0000   1.0000   1.0000   1.0000   1.0000   1.0000
     1.0000   1.0000   1.0000   1.0000   1.0000   1.0000   1.0000   1.0000
     1.0000   1.0000   1.0000   1.0000   1.0000   1.0000   1.0000   1.0000
     1.0000   1.0000   0.9999   0.9999   0.9998   0.9990   0.9977   0.9958
     0.9907   0.9875   0.9847   0.9835   0.9790   0.9184   0.8699   0.8599
     0.7422   0.7016   0.5916   0.3672   0.3600   0.3572   0.3434   0.3022
     0.1034   0.0850   0.0204   0.0163   0.0079   0.0050   0.0034   0.0028
     0.0010   0.0006   0.0002   0.0000   0.0000   0.0000   0.0000   0.0000
     0.0000   0.0000   0.0000   0.0000   0.0000   0.0000   0.0000   0.0000
     0.0000   0.0000   0.0000   0.0000   0.0000   0.0000   0.0000   0.0000
     0.0000   0.0000   0.0000   0.0000   0.0000   0.0000   0.0000   0.0000
     0.0000   0.0000   0.0000   0.0000   0.0000   0.0000   0.0000   0.0000
     0.0000   0.0000   0.0000   0.0000   0.0000   0.0000   0.0000   0.0000
     0.0000   0.0000   0.0000   0.0000   0.0000   0.0000   0.0000   0.0000

          k = 0.1667-0.4811 0.0000 ( 88140 PWs)   bands (ev):

   -95.5291 -95.5250 -95.5195 -95.5183 -95.5178 -95.5136 -95.5113 -95.5107
   -95.4989 -95.4940 -95.4937 -95.4915 -95.4896 -95.4890 -95.4853 -95.4845
   -95.4834 -95.3853 -95.1306 -95.1244 -95.1240 -95.0908 -95.0837 -95.0818
   -95.0774 -95.0747 -95.0711 -95.0669 -95.0655 -95.0648 -95.0611 -95.0577
   -95.0569 -94.8836 -94.8811 -94.8791 -49.8378 -49.8238 -49.8176 -49.8076
   -49.7978 -49.7916 -49.7841 -49.7762 -49.7697 -49.7642 -49.7619 -49.7582
   -49.7478 -49.7352 -49.7316 -49.6830 -49.6767 -49.6734 -49.6700 -49.6634
   -49.6605 -49.6550 -49.6493 -49.6422 -49.6366 -49.6336 -49.6271 -49.6221
   -49.6166 -49.6124 -49.6086 -49.6040 -49.5994 -49.5981 -49.5954 -49.5926
   -49.5886 -49.5824 -49.5785 -49.5771 -49.5724 -49.5678 -49.5636 -49.5611
   -49.5578 -49.5571 -49.5544 -49.5488 -49.5377 -49.5301 -49.5165 -49.4932
   -49.4768 -49.4709 -49.4623 -49.4551 -49.4482 -49.4443 -49.4325 -49.4263
   -49.4190 -49.4048 -49.4018 -49.3955 -49.3726 -49.3672 -49.3282 -49.3004
   -49.2996 -49.2925 -49.2876 -49.2848 -49.2726 -49.2671 -49.2640 -49.2590
   -49.2530 -49.2462 -49.2449 -49.2384 -49.2245 -49.2082 -49.1937 -49.1817
   -49.1470 -49.1228 -49.1084 -49.0971 -49.0869 -49.0708 -49.0394 -49.0304
   -49.0291 -49.0108 -49.0072 -49.0031 -49.0001 -48.9985 -48.9979 -48.9911
   -48.9885 -48.9874 -48.9833 -48.9790 -48.9780 -48.7975 -48.7921 -48.7896
   -11.9193  -5.4922  -4.9530  -4.4565  -4.2123  -3.7368  -3.3840  -3.3343
    -3.3234  -3.2180  -3.1800  -3.1198  -3.0665  -3.0042  -2.9928  -2.8761
    -2.8018  -2.7951  -2.7280  -2.6890  -2.6561  -2.6437  -2.6222  -2.5867
    -2.5319  -2.4949  -2.4350  -2.4196  -2.3602  -2.3179  -2.2663  -2.2038
    -2.1836  -2.1623  -2.1130  -2.0955  -1.9948  -1.9521  -1.8744  -1.8291
    -1.6926  -1.6358  -1.6170  -1.5496  -1.5316  -1.5218  -1.5061  -1.4275
    -1.4145  -1.3705  -1.3317  -1.2763  -1.2151  -1.1844  -1.1637  -1.1314
    -1.1118  -1.0859  -1.0362  -1.0082  -0.9690  -0.9214  -0.8625  -0.8393
    -0.8338  -0.7843  -0.7560  -0.6532  -0.6217  -0.5963  -0.5409  -0.5242
    -0.5174  -0.4925  -0.4608  -0.4449  -0.4090  -0.3831  -0.3501  -0.3338
    -0.2633  -0.2415  -0.2229  -0.1995  -0.1953  -0.1595  -0.0789  -0.0563
    -0.0365  -0.0248  -0.0057   0.0507   0.0600   0.0830   0.1070   0.1159
     0.1316   0.1453   0.1668   0.2041   0.2138   0.2314   0.2450   0.2786
     0.3161   0.3432   0.3671   0.4052   0.4599   0.4914   0.5153   0.6049
     0.6217   0.6561   0.7531   0.8255   0.8546   0.8846   0.9125   0.9350
     0.9693   0.9927   0.9988   1.0597   1.0857   1.0989   1.1205   1.1446
     1.1841   1.2228   1.2321   1.2897   1.3320   1.3701   1.4897   1.5110
     1.5277   1.5570   1.6055   1.6441   1.6532   1.6665   1.6943   1.7208
     1.7340   1.7698   1.8387   1.8687   1.8996   1.9119   1.9222   1.9428
     1.9662   1.9805   2.0967   2.1289   2.1883   2.2535   2.2732   2.3562
     2.3858   2.4032   2.4637   2.4716   2.4983   2.5875   2.6290   2.6601
     2.7001   2.7150   2.7255   2.7292   2.7414   2.8126   2.8386   2.8429
     2.8807   2.8908   2.9150   2.9608   2.9624   2.9630   2.9660   2.9755
     3.0416   3.0524   3.1273   3.1387   3.1752   3.1984   3.2183   3.2280
     3.2800   3.3046   3.3521   3.9524   4.2138   4.2350   4.2909   4.3557
     4.6442   4.7984   4.8658   5.1652   5.2126   5.2440   5.2883   5.3834
     5.6398   5.7713   5.8504   6.0890   6.3806   6.4537   6.5084   6.6442
     6.8211   7.1226   7.3012   7.5494   7.6065   7.6263   8.3630   8.6151
     8.6383   8.6974   8.8802   9.1225   9.1824   9.2135   9.4484   9.4992
     9.5635   9.7395   9.8499   9.9200  10.0859  10.0982  10.1651  10.4504
    10.5269  10.7874  10.8416  10.9225  10.9595  10.9814  11.1272  11.1534

     occupation numbers 
     1.0000   1.0000   1.0000   1.0000   1.0000   1.0000   1.0000   1.0000
     1.0000   1.0000   1.0000   1.0000   1.0000   1.0000   1.0000   1.0000
     1.0000   1.0000   1.0000   1.0000   1.0000   1.0000   1.0000   1.0000
     1.0000   1.0000   1.0000   1.0000   1.0000   1.0000   1.0000   1.0000
     1.0000   1.0000   1.0000   1.0000   1.0000   1.0000   1.0000   1.0000
     1.0000   1.0000   1.0000   1.0000   1.0000   1.0000   1.0000   1.0000
     1.0000   1.0000   1.0000   1.0000   1.0000   1.0000   1.0000   1.0000
     1.0000   1.0000   1.0000   1.0000   1.0000   1.0000   1.0000   1.0000
     1.0000   1.0000   1.0000   1.0000   1.0000   1.0000   1.0000   1.0000
     1.0000   1.0000   1.0000   1.0000   1.0000   1.0000   1.0000   1.0000
     1.0000   1.0000   1.0000   1.0000   1.0000   1.0000   1.0000   1.0000
     1.0000   1.0000   1.0000   1.0000   1.0000   1.0000   1.0000   1.0000
     1.0000   1.0000   1.0000   1.0000   1.0000   1.0000   1.0000   1.0000
     1.0000   1.0000   1.0000   1.0000   1.0000   1.0000   1.0000   1.0000
     1.0000   1.0000   1.0000   1.0000   1.0000   1.0000   1.0000   1.0000
     1.0000   1.0000   1.0000   1.0000   1.0000   1.0000   1.0000   1.0000
     1.0000   1.0000   1.0000   1.0000   1.0000   1.0000   1.0000   1.0000
     1.0000   1.0000   1.0000   1.0000   1.0000   1.0000   1.0000   1.0000
     1.0000   1.0000   1.0000   1.0000   1.0000   1.0000   1.0000   1.0000
     1.0000   1.0000   1.0000   1.0000   1.0000   1.0000   1.0000   1.0000
     1.0000   1.0000   1.0000   1.0000   1.0000   1.0000   1.0000   1.0000
     1.0000   1.0000   1.0000   1.0000   1.0000   1.0000   1.0000   1.0000
     1.0000   1.0000   1.0000   1.0000   1.0000   1.0000   1.0000   1.0000
     1.0000   1.0000   1.0000   1.0000   1.0000   1.0000   1.0000   1.0000
     1.0000   1.0000   1.0000   1.0000   1.0000   1.0000   1.0000   1.0000
     1.0000   1.0000   1.0000   1.0000   1.0000   1.0000   1.0000   1.0000
     1.0000   1.0000   1.0000   1.0000   1.0000   1.0000   1.0000   1.0000
     1.0000   1.0000   1.0000   1.0000   1.0000   1.0000   1.0000   1.0000
     1.0000   1.0000   1.0000   1.0000   1.0000   1.0000   1.0000   1.0000
     1.0000   1.0000   1.0000   1.0000   1.0000   1.0000   1.0000   1.0000
     1.0000   1.0000   1.0000   1.0000   1.0000   1.0000   1.0000   1.0000
     1.0000   1.0000   1.0000   1.0000   1.0000   1.0000   1.0000   1.0000
     1.0000   1.0000   1.0000   1.0000   1.0000   1.0000   1.0000   1.0000
     1.0000   1.0000   1.0000   1.0000   1.0000   1.0000   1.0000   1.0000
     1.0000   1.0000   1.0000   1.0000   1.0000   1.0000   1.0000   1.0000
     1.0000   1.0000   1.0000   1.0000   1.0000   1.0000   1.0000   1.0000
     1.0000   1.0000   1.0000   1.0000   1.0000   1.0000   1.0000   1.0000
     1.0000   1.0000   1.0000   1.0000   1.0000   1.0000   1.0000   1.0000
     1.0000   1.0000   0.9999   0.9999   0.9998   0.9990   0.9977   0.9958
     0.9907   0.9875   0.9847   0.9835   0.9790   0.9184   0.8698   0.8599
     0.7422   0.7017   0.5917   0.3672   0.3600   0.3571   0.3434   0.3021
     0.1034   0.0851   0.0203   0.0163   0.0079   0.0050   0.0034   0.0028
     0.0010   0.0006   0.0002   0.0000   0.0000   0.0000   0.0000   0.0000
     0.0000   0.0000   0.0000   0.0000   0.0000   0.0000   0.0000   0.0000
     0.0000   0.0000   0.0000   0.0000   0.0000   0.0000   0.0000   0.0000
     0.0000   0.0000   0.0000   0.0000   0.0000   0.0000   0.0000   0.0000
     0.0000   0.0000   0.0000   0.0000   0.0000   0.0000   0.0000   0.0000
     0.0000   0.0000   0.0000   0.0000   0.0000   0.0000   0.0000   0.0000
     0.0000   0.0000   0.0000   0.0000   0.0000   0.0000   0.0000   0.0000

          k = 0.1667-0.2887 0.0000 ( 88188 PWs)   bands (ev):

   -95.5301 -95.5240 -95.5191 -95.5184 -95.5180 -95.5134 -95.5116 -95.5110
   -95.4989 -95.4939 -95.4936 -95.4916 -95.4892 -95.4889 -95.4857 -95.4854
   -95.4827 -95.3853 -95.1307 -95.1244 -95.1238 -95.0908 -95.0837 -95.0818
   -95.0790 -95.0728 -95.0703 -95.0672 -95.0660 -95.0650 -95.0614 -95.0575
   -95.0570 -94.8836 -94.8811 -94.8792 -49.8243 -49.8180 -49.8059 -49.7972
   -49.7924 -49.7852 -49.7774 -49.7746 -49.7685 -49.7609 -49.7582 -49.7536
   -49.7505 -49.7416 -49.7313 -49.7022 -49.6973 -49.6914 -49.6775 -49.6736
   -49.6696 -49.6652 -49.6629 -49.6565 -49.6476 -49.6374 -49.6321 -49.6204
   -49.6154 -49.6102 -49.6079 -49.6049 -49.6029 -49.5962 -49.5927 -49.5884
   -49.5840 -49.5811 -49.5771 -49.5739 -49.5696 -49.5655 -49.5637 -49.5587
   -49.5560 -49.5513 -49.5467 -49.5364 -49.5294 -49.5243 -49.5169 -49.4847
   -49.4725 -49.4631 -49.4588 -49.4507 -49.4447 -49.4306 -49.4285 -49.4154
   -49.4120 -49.4080 -49.4002 -49.3828 -49.3819 -49.3796 -49.3550 -49.3205
   -49.3157 -49.3143 -49.3127 -49.2958 -49.2890 -49.2689 -49.2495 -49.2417
   -49.2406 -49.2401 -49.2395 -49.2373 -49.2074 -49.2066 -49.1925 -49.1732
   -49.1579 -49.1230 -49.1106 -49.0920 -49.0771 -49.0666 -49.0401 -49.0299
   -49.0289 -49.0114 -49.0096 -49.0002 -48.9997 -48.9983 -48.9964 -48.9915
   -48.9896 -48.9879 -48.9840 -48.9785 -48.9779 -48.7974 -48.7921 -48.7897
   -11.9193  -5.8833  -4.5890  -4.3694  -4.3244  -3.4964  -3.4457  -3.4202
    -3.4057  -3.4031  -3.3895  -3.3291  -3.2546  -3.1583  -3.1432  -2.8667
    -2.8491  -2.7185  -2.7070  -2.5705  -2.5582  -2.5368  -2.5270  -2.5200
    -2.4963  -2.4442  -2.4283  -2.3960  -2.3473  -2.3372  -2.3020  -2.2439
    -2.2254  -2.2033  -2.1650  -2.0922  -2.0157  -1.8836  -1.8385  -1.7802
    -1.7609  -1.7083  -1.6592  -1.6282  -1.6133  -1.5709  -1.5301  -1.4431
    -1.4093  -1.3192  -1.3036  -1.2940  -1.2280  -1.2165  -1.1817  -1.1077
    -1.0609  -0.8982  -0.8631  -0.8352  -0.8244  -0.8133  -0.7569  -0.7307
    -0.7176  -0.7050  -0.6331  -0.6230  -0.5431  -0.5311  -0.5192  -0.5039
    -0.4962  -0.3826  -0.3583  -0.3284  -0.3140  -0.2919  -0.2476  -0.2013
    -0.1930  -0.1720  -0.1621  -0.1584  -0.1458  -0.1148  -0.1072  -0.0930
    -0.0316  -0.0272   0.0384   0.0554   0.0863   0.1074   0.1340   0.1392
     0.1821   0.1984   0.2052   0.2177   0.2393   0.2601   0.2749   0.2847
     0.3461   0.3586   0.3712   0.4022   0.4931   0.5220   0.5353   0.5508
     0.6062   0.6140   0.7715   0.8528   0.8704   0.8820   0.9300   0.9508
     0.9934   1.0204   1.0363   1.0522   1.0616   1.0786   1.1765   1.1891
     1.2758   1.3563   1.4138   1.4187   1.4575   1.4799   1.5187   1.5442
     1.5611   1.5705   1.6962   1.7348   1.7378   1.7561   1.7829   1.7922
     1.8416   1.8496   1.8781   1.8856   1.9195   1.9412   1.9824   1.9933
     2.0050   2.0229   2.0291   2.0712   2.1175   2.1392   2.1747   2.3356
     2.3815   2.4002   2.4752   2.5003   2.5227   2.5361   2.6044   2.6237
     2.6270   2.6379   2.6549   2.6871   2.6932   2.7282   2.7407   2.7433
     2.8522   2.8641   2.8713   2.8889   2.9130   2.9192   2.9290   2.9408
     2.9625   2.9632   2.9651   2.9895   3.0992   3.1139   3.1207   3.1788
     3.1956   3.2143   3.2460   3.3324   3.3509   3.5773   3.5821   3.6583
     3.9959   4.0057   4.2947   4.3187   4.9354   5.0065   5.0222   5.3551
     5.3625   5.8006   6.4687   6.4895   6.6030   6.7922   6.9644   7.2293
     7.2603   7.6694   7.7750   7.7974   7.8466   7.9829   8.8128   8.8299
     8.9113   8.9277   8.9749   9.1988   9.2501   9.3826   9.4639   9.6149
     9.6400   9.6641   9.9486  10.0242  10.0441  10.4146  10.4425  10.4894
    10.5102  10.5272  10.5787  10.9457  11.0431  11.0567  11.0727  11.1055

     occupation numbers 
     1.0000   1.0000   1.0000   1.0000   1.0000   1.0000   1.0000   1.0000
     1.0000   1.0000   1.0000   1.0000   1.0000   1.0000   1.0000   1.0000
     1.0000   1.0000   1.0000   1.0000   1.0000   1.0000   1.0000   1.0000
     1.0000   1.0000   1.0000   1.0000   1.0000   1.0000   1.0000   1.0000
     1.0000   1.0000   1.0000   1.0000   1.0000   1.0000   1.0000   1.0000
     1.0000   1.0000   1.0000   1.0000   1.0000   1.0000   1.0000   1.0000
     1.0000   1.0000   1.0000   1.0000   1.0000   1.0000   1.0000   1.0000
     1.0000   1.0000   1.0000   1.0000   1.0000   1.0000   1.0000   1.0000
     1.0000   1.0000   1.0000   1.0000   1.0000   1.0000   1.0000   1.0000
     1.0000   1.0000   1.0000   1.0000   1.0000   1.0000   1.0000   1.0000
     1.0000   1.0000   1.0000   1.0000   1.0000   1.0000   1.0000   1.0000
     1.0000   1.0000   1.0000   1.0000   1.0000   1.0000   1.0000   1.0000
     1.0000   1.0000   1.0000   1.0000   1.0000   1.0000   1.0000   1.0000
     1.0000   1.0000   1.0000   1.0000   1.0000   1.0000   1.0000   1.0000
     1.0000   1.0000   1.0000   1.0000   1.0000   1.0000   1.0000   1.0000
     1.0000   1.0000   1.0000   1.0000   1.0000   1.0000   1.0000   1.0000
     1.0000   1.0000   1.0000   1.0000   1.0000   1.0000   1.0000   1.0000
     1.0000   1.0000   1.0000   1.0000   1.0000   1.0000   1.0000   1.0000
     1.0000   1.0000   1.0000   1.0000   1.0000   1.0000   1.0000   1.0000
     1.0000   1.0000   1.0000   1.0000   1.0000   1.0000   1.0000   1.0000
     1.0000   1.0000   1.0000   1.0000   1.0000   1.0000   1.0000   1.0000
     1.0000   1.0000   1.0000   1.0000   1.0000   1.0000   1.0000   1.0000
     1.0000   1.0000   1.0000   1.0000   1.0000   1.0000   1.0000   1.0000
     1.0000   1.0000   1.0000   1.0000   1.0000   1.0000   1.0000   1.0000
     1.0000   1.0000   1.0000   1.0000   1.0000   1.0000   1.0000   1.0000
     1.0000   1.0000   1.0000   1.0000   1.0000   1.0000   1.0000   1.0000
     1.0000   1.0000   1.0000   1.0000   1.0000   1.0000   1.0000   1.0000
     1.0000   1.0000   1.0000   1.0000   1.0000   1.0000   1.0000   1.0000
     1.0000   1.0000   1.0000   1.0000   1.0000   1.0000   1.0000   1.0000
     1.0000   1.0000   1.0000   1.0000   1.0000   1.0000   1.0000   1.0000
     1.0000   1.0000   1.0000   1.0000   1.0000   1.0000   1.0000   1.0000
     1.0000   1.0000   1.0000   1.0000   1.0000   1.0000   1.0000   1.0000
     1.0000   1.0000   1.0000   1.0000   1.0000   1.0000   1.0000   1.0000
     1.0000   1.0000   1.0000   1.0000   1.0000   1.0000   1.0000   1.0000
     1.0000   1.0000   1.0000   1.0000   1.0000   1.0000   1.0000   1.0000
     1.0000   1.0000   1.0000   1.0000   1.0000   1.0000   1.0000   1.0000
     1.0000   1.0000   1.0000   1.0000   1.0000   1.0000   1.0000   1.0000
     1.0000   1.0000   1.0000   1.0000   1.0000   1.0000   1.0000   1.0000
     1.0000   1.0000   0.9999   0.9998   0.9997   0.9996   0.9986   0.9980
     0.9978   0.9973   0.9962   0.9928   0.9919   0.9838   0.9793   0.9783
     0.8360   0.8004   0.7766   0.7098   0.6014   0.5715   0.5230   0.4639
     0.3593   0.3564   0.3477   0.2463   0.0352   0.0264   0.0232   0.0074
     0.0053   0.0036   0.0019   0.0003   0.0002   0.0000   0.0000   0.0000
     0.0000   0.0000   0.0000   0.0000   0.0000   0.0000   0.0000   0.0000
     0.0000   0.0000   0.0000   0.0000   0.0000   0.0000   0.0000   0.0000
     0.0000   0.0000   0.0000   0.0000   0.0000   0.0000   0.0000   0.0000
     0.0000   0.0000   0.0000   0.0000   0.0000   0.0000   0.0000   0.0000
     0.0000   0.0000   0.0000   0.0000   0.0000   0.0000   0.0000   0.0000
     0.0000   0.0000   0.0000   0.0000   0.0000   0.0000   0.0000   0.0000

          k = 0.3333-0.1925 0.0000 ( 88170 PWs)   bands (ev):

   -95.5298 -95.5243 -95.5189 -95.5184 -95.5181 -95.5135 -95.5118 -95.5106
   -95.4988 -95.4939 -95.4938 -95.4915 -95.4893 -95.4890 -95.4857 -95.4850
   -95.4829 -95.3853 -95.1307 -95.1245 -95.1237 -95.0908 -95.0837 -95.0818
   -95.0785 -95.0735 -95.0700 -95.0679 -95.0655 -95.0649 -95.0613 -95.0574
   -95.0571 -94.8836 -94.8811 -94.8792 -49.8325 -49.8130 -49.8079 -49.8029
   -49.7892 -49.7865 -49.7838 -49.7823 -49.7728 -49.7645 -49.7638 -49.7574
   -49.7434 -49.7319 -49.7156 -49.7145 -49.6895 -49.6869 -49.6706 -49.6681
   -49.6626 -49.6598 -49.6595 -49.6575 -49.6451 -49.6447 -49.6258 -49.6210
   -49.6175 -49.6122 -49.6043 -49.6035 -49.6027 -49.5957 -49.5897 -49.5890
   -49.5827 -49.5814 -49.5800 -49.5769 -49.5700 -49.5693 -49.5619 -49.5611
   -49.5575 -49.5509 -49.5466 -49.5392 -49.5370 -49.5273 -49.5134 -49.4900
   -49.4729 -49.4674 -49.4570 -49.4560 -49.4412 -49.4381 -49.4181 -49.4170
   -49.4133 -49.4126 -49.4092 -49.4089 -49.3693 -49.3501 -49.3424 -49.3421
   -49.3086 -49.3082 -49.2935 -49.2917 -49.2874 -49.2709 -49.2512 -49.2509
   -49.2486 -49.2407 -49.2380 -49.2242 -49.2236 -49.2009 -49.1972 -49.1752
   -49.1548 -49.1221 -49.1095 -49.0930 -49.0830 -49.0664 -49.0398 -49.0305
   -49.0285 -49.0112 -49.0091 -49.0012 -49.0002 -48.9983 -48.9954 -48.9931
   -48.9887 -48.9877 -48.9837 -48.9785 -48.9781 -48.7975 -48.7921 -48.7897
   -11.9193  -5.7837  -4.7233  -4.4889  -3.8648  -3.8640  -3.5719  -3.4599
    -3.3952  -3.3253  -3.2602  -3.2229  -3.2210  -2.9971  -2.9651  -2.9129
    -2.9060  -2.8052  -2.6694  -2.6137  -2.5754  -2.5733  -2.5379  -2.5319
    -2.5121  -2.5032  -2.4597  -2.4292  -2.3485  -2.3253  -2.3098  -2.2958
    -2.0934  -2.0895  -2.0485  -2.0345  -2.0081  -2.0048  -1.8106  -1.8047
    -1.7288  -1.7099  -1.6778  -1.6081  -1.5621  -1.5613  -1.5365  -1.5075
    -1.3726  -1.3678  -1.3107  -1.2849  -1.2686  -1.2640  -1.1765  -1.1465
    -1.1190  -1.0105  -0.9275  -0.9240  -0.9038  -0.7910  -0.7575  -0.7291
    -0.7253  -0.6899  -0.6843  -0.6646  -0.5969  -0.4720  -0.4572  -0.4427
    -0.4335  -0.4021  -0.3785  -0.3696  -0.3342  -0.3017  -0.3001  -0.2365
    -0.2348  -0.2168  -0.2034  -0.1835  -0.1755  -0.1696  -0.1641  -0.1209
    -0.1108  -0.0780  -0.0490  -0.0241  -0.0163   0.0137   0.1257   0.1458
     0.1493   0.1707   0.1776   0.2202   0.2838   0.2869   0.3038   0.3088
     0.3407   0.4070   0.4868   0.4932   0.5490   0.5573   0.6013   0.6153
     0.6964   0.7271   0.8728   0.8956   0.8976   0.9207   0.9225   0.9406
     0.9495   0.9705   0.9721   1.0531   1.0641   1.0936   1.0965   1.1285
     1.1784   1.2462   1.2798   1.3005   1.3334   1.4680   1.4805   1.5023
     1.5109   1.5227   1.5340   1.6887   1.7565   1.7649   1.7825   1.7835
     1.8171   1.8278   1.8613   1.8997   1.9161   1.9756   1.9932   2.0372
     2.1017   2.1146   2.1179   2.1295   2.1376   2.1601   2.1819   2.3342
     2.3731   2.3932   2.4193   2.4359   2.4368   2.4641   2.5355   2.5532
     2.6000   2.6418   2.6449   2.6552   2.6616   2.7640   2.7843   2.7908
     2.8419   2.8498   2.8782   2.8881   2.9068   2.9327   2.9608   2.9630
     2.9631   2.9710   3.0593   3.1004   3.1198   3.1265   3.1412   3.1431
     3.3125   3.3221   3.3607   3.7256   3.7388   3.8090   3.8092   3.8251
     4.1010   4.1305   4.2831   5.0054   5.0557   5.1361   5.1577   5.2255
     5.8000   5.8030   5.8301   5.8328   6.5478   6.5712   7.0244   7.1942
     7.2860   7.2922   7.7403   7.7647   8.2215   8.2368   8.5547   8.5563
     8.5894   8.9875   9.0959   9.1635   9.1825   9.4576   9.4631   9.5591
     9.5650   9.7380   9.9234  10.0053  10.1512  10.1994  10.2681  10.2859
    10.4373  10.4612  10.5656  10.7229  11.0351  11.1392  11.1889  11.2121

     occupation numbers 
     1.0000   1.0000   1.0000   1.0000   1.0000   1.0000   1.0000   1.0000
     1.0000   1.0000   1.0000   1.0000   1.0000   1.0000   1.0000   1.0000
     1.0000   1.0000   1.0000   1.0000   1.0000   1.0000   1.0000   1.0000
     1.0000   1.0000   1.0000   1.0000   1.0000   1.0000   1.0000   1.0000
     1.0000   1.0000   1.0000   1.0000   1.0000   1.0000   1.0000   1.0000
     1.0000   1.0000   1.0000   1.0000   1.0000   1.0000   1.0000   1.0000
     1.0000   1.0000   1.0000   1.0000   1.0000   1.0000   1.0000   1.0000
     1.0000   1.0000   1.0000   1.0000   1.0000   1.0000   1.0000   1.0000
     1.0000   1.0000   1.0000   1.0000   1.0000   1.0000   1.0000   1.0000
     1.0000   1.0000   1.0000   1.0000   1.0000   1.0000   1.0000   1.0000
     1.0000   1.0000   1.0000   1.0000   1.0000   1.0000   1.0000   1.0000
     1.0000   1.0000   1.0000   1.0000   1.0000   1.0000   1.0000   1.0000
     1.0000   1.0000   1.0000   1.0000   1.0000   1.0000   1.0000   1.0000
     1.0000   1.0000   1.0000   1.0000   1.0000   1.0000   1.0000   1.0000
     1.0000   1.0000   1.0000   1.0000   1.0000   1.0000   1.0000   1.0000
     1.0000   1.0000   1.0000   1.0000   1.0000   1.0000   1.0000   1.0000
     1.0000   1.0000   1.0000   1.0000   1.0000   1.0000   1.0000   1.0000
     1.0000   1.0000   1.0000   1.0000   1.0000   1.0000   1.0000   1.0000
     1.0000   1.0000   1.0000   1.0000   1.0000   1.0000   1.0000   1.0000
     1.0000   1.0000   1.0000   1.0000   1.0000   1.0000   1.0000   1.0000
     1.0000   1.0000   1.0000   1.0000   1.0000   1.0000   1.0000   1.0000
     1.0000   1.0000   1.0000   1.0000   1.0000   1.0000   1.0000   1.0000
     1.0000   1.0000   1.0000   1.0000   1.0000   1.0000   1.0000   1.0000
     1.0000   1.0000   1.0000   1.0000   1.0000   1.0000   1.0000   1.0000
     1.0000   1.0000   1.0000   1.0000   1.0000   1.0000   1.0000   1.0000
     1.0000   1.0000   1.0000   1.0000   1.0000   1.0000   1.0000   1.0000
     1.0000   1.0000   1.0000   1.0000   1.0000   1.0000   1.0000   1.0000
     1.0000   1.0000   1.0000   1.0000   1.0000   1.0000   1.0000   1.0000
     1.0000   1.0000   1.0000   1.0000   1.0000   1.0000   1.0000   1.0000
     1.0000   1.0000   1.0000   1.0000   1.0000   1.0000   1.0000   1.0000
     1.0000   1.0000   1.0000   1.0000   1.0000   1.0000   1.0000   1.0000
     1.0000   1.0000   1.0000   1.0000   1.0000   1.0000   1.0000   1.0000
     1.0000   1.0000   1.0000   1.0000   1.0000   1.0000   1.0000   1.0000
     1.0000   1.0000   1.0000   1.0000   1.0000   1.0000   1.0000   1.0000
     1.0000   1.0000   1.0000   1.0000   1.0000   1.0000   1.0000   1.0000
     1.0000   1.0000   1.0000   1.0000   1.0000   1.0000   1.0000   1.0000
     1.0000   1.0000   1.0000   1.0000   1.0000   1.0000   1.0000   1.0000
     1.0000   1.0000   1.0000   1.0000   1.0000   1.0000   1.0000   1.0000
     1.0000   1.0000   1.0000   1.0000   1.0000   0.9999   0.9997   0.9995
     0.9987   0.9971   0.9969   0.9962   0.9957   0.9674   0.9519   0.9456
     0.8622   0.8422   0.7517   0.7132   0.6310   0.5045   0.3672   0.3572
     0.3564   0.3213   0.0748   0.0343   0.0235   0.0207   0.0155   0.0149
     0.0005   0.0004   0.0002   0.0000   0.0000   0.0000   0.0000   0.0000
     0.0000   0.0000   0.0000   0.0000   0.0000   0.0000   0.0000   0.0000
     0.0000   0.0000   0.0000   0.0000   0.0000   0.0000   0.0000   0.0000
     0.0000   0.0000   0.0000   0.0000   0.0000   0.0000   0.0000   0.0000
     0.0000   0.0000   0.0000   0.0000   0.0000   0.0000   0.0000   0.0000
     0.0000   0.0000   0.0000   0.0000   0.0000   0.0000   0.0000   0.0000
     0.0000   0.0000   0.0000   0.0000   0.0000   0.0000   0.0000   0.0000

          k = 0.3333 0.0000 0.0000 ( 88188 PWs)   bands (ev):

   -95.5301 -95.5239 -95.5190 -95.5184 -95.5181 -95.5134 -95.5119 -95.5107
   -95.4988 -95.4939 -95.4937 -95.4915 -95.4893 -95.4888 -95.4857 -95.4854
   -95.4827 -95.3853 -95.1307 -95.1245 -95.1237 -95.0908 -95.0837 -95.0818
   -95.0790 -95.0727 -95.0704 -95.0671 -95.0660 -95.0650 -95.0614 -95.0574
   -95.0571 -94.8836 -94.8811 -94.8792 -49.8234 -49.8174 -49.8064 -49.7972
   -49.7930 -49.7852 -49.7773 -49.7742 -49.7690 -49.7610 -49.7586 -49.7540
   -49.7504 -49.7418 -49.7317 -49.7030 -49.6967 -49.6912 -49.6776 -49.6737
   -49.6697 -49.6653 -49.6628 -49.6566 -49.6476 -49.6372 -49.6318 -49.6201
   -49.6153 -49.6104 -49.6078 -49.6048 -49.6027 -49.5964 -49.5925 -49.5884
   -49.5840 -49.5809 -49.5769 -49.5738 -49.5697 -49.5655 -49.5641 -49.5583
   -49.5566 -49.5518 -49.5457 -49.5360 -49.5298 -49.5244 -49.5175 -49.4842
   -49.4731 -49.4628 -49.4587 -49.4507 -49.4450 -49.4305 -49.4284 -49.4155
   -49.4122 -49.4081 -49.4000 -49.3831 -49.3822 -49.3798 -49.3545 -49.3207
   -49.3156 -49.3142 -49.3126 -49.2954 -49.2891 -49.2686 -49.2496 -49.2418
   -49.2406 -49.2405 -49.2395 -49.2371 -49.2074 -49.2067 -49.1923 -49.1734
   -49.1577 -49.1227 -49.1108 -49.0923 -49.0770 -49.0665 -49.0401 -49.0303
   -49.0284 -49.0115 -49.0097 -49.0004 -48.9996 -48.9983 -48.9965 -48.9913
   -48.9898 -48.9880 -48.9840 -48.9784 -48.9780 -48.7975 -48.7921 -48.7897
   -11.9193  -5.8833  -4.5890  -4.3694  -4.3250  -3.4966  -3.4442  -3.4202
    -3.4061  -3.4032  -3.3894  -3.3288  -3.2545  -3.1581  -3.1432  -2.8682
    -2.8507  -2.7179  -2.7066  -2.5721  -2.5588  -2.5364  -2.5267  -2.5201
    -2.4967  -2.4433  -2.4276  -2.3954  -2.3470  -2.3360  -2.3018  -2.2435
    -2.2257  -2.2036  -2.1660  -2.0916  -2.0179  -1.8825  -1.8383  -1.7801
    -1.7595  -1.7082  -1.6587  -1.6283  -1.6125  -1.5713  -1.5307  -1.4428
    -1.4092  -1.3186  -1.3038  -1.2936  -1.2271  -1.2168  -1.1819  -1.1074
    -1.0608  -0.8967  -0.8622  -0.8340  -0.8224  -0.8118  -0.7565  -0.7322
    -0.7165  -0.7051  -0.6331  -0.6229  -0.5455  -0.5316  -0.5207  -0.5045
    -0.4976  -0.3804  -0.3574  -0.3280  -0.3146  -0.2935  -0.2468  -0.2029
    -0.1931  -0.1724  -0.1626  -0.1576  -0.1470  -0.1141  -0.1089  -0.0936
    -0.0315  -0.0276   0.0391   0.0562   0.0868   0.1071   0.1339   0.1394
     0.1819   0.1990   0.2041   0.2168   0.2389   0.2603   0.2743   0.2847
     0.3463   0.3576   0.3720   0.4021   0.4932   0.5217   0.5350   0.5513
     0.6057   0.6135   0.7715   0.8537   0.8688   0.8824   0.9284   0.9513
     0.9937   1.0207   1.0360   1.0513   1.0618   1.0780   1.1763   1.1879
     1.2798   1.3527   1.4136   1.4190   1.4565   1.4793   1.5189   1.5439
     1.5608   1.5702   1.6963   1.7344   1.7376   1.7566   1.7823   1.7923
     1.8423   1.8501   1.8792   1.8868   1.9199   1.9412   1.9836   1.9940
     2.0052   2.0235   2.0306   2.0710   2.1169   2.1401   2.1725   2.3349
     2.3802   2.3995   2.4750   2.4998   2.5231   2.5366   2.6043   2.6233
     2.6262   2.6381   2.6562   2.6875   2.6933   2.7271   2.7398   2.7422
     2.8523   2.8630   2.8730   2.8880   2.9129   2.9185   2.9292   2.9410
     2.9625   2.9631   2.9651   2.9891   3.0994   3.1154   3.1213   3.1805
     3.1974   3.2143   3.2455   3.3335   3.3515   3.5770   3.5816   3.6573
     3.9969   4.0069   4.2959   4.3198   4.9340   5.0061   5.0216   5.3552
     5.3619   5.8009   6.4708   6.4908   6.6033   6.7918   6.9635   7.2291
     7.2597   7.6695   7.7738   7.7960   7.8458   7.9810   8.8123   8.8289
     8.9137   8.9299   8.9731   9.1990   9.2502   9.3865   9.4681   9.6153
     9.6397   9.6640   9.9488  10.0246  10.0442  10.4193  10.4413  10.4894
    10.5098  10.5257  10.5755  10.9458  11.0433  11.0538  11.0725  11.1021

     occupation numbers 
     1.0000   1.0000   1.0000   1.0000   1.0000   1.0000   1.0000   1.0000
     1.0000   1.0000   1.0000   1.0000   1.0000   1.0000   1.0000   1.0000
     1.0000   1.0000   1.0000   1.0000   1.0000   1.0000   1.0000   1.0000
     1.0000   1.0000   1.0000   1.0000   1.0000   1.0000   1.0000   1.0000
     1.0000   1.0000   1.0000   1.0000   1.0000   1.0000   1.0000   1.0000
     1.0000   1.0000   1.0000   1.0000   1.0000   1.0000   1.0000   1.0000
     1.0000   1.0000   1.0000   1.0000   1.0000   1.0000   1.0000   1.0000
     1.0000   1.0000   1.0000   1.0000   1.0000   1.0000   1.0000   1.0000
     1.0000   1.0000   1.0000   1.0000   1.0000   1.0000   1.0000   1.0000
     1.0000   1.0000   1.0000   1.0000   1.0000   1.0000   1.0000   1.0000
     1.0000   1.0000   1.0000   1.0000   1.0000   1.0000   1.0000   1.0000
     1.0000   1.0000   1.0000   1.0000   1.0000   1.0000   1.0000   1.0000
     1.0000   1.0000   1.0000   1.0000   1.0000   1.0000   1.0000   1.0000
     1.0000   1.0000   1.0000   1.0000   1.0000   1.0000   1.0000   1.0000
     1.0000   1.0000   1.0000   1.0000   1.0000   1.0000   1.0000   1.0000
     1.0000   1.0000   1.0000   1.0000   1.0000   1.0000   1.0000   1.0000
     1.0000   1.0000   1.0000   1.0000   1.0000   1.0000   1.0000   1.0000
     1.0000   1.0000   1.0000   1.0000   1.0000   1.0000   1.0000   1.0000
     1.0000   1.0000   1.0000   1.0000   1.0000   1.0000   1.0000   1.0000
     1.0000   1.0000   1.0000   1.0000   1.0000   1.0000   1.0000   1.0000
     1.0000   1.0000   1.0000   1.0000   1.0000   1.0000   1.0000   1.0000
     1.0000   1.0000   1.0000   1.0000   1.0000   1.0000   1.0000   1.0000
     1.0000   1.0000   1.0000   1.0000   1.0000   1.0000   1.0000   1.0000
     1.0000   1.0000   1.0000   1.0000   1.0000   1.0000   1.0000   1.0000
     1.0000   1.0000   1.0000   1.0000   1.0000   1.0000   1.0000   1.0000
     1.0000   1.0000   1.0000   1.0000   1.0000   1.0000   1.0000   1.0000
     1.0000   1.0000   1.0000   1.0000   1.0000   1.0000   1.0000   1.0000
     1.0000   1.0000   1.0000   1.0000   1.0000   1.0000   1.0000   1.0000
     1.0000   1.0000   1.0000   1.0000   1.0000   1.0000   1.0000   1.0000
     1.0000   1.0000   1.0000   1.0000   1.0000   1.0000   1.0000   1.0000
     1.0000   1.0000   1.0000   1.0000   1.0000   1.0000   1.0000   1.0000
     1.0000   1.0000   1.0000   1.0000   1.0000   1.0000   1.0000   1.0000
     1.0000   1.0000   1.0000   1.0000   1.0000   1.0000   1.0000   1.0000
     1.0000   1.0000   1.0000   1.0000   1.0000   1.0000   1.0000   1.0000
     1.0000   1.0000   1.0000   1.0000   1.0000   1.0000   1.0000   1.0000
     1.0000   1.0000   1.0000   1.0000   1.0000   1.0000   1.0000   1.0000
     1.0000   1.0000   1.0000   1.0000   1.0000   1.0000   1.0000   1.0000
     1.0000   1.0000   1.0000   1.0000   1.0000   1.0000   1.0000   1.0000
     1.0000   1.0000   0.9999   0.9998   0.9997   0.9996   0.9986   0.9980
     0.9979   0.9973   0.9961   0.9928   0.9919   0.9842   0.9797   0.9787
     0.8355   0.8040   0.7707   0.7135   0.6019   0.5752   0.5221   0.4631
     0.3592   0.3565   0.3477   0.2478   0.0350   0.0257   0.0229   0.0071
     0.0051   0.0036   0.0019   0.0003   0.0002   0.0000   0.0000   0.0000
     0.0000   0.0000   0.0000   0.0000   0.0000   0.0000   0.0000   0.0000
     0.0000   0.0000   0.0000   0.0000   0.0000   0.0000   0.0000   0.0000
     0.0000   0.0000   0.0000   0.0000   0.0000   0.0000   0.0000   0.0000
     0.0000   0.0000   0.0000   0.0000   0.0000   0.0000   0.0000   0.0000
     0.0000   0.0000   0.0000   0.0000   0.0000   0.0000   0.0000   0.0000
     0.0000   0.0000   0.0000   0.0000   0.0000   0.0000   0.0000   0.0000

          k = 0.3333 0.1925 0.0000 ( 88170 PWs)   bands (ev):

   -95.5298 -95.5243 -95.5189 -95.5185 -95.5181 -95.5135 -95.5118 -95.5106
   -95.4988 -95.4940 -95.4938 -95.4915 -95.4893 -95.4890 -95.4857 -95.4850
   -95.4829 -95.3853 -95.1307 -95.1245 -95.1237 -95.0908 -95.0837 -95.0818
   -95.0785 -95.0735 -95.0700 -95.0678 -95.0655 -95.0649 -95.0613 -95.0574
   -95.0571 -94.8836 -94.8811 -94.8792 -49.8324 -49.8130 -49.8079 -49.8029
   -49.7892 -49.7865 -49.7838 -49.7823 -49.7728 -49.7645 -49.7638 -49.7574
   -49.7434 -49.7320 -49.7156 -49.7146 -49.6895 -49.6869 -49.6706 -49.6681
   -49.6626 -49.6598 -49.6595 -49.6575 -49.6451 -49.6447 -49.6258 -49.6210
   -49.6175 -49.6122 -49.6043 -49.6035 -49.6027 -49.5957 -49.5897 -49.5890
   -49.5827 -49.5814 -49.5800 -49.5769 -49.5700 -49.5693 -49.5619 -49.5611
   -49.5576 -49.5509 -49.5466 -49.5392 -49.5370 -49.5274 -49.5134 -49.4899
   -49.4729 -49.4674 -49.4570 -49.4561 -49.4412 -49.4380 -49.4181 -49.4170
   -49.4133 -49.4126 -49.4092 -49.4089 -49.3693 -49.3500 -49.3424 -49.3422
   -49.3086 -49.3082 -49.2934 -49.2917 -49.2874 -49.2709 -49.2512 -49.2509
   -49.2486 -49.2407 -49.2380 -49.2242 -49.2236 -49.2009 -49.1972 -49.1752
   -49.1549 -49.1221 -49.1095 -49.0930 -49.0830 -49.0664 -49.0398 -49.0305
   -49.0285 -49.0112 -49.0091 -49.0013 -49.0002 -48.9983 -48.9954 -48.9930
   -48.9887 -48.9877 -48.9837 -48.9785 -48.9781 -48.7975 -48.7921 -48.7897
   -11.9193  -5.7837  -4.7233  -4.4889  -3.8648  -3.8640  -3.5719  -3.4599
    -3.3952  -3.3253  -3.2602  -3.2229  -3.2210  -2.9971  -2.9651  -2.9129
    -2.9060  -2.8052  -2.6694  -2.6137  -2.5754  -2.5733  -2.5379  -2.5319
    -2.5121  -2.5032  -2.4597  -2.4292  -2.3485  -2.3252  -2.3098  -2.2957
    -2.0934  -2.0895  -2.0485  -2.0345  -2.0081  -2.0048  -1.8106  -1.8047
    -1.7288  -1.7099  -1.6778  -1.6080  -1.5621  -1.5613  -1.5365  -1.5075
    -1.3726  -1.3678  -1.3107  -1.2849  -1.2686  -1.2640  -1.1765  -1.1465
    -1.1189  -1.0105  -0.9274  -0.9240  -0.9038  -0.7910  -0.7575  -0.7291
    -0.7253  -0.6899  -0.6843  -0.6646  -0.5969  -0.4721  -0.4573  -0.4427
    -0.4335  -0.4021  -0.3785  -0.3696  -0.3342  -0.3016  -0.3000  -0.2365
    -0.2348  -0.2168  -0.2035  -0.1835  -0.1755  -0.1696  -0.1641  -0.1209
    -0.1108  -0.0779  -0.0490  -0.0241  -0.0164   0.0137   0.1257   0.1458
     0.1493   0.1707   0.1776   0.2202   0.2838   0.2869   0.3038   0.3088
     0.3407   0.4070   0.4868   0.4933   0.5490   0.5573   0.6013   0.6153
     0.6964   0.7272   0.8728   0.8956   0.8976   0.9207   0.9225   0.9406
     0.9495   0.9705   0.9721   1.0531   1.0640   1.0935   1.0965   1.1285
     1.1784   1.2462   1.2797   1.3004   1.3334   1.4680   1.4804   1.5022
     1.5109   1.5227   1.5340   1.6888   1.7566   1.7649   1.7826   1.7835
     1.8170   1.8278   1.8613   1.8998   1.9162   1.9756   1.9932   2.0372
     2.1018   2.1146   2.1179   2.1295   2.1376   2.1601   2.1820   2.3342
     2.3731   2.3932   2.4193   2.4359   2.4367   2.4641   2.5354   2.5532
     2.6000   2.6417   2.6449   2.6552   2.6616   2.7640   2.7843   2.7908
     2.8419   2.8498   2.8782   2.8881   2.9068   2.9327   2.9608   2.9630
     2.9632   2.9710   3.0593   3.1004   3.1199   3.1265   3.1412   3.1431
     3.3125   3.3220   3.3607   3.7256   3.7389   3.8089   3.8092   3.8251
     4.1009   4.1305   4.2832   5.0053   5.0557   5.1361   5.1577   5.2254
     5.8000   5.8030   5.8302   5.8328   6.5478   6.5712   7.0244   7.1941
     7.2859   7.2922   7.7403   7.7647   8.2215   8.2368   8.5546   8.5563
     8.5895   8.9875   9.0959   9.1635   9.1825   9.4576   9.4631   9.5590
     9.5650   9.7380   9.9233  10.0053  10.1513  10.1994  10.2681  10.2859
    10.4373  10.4611  10.5656  10.7229  11.0351  11.1392  11.1889  11.2121

     occupation numbers 
     1.0000   1.0000   1.0000   1.0000   1.0000   1.0000   1.0000   1.0000
     1.0000   1.0000   1.0000   1.0000   1.0000   1.0000   1.0000   1.0000
     1.0000   1.0000   1.0000   1.0000   1.0000   1.0000   1.0000   1.0000
     1.0000   1.0000   1.0000   1.0000   1.0000   1.0000   1.0000   1.0000
     1.0000   1.0000   1.0000   1.0000   1.0000   1.0000   1.0000   1.0000
     1.0000   1.0000   1.0000   1.0000   1.0000   1.0000   1.0000   1.0000
     1.0000   1.0000   1.0000   1.0000   1.0000   1.0000   1.0000   1.0000
     1.0000   1.0000   1.0000   1.0000   1.0000   1.0000   1.0000   1.0000
     1.0000   1.0000   1.0000   1.0000   1.0000   1.0000   1.0000   1.0000
     1.0000   1.0000   1.0000   1.0000   1.0000   1.0000   1.0000   1.0000
     1.0000   1.0000   1.0000   1.0000   1.0000   1.0000   1.0000   1.0000
     1.0000   1.0000   1.0000   1.0000   1.0000   1.0000   1.0000   1.0000
     1.0000   1.0000   1.0000   1.0000   1.0000   1.0000   1.0000   1.0000
     1.0000   1.0000   1.0000   1.0000   1.0000   1.0000   1.0000   1.0000
     1.0000   1.0000   1.0000   1.0000   1.0000   1.0000   1.0000   1.0000
     1.0000   1.0000   1.0000   1.0000   1.0000   1.0000   1.0000   1.0000
     1.0000   1.0000   1.0000   1.0000   1.0000   1.0000   1.0000   1.0000
     1.0000   1.0000   1.0000   1.0000   1.0000   1.0000   1.0000   1.0000
     1.0000   1.0000   1.0000   1.0000   1.0000   1.0000   1.0000   1.0000
     1.0000   1.0000   1.0000   1.0000   1.0000   1.0000   1.0000   1.0000
     1.0000   1.0000   1.0000   1.0000   1.0000   1.0000   1.0000   1.0000
     1.0000   1.0000   1.0000   1.0000   1.0000   1.0000   1.0000   1.0000
     1.0000   1.0000   1.0000   1.0000   1.0000   1.0000   1.0000   1.0000
     1.0000   1.0000   1.0000   1.0000   1.0000   1.0000   1.0000   1.0000
     1.0000   1.0000   1.0000   1.0000   1.0000   1.0000   1.0000   1.0000
     1.0000   1.0000   1.0000   1.0000   1.0000   1.0000   1.0000   1.0000
     1.0000   1.0000   1.0000   1.0000   1.0000   1.0000   1.0000   1.0000
     1.0000   1.0000   1.0000   1.0000   1.0000   1.0000   1.0000   1.0000
     1.0000   1.0000   1.0000   1.0000   1.0000   1.0000   1.0000   1.0000
     1.0000   1.0000   1.0000   1.0000   1.0000   1.0000   1.0000   1.0000
     1.0000   1.0000   1.0000   1.0000   1.0000   1.0000   1.0000   1.0000
     1.0000   1.0000   1.0000   1.0000   1.0000   1.0000   1.0000   1.0000
     1.0000   1.0000   1.0000   1.0000   1.0000   1.0000   1.0000   1.0000
     1.0000   1.0000   1.0000   1.0000   1.0000   1.0000   1.0000   1.0000
     1.0000   1.0000   1.0000   1.0000   1.0000   1.0000   1.0000   1.0000
     1.0000   1.0000   1.0000   1.0000   1.0000   1.0000   1.0000   1.0000
     1.0000   1.0000   1.0000   1.0000   1.0000   1.0000   1.0000   1.0000
     1.0000   1.0000   1.0000   1.0000   1.0000   1.0000   1.0000   1.0000
     1.0000   1.0000   1.0000   1.0000   1.0000   0.9999   0.9997   0.9995
     0.9987   0.9971   0.9969   0.9962   0.9957   0.9674   0.9520   0.9456
     0.8622   0.8423   0.7517   0.7132   0.6309   0.5042   0.3671   0.3573
     0.3564   0.3212   0.0749   0.0343   0.0235   0.0207   0.0155   0.0149
     0.0005   0.0004   0.0002   0.0000   0.0000   0.0000   0.0000   0.0000
     0.0000   0.0000   0.0000   0.0000   0.0000   0.0000   0.0000   0.0000
     0.0000   0.0000   0.0000   0.0000   0.0000   0.0000   0.0000   0.0000
     0.0000   0.0000   0.0000   0.0000   0.0000   0.0000   0.0000   0.0000
     0.0000   0.0000   0.0000   0.0000   0.0000   0.0000   0.0000   0.0000
     0.0000   0.0000   0.0000   0.0000   0.0000   0.0000   0.0000   0.0000
     0.0000   0.0000   0.0000   0.0000   0.0000   0.0000   0.0000   0.0000

          k = 0.3333-0.7698 0.0000 ( 88140 PWs)   bands (ev):

   -95.5292 -95.5250 -95.5195 -95.5182 -95.5179 -95.5136 -95.5116 -95.5105
   -95.4989 -95.4940 -95.4938 -95.4914 -95.4897 -95.4890 -95.4852 -95.4846
   -95.4834 -95.3853 -95.1306 -95.1246 -95.1238 -95.0908 -95.0837 -95.0818
   -95.0774 -95.0747 -95.0712 -95.0669 -95.0654 -95.0649 -95.0611 -95.0576
   -95.0570 -94.8836 -94.8811 -94.8792 -49.8365 -49.8248 -49.8176 -49.8077
   -49.7977 -49.7914 -49.7844 -49.7761 -49.7697 -49.7640 -49.7619 -49.7580
   -49.7481 -49.7355 -49.7321 -49.6833 -49.6769 -49.6738 -49.6703 -49.6637
   -49.6609 -49.6548 -49.6492 -49.6419 -49.6362 -49.6329 -49.6270 -49.6220
   -49.6168 -49.6124 -49.6084 -49.6036 -49.5996 -49.5978 -49.5954 -49.5923
   -49.5885 -49.5822 -49.5786 -49.5770 -49.5724 -49.5681 -49.5632 -49.5607
   -49.5583 -49.5573 -49.5545 -49.5491 -49.5369 -49.5305 -49.5172 -49.4929
   -49.4772 -49.4706 -49.4623 -49.4550 -49.4484 -49.4441 -49.4327 -49.4263
   -49.4190 -49.4051 -49.4019 -49.3954 -49.3726 -49.3674 -49.3281 -49.3005
   -49.2999 -49.2924 -49.2872 -49.2848 -49.2721 -49.2668 -49.2641 -49.2588
   -49.2533 -49.2461 -49.2451 -49.2388 -49.2244 -49.2080 -49.1939 -49.1818
   -49.1467 -49.1229 -49.1078 -49.0976 -49.0872 -49.0705 -49.0393 -49.0308
   -49.0287 -49.0108 -49.0073 -49.0030 -49.0002 -48.9984 -48.9979 -48.9911
   -48.9884 -48.9875 -48.9833 -48.9790 -48.9780 -48.7975 -48.7921 -48.7897
   -11.9193  -5.4923  -4.9533  -4.4561  -4.2124  -3.7369  -3.3856  -3.3343
    -3.3233  -3.2177  -3.1786  -3.1199  -3.0670  -3.0050  -2.9923  -2.8759
    -2.8018  -2.7952  -2.7285  -2.6899  -2.6558  -2.6437  -2.6220  -2.5875
    -2.5321  -2.4958  -2.4346  -2.4198  -2.3595  -2.3176  -2.2662  -2.2025
    -2.1827  -2.1617  -2.1120  -2.0949  -1.9946  -1.9532  -1.8745  -1.8280
    -1.6925  -1.6357  -1.6172  -1.5504  -1.5321  -1.5224  -1.5068  -1.4276
    -1.4119  -1.3704  -1.3324  -1.2766  -1.2153  -1.1836  -1.1632  -1.1306
    -1.1113  -1.0835  -1.0350  -1.0084  -0.9672  -0.9219  -0.8634  -0.8397
    -0.8347  -0.7843  -0.7562  -0.6540  -0.6178  -0.5966  -0.5431  -0.5276
    -0.5206  -0.4929  -0.4603  -0.4446  -0.4091  -0.3821  -0.3488  -0.3333
    -0.2627  -0.2409  -0.2235  -0.1998  -0.1945  -0.1581  -0.0801  -0.0563
    -0.0355  -0.0245  -0.0058   0.0512   0.0600   0.0839   0.1056   0.1149
     0.1300   0.1446   0.1663   0.2024   0.2123   0.2292   0.2485   0.2777
     0.3160   0.3438   0.3674   0.4048   0.4602   0.4913   0.5151   0.6036
     0.6212   0.6560   0.7554   0.8263   0.8553   0.8866   0.9111   0.9327
     0.9690   0.9919   0.9982   1.0593   1.0863   1.0998   1.1203   1.1456
     1.1839   1.2211   1.2301   1.2888   1.3326   1.3698   1.4890   1.5130
     1.5275   1.5568   1.6073   1.6437   1.6533   1.6682   1.6939   1.7209
     1.7339   1.7705   1.8390   1.8693   1.8988   1.9117   1.9222   1.9427
     1.9662   1.9803   2.0971   2.1277   2.1883   2.2535   2.2727   2.3556
     2.3865   2.4041   2.4630   2.4712   2.4983   2.5872   2.6290   2.6605
     2.6992   2.7140   2.7245   2.7280   2.7393   2.8140   2.8403   2.8428
     2.8816   2.8894   2.9143   2.9610   2.9625   2.9631   2.9662   2.9759
     3.0414   3.0512   3.1302   3.1409   3.1751   3.1986   3.2188   3.2286
     3.2794   3.3041   3.3544   3.9523   4.2135   4.2351   4.2895   4.3575
     4.6445   4.7964   4.8658   5.1642   5.2147   5.2448   5.2885   5.3833
     5.6424   5.7712   5.8494   6.0875   6.3812   6.4553   6.5083   6.6478
     6.8181   7.1226   7.3002   7.5487   7.6042   7.6276   8.3634   8.6163
     8.6363   8.6981   8.8794   9.1233   9.1826   9.2137   9.4501   9.4924
     9.5639   9.7395   9.8513   9.9191  10.0866  10.1032  10.1652  10.4508
    10.5276  10.7874  10.8421  10.9220  10.9557  10.9788  11.1251  11.1512

     occupation numbers 
     1.0000   1.0000   1.0000   1.0000   1.0000   1.0000   1.0000   1.0000
     1.0000   1.0000   1.0000   1.0000   1.0000   1.0000   1.0000   1.0000
     1.0000   1.0000   1.0000   1.0000   1.0000   1.0000   1.0000   1.0000
     1.0000   1.0000   1.0000   1.0000   1.0000   1.0000   1.0000   1.0000
     1.0000   1.0000   1.0000   1.0000   1.0000   1.0000   1.0000   1.0000
     1.0000   1.0000   1.0000   1.0000   1.0000   1.0000   1.0000   1.0000
     1.0000   1.0000   1.0000   1.0000   1.0000   1.0000   1.0000   1.0000
     1.0000   1.0000   1.0000   1.0000   1.0000   1.0000   1.0000   1.0000
     1.0000   1.0000   1.0000   1.0000   1.0000   1.0000   1.0000   1.0000
     1.0000   1.0000   1.0000   1.0000   1.0000   1.0000   1.0000   1.0000
     1.0000   1.0000   1.0000   1.0000   1.0000   1.0000   1.0000   1.0000
     1.0000   1.0000   1.0000   1.0000   1.0000   1.0000   1.0000   1.0000
     1.0000   1.0000   1.0000   1.0000   1.0000   1.0000   1.0000   1.0000
     1.0000   1.0000   1.0000   1.0000   1.0000   1.0000   1.0000   1.0000
     1.0000   1.0000   1.0000   1.0000   1.0000   1.0000   1.0000   1.0000
     1.0000   1.0000   1.0000   1.0000   1.0000   1.0000   1.0000   1.0000
     1.0000   1.0000   1.0000   1.0000   1.0000   1.0000   1.0000   1.0000
     1.0000   1.0000   1.0000   1.0000   1.0000   1.0000   1.0000   1.0000
     1.0000   1.0000   1.0000   1.0000   1.0000   1.0000   1.0000   1.0000
     1.0000   1.0000   1.0000   1.0000   1.0000   1.0000   1.0000   1.0000
     1.0000   1.0000   1.0000   1.0000   1.0000   1.0000   1.0000   1.0000
     1.0000   1.0000   1.0000   1.0000   1.0000   1.0000   1.0000   1.0000
     1.0000   1.0000   1.0000   1.0000   1.0000   1.0000   1.0000   1.0000
     1.0000   1.0000   1.0000   1.0000   1.0000   1.0000   1.0000   1.0000
     1.0000   1.0000   1.0000   1.0000   1.0000   1.0000   1.0000   1.0000
     1.0000   1.0000   1.0000   1.0000   1.0000   1.0000   1.0000   1.0000
     1.0000   1.0000   1.0000   1.0000   1.0000   1.0000   1.0000   1.0000
     1.0000   1.0000   1.0000   1.0000   1.0000   1.0000   1.0000   1.0000
     1.0000   1.0000   1.0000   1.0000   1.0000   1.0000   1.0000   1.0000
     1.0000   1.0000   1.0000   1.0000   1.0000   1.0000   1.0000   1.0000
     1.0000   1.0000   1.0000   1.0000   1.0000   1.0000   1.0000   1.0000
     1.0000   1.0000   1.0000   1.0000   1.0000   1.0000   1.0000   1.0000
     1.0000   1.0000   1.0000   1.0000   1.0000   1.0000   1.0000   1.0000
     1.0000   1.0000   1.0000   1.0000   1.0000   1.0000   1.0000   1.0000
     1.0000   1.0000   1.0000   1.0000   1.0000   1.0000   1.0000   1.0000
     1.0000   1.0000   1.0000   1.0000   1.0000   1.0000   1.0000   1.0000
     1.0000   1.0000   1.0000   1.0000   1.0000   1.0000   1.0000   1.0000
     1.0000   1.0000   1.0000   1.0000   1.0000   1.0000   1.0000   1.0000
     1.0000   1.0000   0.9999   0.9999   0.9998   0.9990   0.9977   0.9958
     0.9909   0.9878   0.9849   0.9839   0.9799   0.9162   0.8659   0.8601
     0.7389   0.7075   0.5952   0.3665   0.3594   0.3566   0.3426   0.3004
     0.1037   0.0869   0.0192   0.0156   0.0079   0.0050   0.0033   0.0027
     0.0010   0.0006   0.0002   0.0000   0.0000   0.0000   0.0000   0.0000
     0.0000   0.0000   0.0000   0.0000   0.0000   0.0000   0.0000   0.0000
     0.0000   0.0000   0.0000   0.0000   0.0000   0.0000   0.0000   0.0000
     0.0000   0.0000   0.0000   0.0000   0.0000   0.0000   0.0000   0.0000
     0.0000   0.0000   0.0000   0.0000   0.0000   0.0000   0.0000   0.0000
     0.0000   0.0000   0.0000   0.0000   0.0000   0.0000   0.0000   0.0000
     0.0000   0.0000   0.0000   0.0000   0.0000   0.0000   0.0000   0.0000

          k = 0.3333-0.5774 0.0000 ( 88062 PWs)   bands (ev):

   -95.5287 -95.5253 -95.5198 -95.5182 -95.5177 -95.5136 -95.5115 -95.5104
   -95.4988 -95.4940 -95.4938 -95.4913 -95.4899 -95.4890 -95.4847 -95.4844
   -95.4839 -95.3853 -95.1305 -95.1246 -95.1238 -95.0907 -95.0837 -95.0818
   -95.0762 -95.0756 -95.0721 -95.0657 -95.0655 -95.0653 -95.0610 -95.0578
   -95.0569 -94.8836 -94.8811 -94.8791 -49.8354 -49.8290 -49.8272 -49.8056
   -49.8048 -49.7988 -49.7798 -49.7719 -49.7638 -49.7628 -49.7607 -49.7589
   -49.7486 -49.7432 -49.7371 -49.6789 -49.6773 -49.6764 -49.6603 -49.6551
   -49.6513 -49.6433 -49.6406 -49.6388 -49.6351 -49.6316 -49.6247 -49.6193
   -49.6187 -49.6130 -49.6079 -49.6071 -49.6048 -49.5984 -49.5923 -49.5919
   -49.5900 -49.5841 -49.5828 -49.5759 -49.5752 -49.5734 -49.5654 -49.5646
   -49.5628 -49.5565 -49.5516 -49.5495 -49.5364 -49.5343 -49.5222 -49.4873
   -49.4843 -49.4686 -49.4679 -49.4542 -49.4537 -49.4408 -49.4392 -49.4380
   -49.4200 -49.3896 -49.3875 -49.3870 -49.3866 -49.3852 -49.3147 -49.3073
   -49.2823 -49.2721 -49.2714 -49.2704 -49.2703 -49.2630 -49.2612 -49.2609
   -49.2597 -49.2594 -49.2574 -49.2571 -49.2376 -49.1949 -49.1929 -49.1927
   -49.1396 -49.1204 -49.1186 -49.0956 -49.0842 -49.0761 -49.0391 -49.0309
   -49.0288 -49.0106 -49.0051 -49.0046 -49.0002 -48.9997 -48.9984 -48.9890
   -48.9887 -48.9881 -48.9832 -48.9792 -48.9779 -48.7975 -48.7921 -48.7896
   -11.9193  -5.0613  -5.0479  -4.9848  -3.8353  -3.8207  -3.7212  -3.1939
    -3.1745  -3.1709  -3.0507  -3.0486  -3.0221  -2.8997  -2.8690  -2.8272
    -2.7501  -2.7285  -2.7199  -2.7104  -2.7094  -2.6909  -2.6801  -2.6623
    -2.5803  -2.5520  -2.5313  -2.4897  -2.3224  -2.3152  -2.2966  -2.2392
    -2.2322  -2.2102  -2.1808  -2.1405  -2.1351  -1.7667  -1.7610  -1.7263
    -1.7115  -1.6584  -1.6487  -1.6458  -1.6199  -1.6141  -1.2894  -1.2861
    -1.2746  -1.2722  -1.2578  -1.2421  -1.1942  -1.1856  -1.1768  -1.1480
    -1.1084  -1.0819  -1.0529  -1.0511  -1.0166  -0.9959  -0.9752  -0.9735
    -0.8010  -0.7624  -0.7384  -0.7144  -0.6977  -0.6657  -0.5693  -0.5609
    -0.5585  -0.5493  -0.5366  -0.4467  -0.3547  -0.3446  -0.3219  -0.2996
    -0.2868  -0.2316  -0.2290  -0.2218  -0.1999  -0.1967  -0.1865  -0.1768
    -0.1555  -0.0720  -0.0587  -0.0106   0.0022   0.0059   0.1450   0.1710
     0.1872   0.1909   0.1948   0.2104   0.2226   0.2264   0.2281   0.2618
     0.2716   0.2964   0.3684   0.3814   0.4118   0.4123   0.4268   0.4384
     0.7813   0.8064   0.8235   0.8367   0.8545   0.8562   0.8659   0.8797
     0.9167   0.9333   0.9370   0.9432   1.0870   1.1017   1.1141   1.1434
     1.1714   1.1729   1.2057   1.2993   1.3035   1.4149   1.4247   1.4329
     1.6045   1.6141   1.6187   1.6674   1.6837   1.7054   1.7139   1.7370
     1.7413   1.7649   1.7720   1.7733   1.8552   1.8850   1.9113   2.0188
     2.0398   2.0806   2.1083   2.1112   2.1208   2.1285   2.1467   2.1565
     2.5291   2.5420   2.5472   2.5572   2.5708   2.5841   2.6677   2.6774
     2.6798   2.7430   2.7713   2.7738   2.8458   2.8493   2.8498   2.9259
     2.9288   2.9415   2.9444   2.9586   2.9588   2.9620   2.9636   2.9644
     3.0499   3.0609   3.0646   3.1254   3.1277   3.1402   3.1677   3.1786
     3.1997   3.9913   3.9928   4.0049   4.2586   4.2710   4.2831   4.7086
     4.7150   4.7532   5.2695   5.2774   5.2873   5.3027   5.3193   5.3384
     6.0723   6.0790   6.0836   6.4681   6.4854   6.4947   6.5694   6.5886
     6.6209   6.6799   6.6979   6.7075   7.2867   7.3163   7.3191   8.6415
     8.6444   8.6721   8.8182   8.8719   8.8951   9.4575   9.5121   9.5206
     9.5799   9.6052   9.6335  10.2839  10.3791  10.3889  10.3967  10.5023
    10.5144  10.8182  10.8491  10.8723  11.1182  11.1435  11.1747  11.1799

     occupation numbers 
     1.0000   1.0000   1.0000   1.0000   1.0000   1.0000   1.0000   1.0000
     1.0000   1.0000   1.0000   1.0000   1.0000   1.0000   1.0000   1.0000
     1.0000   1.0000   1.0000   1.0000   1.0000   1.0000   1.0000   1.0000
     1.0000   1.0000   1.0000   1.0000   1.0000   1.0000   1.0000   1.0000
     1.0000   1.0000   1.0000   1.0000   1.0000   1.0000   1.0000   1.0000
     1.0000   1.0000   1.0000   1.0000   1.0000   1.0000   1.0000   1.0000
     1.0000   1.0000   1.0000   1.0000   1.0000   1.0000   1.0000   1.0000
     1.0000   1.0000   1.0000   1.0000   1.0000   1.0000   1.0000   1.0000
     1.0000   1.0000   1.0000   1.0000   1.0000   1.0000   1.0000   1.0000
     1.0000   1.0000   1.0000   1.0000   1.0000   1.0000   1.0000   1.0000
     1.0000   1.0000   1.0000   1.0000   1.0000   1.0000   1.0000   1.0000
     1.0000   1.0000   1.0000   1.0000   1.0000   1.0000   1.0000   1.0000
     1.0000   1.0000   1.0000   1.0000   1.0000   1.0000   1.0000   1.0000
     1.0000   1.0000   1.0000   1.0000   1.0000   1.0000   1.0000   1.0000
     1.0000   1.0000   1.0000   1.0000   1.0000   1.0000   1.0000   1.0000
     1.0000   1.0000   1.0000   1.0000   1.0000   1.0000   1.0000   1.0000
     1.0000   1.0000   1.0000   1.0000   1.0000   1.0000   1.0000   1.0000
     1.0000   1.0000   1.0000   1.0000   1.0000   1.0000   1.0000   1.0000
     1.0000   1.0000   1.0000   1.0000   1.0000   1.0000   1.0000   1.0000
     1.0000   1.0000   1.0000   1.0000   1.0000   1.0000   1.0000   1.0000
     1.0000   1.0000   1.0000   1.0000   1.0000   1.0000   1.0000   1.0000
     1.0000   1.0000   1.0000   1.0000   1.0000   1.0000   1.0000   1.0000
     1.0000   1.0000   1.0000   1.0000   1.0000   1.0000   1.0000   1.0000
     1.0000   1.0000   1.0000   1.0000   1.0000   1.0000   1.0000   1.0000
     1.0000   1.0000   1.0000   1.0000   1.0000   1.0000   1.0000   1.0000
     1.0000   1.0000   1.0000   1.0000   1.0000   1.0000   1.0000   1.0000
     1.0000   1.0000   1.0000   1.0000   1.0000   1.0000   1.0000   1.0000
     1.0000   1.0000   1.0000   1.0000   1.0000   1.0000   1.0000   1.0000
     1.0000   1.0000   1.0000   1.0000   1.0000   1.0000   1.0000   1.0000
     1.0000   1.0000   1.0000   1.0000   1.0000   1.0000   1.0000   1.0000
     1.0000   1.0000   1.0000   1.0000   1.0000   1.0000   1.0000   1.0000
     1.0000   1.0000   1.0000   1.0000   1.0000   1.0000   1.0000   1.0000
     1.0000   1.0000   1.0000   1.0000   1.0000   1.0000   1.0000   1.0000
     1.0000   1.0000   1.0000   1.0000   1.0000   1.0000   1.0000   1.0000
     1.0000   1.0000   1.0000   1.0000   1.0000   1.0000   1.0000   1.0000
     1.0000   1.0000   1.0000   1.0000   1.0000   1.0000   1.0000   1.0000
     1.0000   1.0000   1.0000   1.0000   1.0000   1.0000   1.0000   1.0000
     1.0000   1.0000   1.0000   1.0000   1.0000   1.0000   1.0000   1.0000
     0.9997   0.9996   0.9996   0.9995   0.9993   0.9991   0.9951   0.9941
     0.9938   0.9784   0.9626   0.9606   0.8527   0.8438   0.8424   0.5386
     0.5239   0.4606   0.4460   0.3775   0.3766   0.3618   0.3543   0.3508
     0.0891   0.0727   0.0678   0.0211   0.0202   0.0158   0.0092   0.0074
     0.0049   0.0000   0.0000   0.0000   0.0000   0.0000   0.0000   0.0000
     0.0000   0.0000   0.0000   0.0000   0.0000   0.0000   0.0000   0.0000
     0.0000   0.0000   0.0000   0.0000   0.0000   0.0000   0.0000   0.0000
     0.0000   0.0000   0.0000   0.0000   0.0000   0.0000   0.0000   0.0000
     0.0000   0.0000   0.0000   0.0000   0.0000   0.0000   0.0000   0.0000
     0.0000   0.0000   0.0000   0.0000   0.0000   0.0000   0.0000   0.0000
     0.0000   0.0000   0.0000   0.0000   0.0000   0.0000   0.0000   0.0000

          k = 0.3333-0.3849 0.0000 ( 88140 PWs)   bands (ev):

   -95.5292 -95.5250 -95.5195 -95.5182 -95.5179 -95.5136 -95.5115 -95.5105
   -95.4989 -95.4940 -95.4938 -95.4914 -95.4897 -95.4890 -95.4852 -95.4846
   -95.4834 -95.3853 -95.1306 -95.1246 -95.1238 -95.0908 -95.0837 -95.0818
   -95.0774 -95.0747 -95.0712 -95.0669 -95.0654 -95.0648 -95.0611 -95.0576
   -95.0570 -94.8836 -94.8811 -94.8792 -49.8365 -49.8248 -49.8176 -49.8077
   -49.7977 -49.7914 -49.7844 -49.7761 -49.7697 -49.7640 -49.7619 -49.7580
   -49.7481 -49.7355 -49.7321 -49.6833 -49.6769 -49.6738 -49.6703 -49.6637
   -49.6609 -49.6548 -49.6492 -49.6419 -49.6362 -49.6329 -49.6270 -49.6220
   -49.6168 -49.6124 -49.6085 -49.6036 -49.5996 -49.5978 -49.5954 -49.5923
   -49.5885 -49.5822 -49.5786 -49.5770 -49.5724 -49.5681 -49.5632 -49.5607
   -49.5583 -49.5573 -49.5545 -49.5491 -49.5369 -49.5305 -49.5171 -49.4929
   -49.4772 -49.4706 -49.4623 -49.4550 -49.4484 -49.4441 -49.4327 -49.4263
   -49.4190 -49.4051 -49.4019 -49.3954 -49.3726 -49.3674 -49.3281 -49.3005
   -49.2999 -49.2924 -49.2872 -49.2848 -49.2721 -49.2668 -49.2641 -49.2588
   -49.2533 -49.2461 -49.2451 -49.2388 -49.2244 -49.2080 -49.1939 -49.1818
   -49.1467 -49.1229 -49.1078 -49.0976 -49.0872 -49.0705 -49.0393 -49.0308
   -49.0287 -49.0108 -49.0073 -49.0030 -49.0002 -48.9984 -48.9979 -48.9911
   -48.9884 -48.9875 -48.9833 -48.9790 -48.9780 -48.7975 -48.7921 -48.7897
   -11.9193  -5.4923  -4.9533  -4.4561  -4.2124  -3.7369  -3.3855  -3.3343
    -3.3233  -3.2177  -3.1786  -3.1199  -3.0670  -3.0050  -2.9924  -2.8759
    -2.8018  -2.7952  -2.7285  -2.6899  -2.6558  -2.6437  -2.6220  -2.5875
    -2.5321  -2.4958  -2.4346  -2.4198  -2.3595  -2.3176  -2.2662  -2.2025
    -2.1827  -2.1617  -2.1121  -2.0949  -1.9946  -1.9532  -1.8745  -1.8281
    -1.6925  -1.6357  -1.6172  -1.5504  -1.5321  -1.5224  -1.5067  -1.4276
    -1.4120  -1.3704  -1.3324  -1.2766  -1.2153  -1.1836  -1.1633  -1.1306
    -1.1113  -1.0836  -1.0350  -1.0084  -0.9673  -0.9219  -0.8634  -0.8397
    -0.8347  -0.7843  -0.7562  -0.6540  -0.6179  -0.5966  -0.5431  -0.5276
    -0.5206  -0.4929  -0.4603  -0.4446  -0.4091  -0.3821  -0.3488  -0.3333
    -0.2627  -0.2409  -0.2235  -0.1997  -0.1945  -0.1581  -0.0801  -0.0563
    -0.0355  -0.0245  -0.0058   0.0511   0.0600   0.0839   0.1057   0.1150
     0.1300   0.1446   0.1663   0.2024   0.2123   0.2292   0.2484   0.2777
     0.3160   0.3438   0.3674   0.4048   0.4602   0.4913   0.5151   0.6037
     0.6212   0.6560   0.7553   0.8263   0.8553   0.8865   0.9111   0.9327
     0.9690   0.9920   0.9982   1.0592   1.0863   1.0997   1.1203   1.1455
     1.1839   1.2212   1.2301   1.2888   1.3326   1.3698   1.4890   1.5129
     1.5275   1.5568   1.6072   1.6437   1.6533   1.6682   1.6939   1.7209
     1.7339   1.7705   1.8390   1.8693   1.8988   1.9116   1.9222   1.9427
     1.9662   1.9803   2.0971   2.1277   2.1882   2.2536   2.2727   2.3556
     2.3865   2.4041   2.4630   2.4712   2.4983   2.5872   2.6290   2.6605
     2.6992   2.7140   2.7246   2.7281   2.7393   2.8140   2.8403   2.8428
     2.8816   2.8894   2.9143   2.9609   2.9625   2.9631   2.9662   2.9759
     3.0414   3.0512   3.1302   3.1408   3.1751   3.1986   3.2188   3.2285
     3.2794   3.3041   3.3543   3.9523   4.2136   4.2351   4.2895   4.3575
     4.6445   4.7964   4.8658   5.1642   5.2147   5.2448   5.2885   5.3833
     5.6424   5.7712   5.8495   6.0875   6.3812   6.4552   6.5083   6.6477
     6.8182   7.1226   7.3002   7.5487   7.6042   7.6276   8.3634   8.6163
     8.6364   8.6981   8.8794   9.1233   9.1825   9.2138   9.4500   9.4925
     9.5639   9.7395   9.8512   9.9191  10.0865  10.1032  10.1652  10.4507
    10.5276  10.7874  10.8421  10.9220  10.9557  10.9788  11.1252  11.1509

     occupation numbers 
     1.0000   1.0000   1.0000   1.0000   1.0000   1.0000   1.0000   1.0000
     1.0000   1.0000   1.0000   1.0000   1.0000   1.0000   1.0000   1.0000
     1.0000   1.0000   1.0000   1.0000   1.0000   1.0000   1.0000   1.0000
     1.0000   1.0000   1.0000   1.0000   1.0000   1.0000   1.0000   1.0000
     1.0000   1.0000   1.0000   1.0000   1.0000   1.0000   1.0000   1.0000
     1.0000   1.0000   1.0000   1.0000   1.0000   1.0000   1.0000   1.0000
     1.0000   1.0000   1.0000   1.0000   1.0000   1.0000   1.0000   1.0000
     1.0000   1.0000   1.0000   1.0000   1.0000   1.0000   1.0000   1.0000
     1.0000   1.0000   1.0000   1.0000   1.0000   1.0000   1.0000   1.0000
     1.0000   1.0000   1.0000   1.0000   1.0000   1.0000   1.0000   1.0000
     1.0000   1.0000   1.0000   1.0000   1.0000   1.0000   1.0000   1.0000
     1.0000   1.0000   1.0000   1.0000   1.0000   1.0000   1.0000   1.0000
     1.0000   1.0000   1.0000   1.0000   1.0000   1.0000   1.0000   1.0000
     1.0000   1.0000   1.0000   1.0000   1.0000   1.0000   1.0000   1.0000
     1.0000   1.0000   1.0000   1.0000   1.0000   1.0000   1.0000   1.0000
     1.0000   1.0000   1.0000   1.0000   1.0000   1.0000   1.0000   1.0000
     1.0000   1.0000   1.0000   1.0000   1.0000   1.0000   1.0000   1.0000
     1.0000   1.0000   1.0000   1.0000   1.0000   1.0000   1.0000   1.0000
     1.0000   1.0000   1.0000   1.0000   1.0000   1.0000   1.0000   1.0000
     1.0000   1.0000   1.0000   1.0000   1.0000   1.0000   1.0000   1.0000
     1.0000   1.0000   1.0000   1.0000   1.0000   1.0000   1.0000   1.0000
     1.0000   1.0000   1.0000   1.0000   1.0000   1.0000   1.0000   1.0000
     1.0000   1.0000   1.0000   1.0000   1.0000   1.0000   1.0000   1.0000
     1.0000   1.0000   1.0000   1.0000   1.0000   1.0000   1.0000   1.0000
     1.0000   1.0000   1.0000   1.0000   1.0000   1.0000   1.0000   1.0000
     1.0000   1.0000   1.0000   1.0000   1.0000   1.0000   1.0000   1.0000
     1.0000   1.0000   1.0000   1.0000   1.0000   1.0000   1.0000   1.0000
     1.0000   1.0000   1.0000   1.0000   1.0000   1.0000   1.0000   1.0000
     1.0000   1.0000   1.0000   1.0000   1.0000   1.0000   1.0000   1.0000
     1.0000   1.0000   1.0000   1.0000   1.0000   1.0000   1.0000   1.0000
     1.0000   1.0000   1.0000   1.0000   1.0000   1.0000   1.0000   1.0000
     1.0000   1.0000   1.0000   1.0000   1.0000   1.0000   1.0000   1.0000
     1.0000   1.0000   1.0000   1.0000   1.0000   1.0000   1.0000   1.0000
     1.0000   1.0000   1.0000   1.0000   1.0000   1.0000   1.0000   1.0000
     1.0000   1.0000   1.0000   1.0000   1.0000   1.0000   1.0000   1.0000
     1.0000   1.0000   1.0000   1.0000   1.0000   1.0000   1.0000   1.0000
     1.0000   1.0000   1.0000   1.0000   1.0000   1.0000   1.0000   1.0000
     1.0000   1.0000   1.0000   1.0000   1.0000   1.0000   1.0000   1.0000
     1.0000   1.0000   0.9999   0.9999   0.9998   0.9990   0.9977   0.9958
     0.9909   0.9878   0.9849   0.9839   0.9799   0.9162   0.8659   0.8601
     0.7389   0.7075   0.5952   0.3666   0.3593   0.3566   0.3426   0.3003
     0.1037   0.0870   0.0192   0.0156   0.0079   0.0050   0.0033   0.0027
     0.0010   0.0006   0.0002   0.0000   0.0000   0.0000   0.0000   0.0000
     0.0000   0.0000   0.0000   0.0000   0.0000   0.0000   0.0000   0.0000
     0.0000   0.0000   0.0000   0.0000   0.0000   0.0000   0.0000   0.0000
     0.0000   0.0000   0.0000   0.0000   0.0000   0.0000   0.0000   0.0000
     0.0000   0.0000   0.0000   0.0000   0.0000   0.0000   0.0000   0.0000
     0.0000   0.0000   0.0000   0.0000   0.0000   0.0000   0.0000   0.0000
     0.0000   0.0000   0.0000   0.0000   0.0000   0.0000   0.0000   0.0000

          k =-0.5000 0.2887 0.0000 ( 88178 PWs)   bands (ev):

   -95.5291 -95.5250 -95.5190 -95.5185 -95.5181 -95.5136 -95.5117 -95.5104
   -95.4988 -95.4940 -95.4938 -95.4914 -95.4895 -95.4891 -95.4855 -95.4842
   -95.4836 -95.3853 -95.1306 -95.1246 -95.1238 -95.0908 -95.0838 -95.0818
   -95.0772 -95.0752 -95.0701 -95.0680 -95.0652 -95.0646 -95.0611 -95.0575
   -95.0571 -94.8836 -94.8810 -94.8792 -49.8407 -49.8194 -49.8124 -49.8074
   -49.7940 -49.7898 -49.7879 -49.7864 -49.7702 -49.7680 -49.7666 -49.7637
   -49.7420 -49.7319 -49.7057 -49.7051 -49.6727 -49.6717 -49.6656 -49.6646
   -49.6616 -49.6548 -49.6534 -49.6478 -49.6434 -49.6338 -49.6296 -49.6197
   -49.6144 -49.6093 -49.6089 -49.6033 -49.6018 -49.5930 -49.5923 -49.5889
   -49.5839 -49.5827 -49.5789 -49.5761 -49.5711 -49.5684 -49.5664 -49.5641
   -49.5594 -49.5549 -49.5531 -49.5497 -49.5428 -49.5311 -49.5110 -49.4989
   -49.4748 -49.4730 -49.4595 -49.4576 -49.4486 -49.4390 -49.4198 -49.4195
   -49.4174 -49.4164 -49.4146 -49.4142 -49.3608 -49.3347 -49.3343 -49.3300
   -49.2992 -49.2923 -49.2790 -49.2788 -49.2762 -49.2757 -49.2743 -49.2477
   -49.2415 -49.2404 -49.2403 -49.2393 -49.2263 -49.2261 -49.1865 -49.1837
   -49.1491 -49.1187 -49.1048 -49.0971 -49.0952 -49.0680 -49.0393 -49.0310
   -49.0285 -49.0108 -49.0069 -49.0041 -49.0003 -48.9983 -48.9957 -48.9934
   -48.9879 -48.9872 -48.9833 -48.9788 -48.9783 -48.7975 -48.7920 -48.7897
   -11.9193  -5.3321  -5.2839  -4.0833  -4.0226  -3.8754  -3.8624  -3.4563
    -3.2944  -3.0193  -2.9894  -2.9542  -2.9428  -2.9257  -2.9134  -2.9046
    -2.8833  -2.8658  -2.8460  -2.7965  -2.7559  -2.7383  -2.7071  -2.7015
    -2.6026  -2.5147  -2.3786  -2.3762  -2.3404  -2.3379  -2.1154  -2.1111
    -2.0877  -2.0581  -2.0335  -2.0238  -1.9581  -1.9527  -1.8188  -1.8091
    -1.7367  -1.7248  -1.7203  -1.6432  -1.6371  -1.5093  -1.5083  -1.4736
    -1.4481  -1.3851  -1.3529  -1.2485  -1.2445  -1.2295  -1.1743  -1.1243
    -1.1149  -1.0883  -1.0837  -0.9802  -0.9663  -0.9073  -0.8666  -0.8427
    -0.7978  -0.7801  -0.6658  -0.6302  -0.6258  -0.6187  -0.5835  -0.5739
    -0.5685  -0.5596  -0.5207  -0.3494  -0.3284  -0.3068  -0.3051  -0.3011
    -0.3005  -0.2691  -0.2562  -0.2529  -0.2191  -0.2040  -0.1315  -0.1302
    -0.0857  -0.0806  -0.0673  -0.0365   0.0252   0.0841   0.1382   0.1596
     0.1700   0.1768   0.1871   0.1935   0.2098   0.2402   0.2804   0.3018
     0.4220   0.4384   0.4441   0.5350   0.6186   0.6707   0.7238   0.7430
     0.7637   0.7703   0.8393   0.8553   0.8674   0.8831   0.8880   0.8911
     0.9137   0.9276   0.9570   0.9722   1.0055   1.0549   1.0557   1.0799
     1.0841   1.1377   1.1938   1.2224   1.2388   1.2674   1.3005   1.4416
     1.4615   1.5998   1.6479   1.6644   1.6695   1.6711   1.7001   1.7979
     1.8262   1.9008   1.9095   1.9219   1.9274   1.9386   1.9579   2.0275
     2.0398   2.0613   2.0617   2.0807   2.1640   2.1840   2.2348   2.2727
     2.3161   2.4013   2.4492   2.4499   2.4591   2.5488   2.5654   2.6404
     2.6416   2.6530   2.6591   2.7084   2.7117   2.7337   2.7451   2.7569
     2.8042   2.9269   2.9352   2.9380   2.9540   2.9601   2.9628   2.9632
     2.9671   2.9674   3.0220   3.1893   3.2155   3.2211   3.2302   3.2334
     3.4369   3.4748   3.7379   3.7515   3.9330   4.4050   4.4492   4.7982
     4.8016   4.8043   4.8096   5.2745   5.2845   5.2965   5.3147   5.3352
     5.6233   5.7966   5.8000   5.9193   6.1811   6.2015   6.3509   6.3734
     6.3875   6.4306   8.2619   8.2630   8.2955   8.3192   8.5227   8.5455
     8.6489   8.8035   8.8385   8.8541   8.8824   8.9085   9.2853   9.3283
     9.3541   9.7732   9.7787   9.8434   9.8940  10.2362  10.3323  10.3751
    10.4042  10.6223  10.8046  10.8698  10.9015  10.9070  10.9286  10.9506

     occupation numbers 
     1.0000   1.0000   1.0000   1.0000   1.0000   1.0000   1.0000   1.0000
     1.0000   1.0000   1.0000   1.0000   1.0000   1.0000   1.0000   1.0000
     1.0000   1.0000   1.0000   1.0000   1.0000   1.0000   1.0000   1.0000
     1.0000   1.0000   1.0000   1.0000   1.0000   1.0000   1.0000   1.0000
     1.0000   1.0000   1.0000   1.0000   1.0000   1.0000   1.0000   1.0000
     1.0000   1.0000   1.0000   1.0000   1.0000   1.0000   1.0000   1.0000
     1.0000   1.0000   1.0000   1.0000   1.0000   1.0000   1.0000   1.0000
     1.0000   1.0000   1.0000   1.0000   1.0000   1.0000   1.0000   1.0000
     1.0000   1.0000   1.0000   1.0000   1.0000   1.0000   1.0000   1.0000
     1.0000   1.0000   1.0000   1.0000   1.0000   1.0000   1.0000   1.0000
     1.0000   1.0000   1.0000   1.0000   1.0000   1.0000   1.0000   1.0000
     1.0000   1.0000   1.0000   1.0000   1.0000   1.0000   1.0000   1.0000
     1.0000   1.0000   1.0000   1.0000   1.0000   1.0000   1.0000   1.0000
     1.0000   1.0000   1.0000   1.0000   1.0000   1.0000   1.0000   1.0000
     1.0000   1.0000   1.0000   1.0000   1.0000   1.0000   1.0000   1.0000
     1.0000   1.0000   1.0000   1.0000   1.0000   1.0000   1.0000   1.0000
     1.0000   1.0000   1.0000   1.0000   1.0000   1.0000   1.0000   1.0000
     1.0000   1.0000   1.0000   1.0000   1.0000   1.0000   1.0000   1.0000
     1.0000   1.0000   1.0000   1.0000   1.0000   1.0000   1.0000   1.0000
     1.0000   1.0000   1.0000   1.0000   1.0000   1.0000   1.0000   1.0000
     1.0000   1.0000   1.0000   1.0000   1.0000   1.0000   1.0000   1.0000
     1.0000   1.0000   1.0000   1.0000   1.0000   1.0000   1.0000   1.0000
     1.0000   1.0000   1.0000   1.0000   1.0000   1.0000   1.0000   1.0000
     1.0000   1.0000   1.0000   1.0000   1.0000   1.0000   1.0000   1.0000
     1.0000   1.0000   1.0000   1.0000   1.0000   1.0000   1.0000   1.0000
     1.0000   1.0000   1.0000   1.0000   1.0000   1.0000   1.0000   1.0000
     1.0000   1.0000   1.0000   1.0000   1.0000   1.0000   1.0000   1.0000
     1.0000   1.0000   1.0000   1.0000   1.0000   1.0000   1.0000   1.0000
     1.0000   1.0000   1.0000   1.0000   1.0000   1.0000   1.0000   1.0000
     1.0000   1.0000   1.0000   1.0000   1.0000   1.0000   1.0000   1.0000
     1.0000   1.0000   1.0000   1.0000   1.0000   1.0000   1.0000   1.0000
     1.0000   1.0000   1.0000   1.0000   1.0000   1.0000   1.0000   1.0000
     1.0000   1.0000   1.0000   1.0000   1.0000   1.0000   1.0000   1.0000
     1.0000   1.0000   1.0000   1.0000   1.0000   1.0000   1.0000   1.0000
     1.0000   1.0000   1.0000   1.0000   1.0000   1.0000   1.0000   1.0000
     1.0000   1.0000   1.0000   1.0000   1.0000   1.0000   1.0000   1.0000
     1.0000   1.0000   1.0000   1.0000   1.0000   1.0000   1.0000   1.0000
     1.0000   1.0000   1.0000   1.0000   1.0000   1.0000   1.0000   1.0000
     1.0000   1.0000   0.9999   0.9999   0.9999   0.9995   0.9994   0.9972
     0.9971   0.9964   0.9959   0.9891   0.9883   0.9820   0.9775   0.9716
     0.9301   0.5334   0.4921   0.4780   0.3992   0.3703   0.3582   0.3563
     0.3385   0.3373   0.1457   0.0060   0.0035   0.0032   0.0026   0.0025
     0.0000   0.0000   0.0000   0.0000   0.0000   0.0000   0.0000   0.0000
     0.0000   0.0000   0.0000   0.0000   0.0000   0.0000   0.0000   0.0000
     0.0000   0.0000   0.0000   0.0000   0.0000   0.0000   0.0000   0.0000
     0.0000   0.0000   0.0000   0.0000   0.0000   0.0000   0.0000   0.0000
     0.0000   0.0000   0.0000   0.0000   0.0000   0.0000   0.0000   0.0000
     0.0000   0.0000   0.0000   0.0000   0.0000   0.0000   0.0000   0.0000
     0.0000   0.0000   0.0000   0.0000   0.0000   0.0000   0.0000   0.0000

          k =-0.5000 0.4811 0.0000 ( 88140 PWs)   bands (ev):

   -95.5292 -95.5249 -95.5195 -95.5182 -95.5180 -95.5135 -95.5117 -95.5104
   -95.4988 -95.4940 -95.4938 -95.4914 -95.4897 -95.4890 -95.4852 -95.4845
   -95.4835 -95.3853 -95.1306 -95.1246 -95.1238 -95.0908 -95.0837 -95.0818
   -95.0774 -95.0747 -95.0712 -95.0669 -95.0654 -95.0649 -95.0611 -95.0576
   -95.0570 -94.8836 -94.8810 -94.8792 -49.8364 -49.8237 -49.8184 -49.8079
   -49.7977 -49.7915 -49.7843 -49.7761 -49.7698 -49.7641 -49.7618 -49.7580
   -49.7484 -49.7358 -49.7320 -49.6842 -49.6770 -49.6734 -49.6699 -49.6632
   -49.6606 -49.6550 -49.6493 -49.6420 -49.6364 -49.6332 -49.6269 -49.6221
   -49.6166 -49.6123 -49.6081 -49.6033 -49.5996 -49.5978 -49.5953 -49.5923
   -49.5883 -49.5827 -49.5783 -49.5769 -49.5726 -49.5676 -49.5636 -49.5610
   -49.5582 -49.5571 -49.5544 -49.5489 -49.5372 -49.5308 -49.5172 -49.4927
   -49.4774 -49.4705 -49.4623 -49.4551 -49.4484 -49.4441 -49.4324 -49.4265
   -49.4191 -49.4051 -49.4016 -49.3956 -49.3728 -49.3674 -49.3280 -49.3004
   -49.2998 -49.2927 -49.2869 -49.2846 -49.2722 -49.2669 -49.2638 -49.2590
   -49.2535 -49.2460 -49.2451 -49.2389 -49.2242 -49.2080 -49.1938 -49.1820
   -49.1466 -49.1226 -49.1081 -49.0979 -49.0869 -49.0705 -49.0393 -49.0309
   -49.0286 -49.0108 -49.0073 -49.0030 -49.0003 -48.9983 -48.9979 -48.9911
   -48.9885 -48.9875 -48.9833 -48.9789 -48.9781 -48.7975 -48.7920 -48.7897
   -11.9193  -5.4924  -4.9532  -4.4563  -4.2125  -3.7368  -3.3855  -3.3338
    -3.3231  -3.2177  -3.1799  -3.1201  -3.0673  -3.0043  -2.9915  -2.8752
    -2.8025  -2.7955  -2.7285  -2.6905  -2.6572  -2.6437  -2.6218  -2.5874
    -2.5317  -2.4940  -2.4346  -2.4196  -2.3598  -2.3178  -2.2655  -2.2034
    -2.1829  -2.1616  -2.1126  -2.0958  -1.9944  -1.9520  -1.8744  -1.8281
    -1.6925  -1.6355  -1.6173  -1.5499  -1.5319  -1.5219  -1.5065  -1.4271
    -1.4121  -1.3705  -1.3325  -1.2772  -1.2148  -1.1832  -1.1634  -1.1315
    -1.1109  -1.0836  -1.0351  -1.0079  -0.9668  -0.9204  -0.8628  -0.8394
    -0.8338  -0.7850  -0.7547  -0.6535  -0.6193  -0.5972  -0.5432  -0.5277
    -0.5207  -0.4935  -0.4616  -0.4444  -0.4083  -0.3828  -0.3503  -0.3336
    -0.2628  -0.2408  -0.2223  -0.2000  -0.1942  -0.1580  -0.0802  -0.0576
    -0.0368  -0.0250  -0.0058   0.0512   0.0601   0.0822   0.1060   0.1140
     0.1302   0.1446   0.1660   0.2033   0.2142   0.2306   0.2493   0.2786
     0.3153   0.3438   0.3666   0.4052   0.4597   0.4911   0.5151   0.6028
     0.6210   0.6558   0.7541   0.8261   0.8546   0.8872   0.9117   0.9329
     0.9681   0.9914   0.9981   1.0609   1.0872   1.0997   1.1206   1.1452
     1.1838   1.2209   1.2307   1.2887   1.3322   1.3694   1.4892   1.5118
     1.5275   1.5570   1.6061   1.6436   1.6529   1.6662   1.6952   1.7216
     1.7340   1.7697   1.8397   1.8699   1.8985   1.9125   1.9227   1.9434
     1.9666   1.9806   2.0964   2.1276   2.1900   2.2527   2.2722   2.3555
     2.3856   2.4032   2.4637   2.4713   2.4988   2.5876   2.6284   2.6604
     2.7002   2.7134   2.7249   2.7282   2.7402   2.8119   2.8393   2.8430
     2.8815   2.8899   2.9154   2.9605   2.9622   2.9629   2.9658   2.9746
     3.0412   3.0534   3.1278   3.1391   3.1751   3.1984   3.2212   3.2308
     3.2796   3.3054   3.3544   3.9522   4.2127   4.2344   4.2894   4.3574
     4.6439   4.7975   4.8660   5.1659   5.2152   5.2447   5.2890   5.3838
     5.6422   5.7715   5.8483   6.0885   6.3798   6.4556   6.5078   6.6472
     6.8191   7.1210   7.3018   7.5463   7.6057   7.6274   8.3625   8.6143
     8.6352   8.6997   8.8795   9.1228   9.1826   9.2131   9.4514   9.4929
     9.5637   9.7417   9.8569   9.9195  10.0888  10.0986  10.1654  10.4530
    10.5274  10.7874  10.8399  10.9221  10.9555  10.9780  11.1242  11.1522

     occupation numbers 
     1.0000   1.0000   1.0000   1.0000   1.0000   1.0000   1.0000   1.0000
     1.0000   1.0000   1.0000   1.0000   1.0000   1.0000   1.0000   1.0000
     1.0000   1.0000   1.0000   1.0000   1.0000   1.0000   1.0000   1.0000
     1.0000   1.0000   1.0000   1.0000   1.0000   1.0000   1.0000   1.0000
     1.0000   1.0000   1.0000   1.0000   1.0000   1.0000   1.0000   1.0000
     1.0000   1.0000   1.0000   1.0000   1.0000   1.0000   1.0000   1.0000
     1.0000   1.0000   1.0000   1.0000   1.0000   1.0000   1.0000   1.0000
     1.0000   1.0000   1.0000   1.0000   1.0000   1.0000   1.0000   1.0000
     1.0000   1.0000   1.0000   1.0000   1.0000   1.0000   1.0000   1.0000
     1.0000   1.0000   1.0000   1.0000   1.0000   1.0000   1.0000   1.0000
     1.0000   1.0000   1.0000   1.0000   1.0000   1.0000   1.0000   1.0000
     1.0000   1.0000   1.0000   1.0000   1.0000   1.0000   1.0000   1.0000
     1.0000   1.0000   1.0000   1.0000   1.0000   1.0000   1.0000   1.0000
     1.0000   1.0000   1.0000   1.0000   1.0000   1.0000   1.0000   1.0000
     1.0000   1.0000   1.0000   1.0000   1.0000   1.0000   1.0000   1.0000
     1.0000   1.0000   1.0000   1.0000   1.0000   1.0000   1.0000   1.0000
     1.0000   1.0000   1.0000   1.0000   1.0000   1.0000   1.0000   1.0000
     1.0000   1.0000   1.0000   1.0000   1.0000   1.0000   1.0000   1.0000
     1.0000   1.0000   1.0000   1.0000   1.0000   1.0000   1.0000   1.0000
     1.0000   1.0000   1.0000   1.0000   1.0000   1.0000   1.0000   1.0000
     1.0000   1.0000   1.0000   1.0000   1.0000   1.0000   1.0000   1.0000
     1.0000   1.0000   1.0000   1.0000   1.0000   1.0000   1.0000   1.0000
     1.0000   1.0000   1.0000   1.0000   1.0000   1.0000   1.0000   1.0000
     1.0000   1.0000   1.0000   1.0000   1.0000   1.0000   1.0000   1.0000
     1.0000   1.0000   1.0000   1.0000   1.0000   1.0000   1.0000   1.0000
     1.0000   1.0000   1.0000   1.0000   1.0000   1.0000   1.0000   1.0000
     1.0000   1.0000   1.0000   1.0000   1.0000   1.0000   1.0000   1.0000
     1.0000   1.0000   1.0000   1.0000   1.0000   1.0000   1.0000   1.0000
     1.0000   1.0000   1.0000   1.0000   1.0000   1.0000   1.0000   1.0000
     1.0000   1.0000   1.0000   1.0000   1.0000   1.0000   1.0000   1.0000
     1.0000   1.0000   1.0000   1.0000   1.0000   1.0000   1.0000   1.0000
     1.0000   1.0000   1.0000   1.0000   1.0000   1.0000   1.0000   1.0000
     1.0000   1.0000   1.0000   1.0000   1.0000   1.0000   1.0000   1.0000
     1.0000   1.0000   1.0000   1.0000   1.0000   1.0000   1.0000   1.0000
     1.0000   1.0000   1.0000   1.0000   1.0000   1.0000   1.0000   1.0000
     1.0000   1.0000   1.0000   1.0000   1.0000   1.0000   1.0000   1.0000
     1.0000   1.0000   1.0000   1.0000   1.0000   1.0000   1.0000   1.0000
     1.0000   1.0000   1.0000   1.0000   1.0000   1.0000   1.0000   1.0000
     1.0000   1.0000   0.9999   0.9999   0.9998   0.9990   0.9978   0.9958
     0.9907   0.9879   0.9849   0.9838   0.9795   0.9193   0.8683   0.8597
     0.7392   0.7054   0.5901   0.3685   0.3608   0.3573   0.3442   0.3059
     0.1041   0.0835   0.0201   0.0162   0.0079   0.0050   0.0032   0.0026
     0.0010   0.0006   0.0002   0.0000   0.0000   0.0000   0.0000   0.0000
     0.0000   0.0000   0.0000   0.0000   0.0000   0.0000   0.0000   0.0000
     0.0000   0.0000   0.0000   0.0000   0.0000   0.0000   0.0000   0.0000
     0.0000   0.0000   0.0000   0.0000   0.0000   0.0000   0.0000   0.0000
     0.0000   0.0000   0.0000   0.0000   0.0000   0.0000   0.0000   0.0000
     0.0000   0.0000   0.0000   0.0000   0.0000   0.0000   0.0000   0.0000
     0.0000   0.0000   0.0000   0.0000   0.0000   0.0000   0.0000   0.0000

          k =-0.5000 0.6736 0.0000 ( 88140 PWs)   bands (ev):

   -95.5292 -95.5249 -95.5195 -95.5182 -95.5180 -95.5136 -95.5117 -95.5104
   -95.4988 -95.4940 -95.4938 -95.4914 -95.4897 -95.4890 -95.4852 -95.4845
   -95.4835 -95.3853 -95.1306 -95.1246 -95.1238 -95.0908 -95.0837 -95.0818
   -95.0774 -95.0747 -95.0712 -95.0668 -95.0655 -95.0649 -95.0611 -95.0576
   -95.0570 -94.8836 -94.8810 -94.8792 -49.8364 -49.8237 -49.8184 -49.8079
   -49.7977 -49.7915 -49.7843 -49.7761 -49.7698 -49.7641 -49.7618 -49.7580
   -49.7484 -49.7358 -49.7320 -49.6842 -49.6770 -49.6734 -49.6699 -49.6632
   -49.6606 -49.6550 -49.6493 -49.6420 -49.6364 -49.6332 -49.6269 -49.6221
   -49.6166 -49.6123 -49.6081 -49.6033 -49.5996 -49.5978 -49.5953 -49.5923
   -49.5883 -49.5827 -49.5783 -49.5769 -49.5726 -49.5676 -49.5636 -49.5610
   -49.5582 -49.5571 -49.5544 -49.5489 -49.5372 -49.5308 -49.5172 -49.4927
   -49.4774 -49.4705 -49.4623 -49.4551 -49.4484 -49.4441 -49.4324 -49.4265
   -49.4191 -49.4051 -49.4016 -49.3956 -49.3728 -49.3674 -49.3280 -49.3004
   -49.2998 -49.2927 -49.2869 -49.2846 -49.2722 -49.2669 -49.2638 -49.2590
   -49.2535 -49.2460 -49.2451 -49.2389 -49.2242 -49.2080 -49.1938 -49.1820
   -49.1466 -49.1226 -49.1082 -49.0979 -49.0869 -49.0705 -49.0393 -49.0310
   -49.0285 -49.0108 -49.0073 -49.0030 -49.0003 -48.9983 -48.9979 -48.9911
   -48.9885 -48.9875 -48.9833 -48.9789 -48.9781 -48.7975 -48.7920 -48.7897
   -11.9193  -5.4924  -4.9532  -4.4563  -4.2125  -3.7368  -3.3856  -3.3338
    -3.3231  -3.2177  -3.1798  -3.1201  -3.0673  -3.0043  -2.9915  -2.8752
    -2.8025  -2.7955  -2.7286  -2.6905  -2.6572  -2.6437  -2.6218  -2.5874
    -2.5317  -2.4941  -2.4346  -2.4196  -2.3598  -2.3178  -2.2655  -2.2033
    -2.1828  -2.1616  -2.1126  -2.0958  -1.9944  -1.9520  -1.8744  -1.8281
    -1.6925  -1.6355  -1.6173  -1.5499  -1.5319  -1.5219  -1.5065  -1.4271
    -1.4120  -1.3705  -1.3325  -1.2772  -1.2148  -1.1832  -1.1634  -1.1315
    -1.1109  -1.0836  -1.0351  -1.0079  -0.9668  -0.9204  -0.8628  -0.8394
    -0.8338  -0.7850  -0.7547  -0.6535  -0.6193  -0.5972  -0.5432  -0.5277
    -0.5208  -0.4935  -0.4616  -0.4444  -0.4083  -0.3828  -0.3503  -0.3336
    -0.2628  -0.2408  -0.2223  -0.2001  -0.1942  -0.1579  -0.0803  -0.0576
    -0.0367  -0.0250  -0.0058   0.0512   0.0601   0.0822   0.1060   0.1140
     0.1301   0.1445   0.1660   0.2033   0.2141   0.2305   0.2494   0.2786
     0.3153   0.3438   0.3666   0.4052   0.4597   0.4911   0.5151   0.6028
     0.6210   0.6558   0.7541   0.8261   0.8546   0.8873   0.9116   0.9329
     0.9681   0.9913   0.9981   1.0608   1.0872   1.0997   1.1206   1.1452
     1.1838   1.2209   1.2307   1.2887   1.3322   1.3694   1.4892   1.5119
     1.5275   1.5570   1.6061   1.6436   1.6529   1.6662   1.6952   1.7216
     1.7340   1.7697   1.8398   1.8699   1.8985   1.9125   1.9227   1.9434
     1.9666   1.9806   2.0964   2.1276   2.1900   2.2527   2.2722   2.3555
     2.3856   2.4032   2.4637   2.4713   2.4988   2.5876   2.6284   2.6604
     2.7002   2.7134   2.7248   2.7281   2.7402   2.8120   2.8394   2.8429
     2.8815   2.8899   2.9154   2.9605   2.9622   2.9629   2.9658   2.9746
     3.0412   3.0534   3.1279   3.1391   3.1751   3.1984   3.2212   3.2308
     3.2796   3.3054   3.3544   3.9522   4.2127   4.2344   4.2893   4.3574
     4.6439   4.7974   4.8660   5.1659   5.2152   5.2447   5.2890   5.3838
     5.6423   5.7715   5.8483   6.0885   6.3798   6.4556   6.5078   6.6473
     6.8190   7.1210   7.3018   7.5463   7.6057   7.6274   8.3625   8.6143
     8.6352   8.6997   8.8795   9.1228   9.1827   9.2131   9.4514   9.4928
     9.5637   9.7417   9.8569   9.9195  10.0888  10.0987  10.1654  10.4530
    10.5274  10.7874  10.8399  10.9221  10.9554  10.9779  11.1242  11.1521

     occupation numbers 
     1.0000   1.0000   1.0000   1.0000   1.0000   1.0000   1.0000   1.0000
     1.0000   1.0000   1.0000   1.0000   1.0000   1.0000   1.0000   1.0000
     1.0000   1.0000   1.0000   1.0000   1.0000   1.0000   1.0000   1.0000
     1.0000   1.0000   1.0000   1.0000   1.0000   1.0000   1.0000   1.0000
     1.0000   1.0000   1.0000   1.0000   1.0000   1.0000   1.0000   1.0000
     1.0000   1.0000   1.0000   1.0000   1.0000   1.0000   1.0000   1.0000
     1.0000   1.0000   1.0000   1.0000   1.0000   1.0000   1.0000   1.0000
     1.0000   1.0000   1.0000   1.0000   1.0000   1.0000   1.0000   1.0000
     1.0000   1.0000   1.0000   1.0000   1.0000   1.0000   1.0000   1.0000
     1.0000   1.0000   1.0000   1.0000   1.0000   1.0000   1.0000   1.0000
     1.0000   1.0000   1.0000   1.0000   1.0000   1.0000   1.0000   1.0000
     1.0000   1.0000   1.0000   1.0000   1.0000   1.0000   1.0000   1.0000
     1.0000   1.0000   1.0000   1.0000   1.0000   1.0000   1.0000   1.0000
     1.0000   1.0000   1.0000   1.0000   1.0000   1.0000   1.0000   1.0000
     1.0000   1.0000   1.0000   1.0000   1.0000   1.0000   1.0000   1.0000
     1.0000   1.0000   1.0000   1.0000   1.0000   1.0000   1.0000   1.0000
     1.0000   1.0000   1.0000   1.0000   1.0000   1.0000   1.0000   1.0000
     1.0000   1.0000   1.0000   1.0000   1.0000   1.0000   1.0000   1.0000
     1.0000   1.0000   1.0000   1.0000   1.0000   1.0000   1.0000   1.0000
     1.0000   1.0000   1.0000   1.0000   1.0000   1.0000   1.0000   1.0000
     1.0000   1.0000   1.0000   1.0000   1.0000   1.0000   1.0000   1.0000
     1.0000   1.0000   1.0000   1.0000   1.0000   1.0000   1.0000   1.0000
     1.0000   1.0000   1.0000   1.0000   1.0000   1.0000   1.0000   1.0000
     1.0000   1.0000   1.0000   1.0000   1.0000   1.0000   1.0000   1.0000
     1.0000   1.0000   1.0000   1.0000   1.0000   1.0000   1.0000   1.0000
     1.0000   1.0000   1.0000   1.0000   1.0000   1.0000   1.0000   1.0000
     1.0000   1.0000   1.0000   1.0000   1.0000   1.0000   1.0000   1.0000
     1.0000   1.0000   1.0000   1.0000   1.0000   1.0000   1.0000   1.0000
     1.0000   1.0000   1.0000   1.0000   1.0000   1.0000   1.0000   1.0000
     1.0000   1.0000   1.0000   1.0000   1.0000   1.0000   1.0000   1.0000
     1.0000   1.0000   1.0000   1.0000   1.0000   1.0000   1.0000   1.0000
     1.0000   1.0000   1.0000   1.0000   1.0000   1.0000   1.0000   1.0000
     1.0000   1.0000   1.0000   1.0000   1.0000   1.0000   1.0000   1.0000
     1.0000   1.0000   1.0000   1.0000   1.0000   1.0000   1.0000   1.0000
     1.0000   1.0000   1.0000   1.0000   1.0000   1.0000   1.0000   1.0000
     1.0000   1.0000   1.0000   1.0000   1.0000   1.0000   1.0000   1.0000
     1.0000   1.0000   1.0000   1.0000   1.0000   1.0000   1.0000   1.0000
     1.0000   1.0000   1.0000   1.0000   1.0000   1.0000   1.0000   1.0000
     1.0000   1.0000   0.9999   0.9999   0.9998   0.9990   0.9978   0.9958
     0.9907   0.9879   0.9849   0.9838   0.9795   0.9193   0.8682   0.8597
     0.7392   0.7055   0.5901   0.3684   0.3607   0.3573   0.3441   0.3059
     0.1041   0.0835   0.0201   0.0161   0.0079   0.0050   0.0032   0.0026
     0.0010   0.0006   0.0002   0.0000   0.0000   0.0000   0.0000   0.0000
     0.0000   0.0000   0.0000   0.0000   0.0000   0.0000   0.0000   0.0000
     0.0000   0.0000   0.0000   0.0000   0.0000   0.0000   0.0000   0.0000
     0.0000   0.0000   0.0000   0.0000   0.0000   0.0000   0.0000   0.0000
     0.0000   0.0000   0.0000   0.0000   0.0000   0.0000   0.0000   0.0000
     0.0000   0.0000   0.0000   0.0000   0.0000   0.0000   0.0000   0.0000
     0.0000   0.0000   0.0000   0.0000   0.0000   0.0000   0.0000   0.0000

          k =-0.5000-0.2887 0.0000 ( 88178 PWs)   bands (ev):

   -95.5291 -95.5250 -95.5190 -95.5185 -95.5181 -95.5136 -95.5117 -95.5104
   -95.4988 -95.4940 -95.4938 -95.4914 -95.4895 -95.4891 -95.4855 -95.4842
   -95.4836 -95.3853 -95.1306 -95.1246 -95.1238 -95.0908 -95.0838 -95.0818
   -95.0772 -95.0752 -95.0701 -95.0680 -95.0652 -95.0646 -95.0611 -95.0575
   -95.0571 -94.8836 -94.8810 -94.8792 -49.8406 -49.8193 -49.8124 -49.8074
   -49.7940 -49.7898 -49.7879 -49.7864 -49.7702 -49.7680 -49.7667 -49.7637
   -49.7420 -49.7319 -49.7057 -49.7051 -49.6727 -49.6718 -49.6656 -49.6646
   -49.6616 -49.6548 -49.6534 -49.6478 -49.6434 -49.6338 -49.6296 -49.6196
   -49.6144 -49.6093 -49.6089 -49.6033 -49.6018 -49.5930 -49.5923 -49.5889
   -49.5839 -49.5827 -49.5789 -49.5761 -49.5711 -49.5684 -49.5664 -49.5640
   -49.5594 -49.5549 -49.5531 -49.5497 -49.5428 -49.5311 -49.5110 -49.4989
   -49.4748 -49.4730 -49.4595 -49.4576 -49.4486 -49.4390 -49.4198 -49.4195
   -49.4174 -49.4164 -49.4146 -49.4142 -49.3608 -49.3347 -49.3343 -49.3300
   -49.2992 -49.2922 -49.2790 -49.2788 -49.2762 -49.2757 -49.2743 -49.2477
   -49.2415 -49.2404 -49.2403 -49.2393 -49.2263 -49.2261 -49.1865 -49.1837
   -49.1491 -49.1187 -49.1048 -49.0971 -49.0952 -49.0680 -49.0393 -49.0310
   -49.0285 -49.0108 -49.0069 -49.0041 -49.0003 -48.9983 -48.9957 -48.9934
   -48.9880 -48.9872 -48.9833 -48.9787 -48.9783 -48.7975 -48.7920 -48.7897
   -11.9193  -5.3321  -5.2839  -4.0833  -4.0227  -3.8754  -3.8624  -3.4563
    -3.2944  -3.0193  -2.9894  -2.9542  -2.9428  -2.9257  -2.9134  -2.9046
    -2.8833  -2.8658  -2.8460  -2.7965  -2.7559  -2.7383  -2.7071  -2.7015
    -2.6026  -2.5147  -2.3786  -2.3762  -2.3404  -2.3379  -2.1154  -2.1110
    -2.0877  -2.0580  -2.0335  -2.0238  -1.9581  -1.9527  -1.8188  -1.8092
    -1.7367  -1.7249  -1.7203  -1.6432  -1.6371  -1.5093  -1.5083  -1.4736
    -1.4481  -1.3852  -1.3528  -1.2486  -1.2444  -1.2294  -1.1743  -1.1243
    -1.1149  -1.0882  -1.0837  -0.9802  -0.9663  -0.9073  -0.8666  -0.8427
    -0.7978  -0.7801  -0.6657  -0.6303  -0.6259  -0.6187  -0.5836  -0.5739
    -0.5685  -0.5596  -0.5207  -0.3494  -0.3284  -0.3068  -0.3052  -0.3010
    -0.3004  -0.2691  -0.2562  -0.2529  -0.2191  -0.2041  -0.1315  -0.1301
    -0.0857  -0.0806  -0.0673  -0.0364   0.0252   0.0841   0.1382   0.1595
     0.1700   0.1767   0.1871   0.1935   0.2097   0.2402   0.2805   0.3019
     0.4220   0.4384   0.4441   0.5350   0.6186   0.6707   0.7238   0.7430
     0.7637   0.7703   0.8393   0.8552   0.8675   0.8831   0.8880   0.8911
     0.9138   0.9276   0.9570   0.9722   1.0055   1.0548   1.0557   1.0800
     1.0841   1.1377   1.1938   1.2224   1.2388   1.2674   1.3005   1.4415
     1.4615   1.5999   1.6479   1.6644   1.6696   1.6711   1.7002   1.7978
     1.8261   1.9009   1.9095   1.9219   1.9275   1.9386   1.9579   2.0275
     2.0398   2.0613   2.0617   2.0807   2.1640   2.1841   2.2347   2.2727
     2.3160   2.4013   2.4492   2.4499   2.4591   2.5488   2.5654   2.6404
     2.6416   2.6530   2.6591   2.7084   2.7117   2.7336   2.7451   2.7569
     2.8042   2.9269   2.9352   2.9380   2.9540   2.9602   2.9628   2.9631
     2.9671   2.9674   3.0221   3.1893   3.2156   3.2212   3.2302   3.2334
     3.4369   3.4748   3.7379   3.7515   3.9329   4.4049   4.4492   4.7982
     4.8016   4.8043   4.8096   5.2744   5.2845   5.2965   5.3148   5.3353
     5.6235   5.7966   5.8001   5.9194   6.1811   6.2014   6.3509   6.3734
     6.3875   6.4306   8.2619   8.2630   8.2955   8.3192   8.5227   8.5455
     8.6488   8.8035   8.8385   8.8541   8.8824   8.9085   9.2853   9.3282
     9.3540   9.7733   9.7787   9.8434   9.8940  10.2362  10.3323  10.3751
    10.4042  10.6222  10.8046  10.8698  10.9016  10.9070  10.9286  10.9506

     occupation numbers 
     1.0000   1.0000   1.0000   1.0000   1.0000   1.0000   1.0000   1.0000
     1.0000   1.0000   1.0000   1.0000   1.0000   1.0000   1.0000   1.0000
     1.0000   1.0000   1.0000   1.0000   1.0000   1.0000   1.0000   1.0000
     1.0000   1.0000   1.0000   1.0000   1.0000   1.0000   1.0000   1.0000
     1.0000   1.0000   1.0000   1.0000   1.0000   1.0000   1.0000   1.0000
     1.0000   1.0000   1.0000   1.0000   1.0000   1.0000   1.0000   1.0000
     1.0000   1.0000   1.0000   1.0000   1.0000   1.0000   1.0000   1.0000
     1.0000   1.0000   1.0000   1.0000   1.0000   1.0000   1.0000   1.0000
     1.0000   1.0000   1.0000   1.0000   1.0000   1.0000   1.0000   1.0000
     1.0000   1.0000   1.0000   1.0000   1.0000   1.0000   1.0000   1.0000
     1.0000   1.0000   1.0000   1.0000   1.0000   1.0000   1.0000   1.0000
     1.0000   1.0000   1.0000   1.0000   1.0000   1.0000   1.0000   1.0000
     1.0000   1.0000   1.0000   1.0000   1.0000   1.0000   1.0000   1.0000
     1.0000   1.0000   1.0000   1.0000   1.0000   1.0000   1.0000   1.0000
     1.0000   1.0000   1.0000   1.0000   1.0000   1.0000   1.0000   1.0000
     1.0000   1.0000   1.0000   1.0000   1.0000   1.0000   1.0000   1.0000
     1.0000   1.0000   1.0000   1.0000   1.0000   1.0000   1.0000   1.0000
     1.0000   1.0000   1.0000   1.0000   1.0000   1.0000   1.0000   1.0000
     1.0000   1.0000   1.0000   1.0000   1.0000   1.0000   1.0000   1.0000
     1.0000   1.0000   1.0000   1.0000   1.0000   1.0000   1.0000   1.0000
     1.0000   1.0000   1.0000   1.0000   1.0000   1.0000   1.0000   1.0000
     1.0000   1.0000   1.0000   1.0000   1.0000   1.0000   1.0000   1.0000
     1.0000   1.0000   1.0000   1.0000   1.0000   1.0000   1.0000   1.0000
     1.0000   1.0000   1.0000   1.0000   1.0000   1.0000   1.0000   1.0000
     1.0000   1.0000   1.0000   1.0000   1.0000   1.0000   1.0000   1.0000
     1.0000   1.0000   1.0000   1.0000   1.0000   1.0000   1.0000   1.0000
     1.0000   1.0000   1.0000   1.0000   1.0000   1.0000   1.0000   1.0000
     1.0000   1.0000   1.0000   1.0000   1.0000   1.0000   1.0000   1.0000
     1.0000   1.0000   1.0000   1.0000   1.0000   1.0000   1.0000   1.0000
     1.0000   1.0000   1.0000   1.0000   1.0000   1.0000   1.0000   1.0000
     1.0000   1.0000   1.0000   1.0000   1.0000   1.0000   1.0000   1.0000
     1.0000   1.0000   1.0000   1.0000   1.0000   1.0000   1.0000   1.0000
     1.0000   1.0000   1.0000   1.0000   1.0000   1.0000   1.0000   1.0000
     1.0000   1.0000   1.0000   1.0000   1.0000   1.0000   1.0000   1.0000
     1.0000   1.0000   1.0000   1.0000   1.0000   1.0000   1.0000   1.0000
     1.0000   1.0000   1.0000   1.0000   1.0000   1.0000   1.0000   1.0000
     1.0000   1.0000   1.0000   1.0000   1.0000   1.0000   1.0000   1.0000
     1.0000   1.0000   1.0000   1.0000   1.0000   1.0000   1.0000   1.0000
     1.0000   1.0000   0.9999   0.9999   0.9999   0.9995   0.9994   0.9972
     0.9971   0.9964   0.9959   0.9891   0.9883   0.9820   0.9775   0.9716
     0.9301   0.5333   0.4921   0.4779   0.3992   0.3702   0.3581   0.3564
     0.3384   0.3373   0.1456   0.0060   0.0035   0.0032   0.0026   0.0025
     0.0000   0.0000   0.0000   0.0000   0.0000   0.0000   0.0000   0.0000
     0.0000   0.0000   0.0000   0.0000   0.0000   0.0000   0.0000   0.0000
     0.0000   0.0000   0.0000   0.0000   0.0000   0.0000   0.0000   0.0000
     0.0000   0.0000   0.0000   0.0000   0.0000   0.0000   0.0000   0.0000
     0.0000   0.0000   0.0000   0.0000   0.0000   0.0000   0.0000   0.0000
     0.0000   0.0000   0.0000   0.0000   0.0000   0.0000   0.0000   0.0000
     0.0000   0.0000   0.0000   0.0000   0.0000   0.0000   0.0000   0.0000

     the Fermi energy is     2.9336 ev

!    total energy              =  -33081.81119719 Ry
     total all-electron energy =  -1325975.496847 Ry
     estimated scf accuracy    <       0.00000032 Ry
     smearing contrib. (-TS)   =      -0.05262426 Ry
     internal energy E=F+TS    =  -33081.75857292 Ry

     The total energy is F=E-TS. E is the sum of the following terms:
     one-electron contribution =  -90311.12390083 Ry
     hartree contribution      =   45224.83352344 Ry
     xc contribution           =   -1381.02472823 Ry
     ewald contribution        =   37537.36547822 Ry
     electric field correction =       0.00572013 Ry
     one-center paw contrib.   =  -24151.81466566 Ry
      -> PAW hartree energy AE =     350.75185661 Ry
      -> PAW hartree energy PS =    -349.06810305 Ry
      -> PAW xc energy AE      =   -1416.47605396 Ry
      -> PAW xc energy PS      =      73.56643159 Ry
      -> total E_H with PAW    =   45226.51727700 Ry
      -> total E_XC with PAW   =   -2723.93435060 Ry

     total magnetization       =     1.94 Bohr mag/cell
     absolute magnetization    =     1.94 Bohr mag/cell

     convergence has been achieved in  56 iterations

     negative rho (up, down):  5.730E-04 5.399E-04

     Forces acting on atoms (cartesian axes, Ry/au):

     atom    1 type  1   force =     0.00035126   -0.00027485   -0.00447509
     atom    2 type  1   force =    -0.00035127   -0.00028608   -0.00447456
     atom    3 type  1   force =    -0.00000265   -0.00015251   -0.00369974
     atom    4 type  1   force =    -0.00000982   -0.00074501   -0.00365359
     atom    5 type  1   force =    -0.00005410    0.00000601   -0.00373994
     atom    6 type  1   force =     0.00006058    0.00001301   -0.00373440
     atom    7 type  1   force =     0.00061054    0.00028706   -0.00365719
     atom    8 type  1   force =     0.00000982    0.00034022   -0.00454725
     atom    9 type  1   force =    -0.00062297    0.00028234   -0.00365117
     atom   10 type  1   force =    -0.00000201    0.00259507    0.00203520
     atom   11 type  1   force =     0.00081467    0.00049194    0.00722604
     atom   12 type  1   force =    -0.00080822    0.00050604    0.00722452
     atom   13 type  1   force =     0.00127189   -0.00057417    0.00336215
     atom   14 type  1   force =     0.00001627   -0.00087365    0.00697575
     atom   15 type  1   force =    -0.00128110   -0.00057119    0.00335900
     atom   16 type  1   force =    -0.00221883   -0.00105159    0.00217063
     atom   17 type  1   force =     0.00223244   -0.00106161    0.00216134
     atom   18 type  1   force =    -0.00000724    0.00175756    0.00359656
     atom   19 type  1   force =    -0.00266144   -0.00320390    0.00015817
     atom   20 type  1   force =     0.00264804   -0.00322188    0.00013978
     atom   21 type  1   force =     0.00001852    0.00014895    0.02038294
     atom   22 type  1   force =    -0.00001367   -0.00021538    0.00211455
     atom   23 type  1   force =     0.00380506   -0.00068692    0.00039214
     atom   24 type  1   force =    -0.00379546   -0.00070144    0.00040799
     atom   25 type  1   force =     0.00156329    0.00371567   -0.00039598
     atom   26 type  1   force =    -0.00000185   -0.00009219    0.00344937
     atom   27 type  1   force =    -0.00156751    0.00371081   -0.00039956
     atom   28 type  1   force =    -0.01139943    0.00673743    0.00430165
     atom   29 type  1   force =     0.01139777    0.00672481    0.00431015
     atom   30 type  1   force =     0.00000534    0.02639397   -0.01928218
     atom   31 type  1   force =    -0.00002549   -0.00060763    0.00585296
     atom   32 type  1   force =     0.02297998   -0.01304975   -0.01909549
     atom   33 type  1   force =    -0.02296414   -0.01304772   -0.01910492
     atom   34 type  1   force =     0.00058861    0.00020962    0.00614749
     atom   35 type  1   force =     0.00001062   -0.01369047    0.00393026
     atom   36 type  1   force =    -0.00059891    0.00018814    0.00613408
     atom   37 type  2   force =     0.00000140   -0.00000070   -0.00192168
     The non-local contrib.  to forces
     atom    1 type  1   force =    -0.00037587    0.00023974   -0.08749726
     atom    2 type  1   force =     0.00037869    0.00022782   -0.08749862
     atom    3 type  1   force =    -0.00000229   -0.00000753   -0.08731695
     atom    4 type  1   force =    -0.00000848    0.00094332   -0.08668723
     atom    5 type  1   force =    -0.00002461    0.00000977   -0.08726260
     atom    6 type  1   force =     0.00003376    0.00001790   -0.08725343
     atom    7 type  1   force =    -0.00082177   -0.00044019   -0.08665700
     atom    8 type  1   force =     0.00001180   -0.00041274   -0.08747900
     atom    9 type  1   force =     0.00081106   -0.00044435   -0.08665001
     atom   10 type  1   force =    -0.00000177    0.00302342   -0.00482247
     atom   11 type  1   force =     0.00064534    0.00051922   -0.00189180
     atom   12 type  1   force =    -0.00063689    0.00053632   -0.00189037
     atom   13 type  1   force =    -0.00020912    0.00027835   -0.00563072
     atom   14 type  1   force =     0.00001970   -0.00070689   -0.00204824
     atom   15 type  1   force =     0.00019806    0.00028215   -0.00563515
     atom   16 type  1   force =    -0.00251229   -0.00121608   -0.00460751
     atom   17 type  1   force =     0.00252906   -0.00122778   -0.00461656
     atom   18 type  1   force =    -0.00000875   -0.00000101   -0.00543149
     atom   19 type  1   force =     0.00515733   -0.00366151    0.00671879
     atom   20 type  1   force =    -0.00516872   -0.00368145    0.00670063
     atom   21 type  1   force =     0.00001946    0.00020996    0.02461464
     atom   22 type  1   force =    -0.00001247   -0.00022044    0.01430798
     atom   23 type  1   force =     0.00024316    0.00634422    0.00693764
     atom   24 type  1   force =    -0.00023416    0.00632964    0.00695265
     atom   25 type  1   force =     0.00594951   -0.00282313    0.00607160
     atom   26 type  1   force =     0.00000065    0.00004135    0.01661941
     atom   27 type  1   force =    -0.00595467   -0.00282494    0.00606769
     atom   28 type  1   force =    -0.00749378    0.00445427    0.08305047
     atom   29 type  1   force =     0.00749206    0.00444332    0.08304871
     atom   30 type  1   force =     0.00000205    0.04212001    0.09552037
     atom   31 type  1   force =    -0.00003066    0.00428589    0.08022666
     atom   32 type  1   force =     0.03693994   -0.02102207    0.09531099
     atom   33 type  1   force =    -0.03692933   -0.02101999    0.09530398
     atom   34 type  1   force =    -0.00388139   -0.00243026    0.08028435
     atom   35 type  1   force =     0.00000851   -0.00964907    0.08317981
     atom   36 type  1   force =     0.00386842   -0.00245515    0.08028034
     atom   37 type  2   force =    -0.00000923   -0.00002897   -0.03068463
     The ionic contribution  to forces
     atom    1 type  1   force =    -0.05488030    0.02972335 -326.53315861
     atom    2 type  1   force =     0.05487823    0.02979503 -326.53314990
     atom    3 type  1   force =     0.00000322    0.07792591 -326.43724912
     atom    4 type  1   force =     0.00005615   -0.03208226 -326.57614491
     atom    5 type  1   force =     0.06894826   -0.04102841 -326.44176490
     atom    6 type  1   force =    -0.06900429   -0.04106502 -326.44186128
     atom    7 type  1   force =     0.02696423    0.01849808 -326.57313988
     atom    8 type  1   force =    -0.00006366   -0.06015838 -326.53572730
     atom    9 type  1   force =    -0.02689976    0.01852648 -326.57325997
     atom   10 type  1   force =     0.00047050    0.32912088 -110.79146439
     atom   11 type  1   force =     0.39977884    0.21819878 -110.07228792
     atom   12 type  1   force =    -0.40008615    0.21800920 -110.07240471
     atom   13 type  1   force =     0.46266467   -0.25787130 -110.99366969
     atom   14 type  1   force =    -0.00032727   -0.46726974 -110.09025665
     atom   15 type  1   force =    -0.46203633   -0.25798182 -110.99418754
     atom   16 type  1   force =    -0.30460197   -0.14567305 -110.77095671
     atom   17 type  1   force =     0.30449158   -0.14504565 -110.77179037
     atom   18 type  1   force =     0.00038848    0.55794691 -110.97520002
     atom   19 type  1   force =    -1.57711178   -0.59615764  107.28590522
     atom   20 type  1   force =     1.57633931   -0.59731090  107.28746887
     atom   21 type  1   force =     0.00120459    0.02746197  112.71553796
     atom   22 type  1   force =    -0.00039074   -0.01523835  104.30175778
     atom   23 type  1   force =     1.29567207   -1.06276975  107.29122445
     atom   24 type  1   force =    -1.29538711   -1.06430858  107.28893220
     atom   25 type  1   force =    -0.24481033    1.65301330  107.39417826
     atom   26 type  1   force =    -0.00036324   -0.00430147  102.97584878
     atom   27 type  1   force =     0.24491948    1.65339167  107.39369867
     atom   28 type  1   force =    -1.65240307    0.97899025  318.70055224
     atom   29 type  1   force =     1.65189329    0.97726789  318.69991310
     atom   30 type  1   force =     0.00059823    5.44928571  325.50218420
     atom   31 type  1   force =    -0.00313543   -0.50232214  319.22445501
     atom   32 type  1   force =     4.74871955   -2.67977521  325.29746669
     atom   33 type  1   force =    -4.74639687   -2.67928413  325.29381828
     atom   34 type  1   force =     0.45398310    0.21172108  319.17161985
     atom   35 type  1   force =     0.00113970   -2.00933089  318.75122921
     atom   36 type  1   force =    -0.45523521    0.20903828  319.17270967
     atom   37 type  2   force =     0.00002003    0.00105991   80.42917343
     The local contribution  to forces
     atom    1 type  1   force =     0.05557666   -0.03024287  326.51801110
     atom    2 type  1   force =    -0.05556780   -0.03038007  326.51800226
     atom    3 type  1   force =    -0.00001371   -0.07811102  326.42302668
     atom    4 type  1   force =    -0.00011030    0.03038078  326.56122571
     atom    5 type  1   force =    -0.06893758    0.04105195  326.42741671
     atom    6 type  1   force =     0.06904378    0.04113002  326.42755097
     atom    7 type  1   force =    -0.02550271   -0.01775600  326.55820326
     atom    8 type  1   force =     0.00012388    0.06084131  326.52050651
     atom    9 type  1   force =     0.02537383   -0.01781028  326.55836089
     atom   10 type  1   force =    -0.00050625   -0.32952554  110.70903742
     atom   11 type  1   force =    -0.39955952   -0.21830836  109.99248614
     atom   12 type  1   force =     0.39990037   -0.21803474  109.99262003
     atom   13 type  1   force =    -0.46100146    0.25694973  110.91366315
     atom   14 type  1   force =     0.00041859    0.46714588  110.01032088
     atom   15 type  1   force =     0.46027988    0.25707445  110.91418927
     atom   16 type  1   force =     0.30485842    0.14578306  110.68845559
     atom   17 type  1   force =    -0.30469246    0.14508067  110.68927434
     atom   18 type  1   force =    -0.00044575   -0.55596981  110.89527742
     atom   19 type  1   force =     1.56886146    0.59667236 -107.38481837
     atom   20 type  1   force =    -1.56815205    0.59778107 -107.38635961
     atom   21 type  1   force =    -0.00114328   -0.02753548 -112.81104856
     atom   22 type  1   force =     0.00031962    0.01530566 -104.40642329
     atom   23 type  1   force =    -1.29190587    1.05545103 -107.39012673
     atom   24 type  1   force =     1.29169115    1.05695747 -107.38787303
     atom   25 type  1   force =     0.24018235   -1.64614676 -107.49301324
     atom   26 type  1   force =     0.00036961    0.00412974 -103.08130308
     atom   27 type  1   force =    -0.24029803   -1.64660166 -107.49255119
     atom   28 type  1   force =     1.64800953   -0.97641212 -318.86317413
     atom   29 type  1   force =    -1.64751640   -0.97472744 -318.86251132
     atom   30 type  1   force =    -0.00057975   -5.46487882 -325.70067953
     atom   31 type  1   force =     0.00310022    0.49754983 -319.38263622
     atom   32 type  1   force =    -4.76255026    2.68769225 -325.49555755
     atom   33 type  1   force =     4.76026719    2.68720469 -325.49194544
     atom   34 type  1   force =    -0.44961522   -0.20907540 -319.32959409
     atom   35 type  1   force =    -0.00111342    2.00478817 -318.91436108
     atom   36 type  1   force =     0.45084639   -0.20642403 -319.33071473
     atom   37 type  2   force =    -0.00000863   -0.00102765  -80.43018594
     The core correction contribution to forces
     atom    1 type  1   force =     0.00003037   -0.00000684    0.00753537
     atom    2 type  1   force =    -0.00002996   -0.00000679    0.00753516
     atom    3 type  1   force =     0.00000018    0.00006957    0.00729059
     atom    4 type  1   force =     0.00000020    0.00001430    0.00729206
     atom    5 type  1   force =     0.00005038   -0.00002025    0.00729232
     atom    6 type  1   force =    -0.00005017   -0.00002034    0.00729255
     atom    7 type  1   force =    -0.00000185    0.00001047    0.00729400
     atom    8 type  1   force =     0.00000019    0.00004590    0.00754623
     atom    9 type  1   force =     0.00000228    0.00001043    0.00729411
     atom   10 type  1   force =     0.00000003   -0.00002669   -0.00155211
     atom   11 type  1   force =     0.00013513    0.00009816   -0.00178535
     atom   12 type  1   force =    -0.00013462    0.00009827   -0.00178499
     atom   13 type  1   force =    -0.00011281    0.00008122   -0.00175197
     atom   14 type  1   force =     0.00000041   -0.00014835   -0.00176798
     atom   15 type  1   force =     0.00011301    0.00008106   -0.00175145
     atom   16 type  1   force =     0.00003739    0.00002502   -0.00155197
     atom   17 type  1   force =    -0.00003714    0.00002493   -0.00155175
     atom   18 type  1   force =     0.00000022   -0.00013426   -0.00176530
     atom   19 type  1   force =     0.00021457    0.00003983    0.00174453
     atom   20 type  1   force =    -0.00021481    0.00003996    0.00174532
     atom   21 type  1   force =    -0.00000004   -0.00000257    0.00060750
     atom   22 type  1   force =     0.00000011   -0.00000351    0.00191312
     atom   23 type  1   force =    -0.00015249    0.00016087    0.00173232
     atom   24 type  1   force =     0.00015217    0.00016090    0.00173155
     atom   25 type  1   force =     0.00007144   -0.00021955    0.00175377
     atom   26 type  1   force =    -0.00000006   -0.00001132    0.00165091
     atom   27 type  1   force =    -0.00007158   -0.00021957    0.00175382
     atom   28 type  1   force =     0.00037951   -0.00023852   -0.00618080
     atom   29 type  1   force =    -0.00037988   -0.00023824   -0.00618086
     atom   30 type  1   force =    -0.00000028   -0.00009129   -0.00642083
     atom   31 type  1   force =    -0.00000032   -0.00004470   -0.00626183
     atom   32 type  1   force =    -0.00006324    0.00001917   -0.00639729
     atom   33 type  1   force =     0.00006230    0.00001899   -0.00639628
     atom   34 type  1   force =     0.00001996   -0.00000482   -0.00625450
     atom   35 type  1   force =    -0.00000037    0.00041046   -0.00617904
     atom   36 type  1   force =    -0.00002046   -0.00000481   -0.00625455
     atom   37 type  2   force =     0.00000021    0.00000037    0.00021456
     The Hubbard contrib.    to forces
     atom    1 type  1   force =     0.00000000    0.00000000    0.00000000
     atom    2 type  1   force =     0.00000000    0.00000000    0.00000000
     atom    3 type  1   force =     0.00000000    0.00000000    0.00000000
     atom    4 type  1   force =     0.00000000    0.00000000    0.00000000
     atom    5 type  1   force =     0.00000000    0.00000000    0.00000000
     atom    6 type  1   force =     0.00000000    0.00000000    0.00000000
     atom    7 type  1   force =     0.00000000    0.00000000    0.00000000
     atom    8 type  1   force =     0.00000000    0.00000000    0.00000000
     atom    9 type  1   force =     0.00000000    0.00000000    0.00000000
     atom   10 type  1   force =     0.00000000    0.00000000    0.00000000
     atom   11 type  1   force =     0.00000000    0.00000000    0.00000000
     atom   12 type  1   force =     0.00000000    0.00000000    0.00000000
     atom   13 type  1   force =     0.00000000    0.00000000    0.00000000
     atom   14 type  1   force =     0.00000000    0.00000000    0.00000000
     atom   15 type  1   force =     0.00000000    0.00000000    0.00000000
     atom   16 type  1   force =     0.00000000    0.00000000    0.00000000
     atom   17 type  1   force =     0.00000000    0.00000000    0.00000000
     atom   18 type  1   force =     0.00000000    0.00000000    0.00000000
     atom   19 type  1   force =     0.00000000    0.00000000    0.00000000
     atom   20 type  1   force =     0.00000000    0.00000000    0.00000000
     atom   21 type  1   force =     0.00000000    0.00000000    0.00000000
     atom   22 type  1   force =     0.00000000    0.00000000    0.00000000
     atom   23 type  1   force =     0.00000000    0.00000000    0.00000000
     atom   24 type  1   force =     0.00000000    0.00000000    0.00000000
     atom   25 type  1   force =     0.00000000    0.00000000    0.00000000
     atom   26 type  1   force =     0.00000000    0.00000000    0.00000000
     atom   27 type  1   force =     0.00000000    0.00000000    0.00000000
     atom   28 type  1   force =     0.00000000    0.00000000    0.00000000
     atom   29 type  1   force =     0.00000000    0.00000000    0.00000000
     atom   30 type  1   force =     0.00000000    0.00000000    0.00000000
     atom   31 type  1   force =     0.00000000    0.00000000    0.00000000
     atom   32 type  1   force =     0.00000000    0.00000000    0.00000000
     atom   33 type  1   force =     0.00000000    0.00000000    0.00000000
     atom   34 type  1   force =     0.00000000    0.00000000    0.00000000
     atom   35 type  1   force =     0.00000000    0.00000000    0.00000000
     atom   36 type  1   force =     0.00000000    0.00000000    0.00000000
     atom   37 type  2   force =     0.00000000    0.00000000    0.00000000
     The SCF correction term to forces
     atom    1 type  1   force =     0.00000000    0.00000000    0.00000000
     atom    2 type  1   force =    -0.00000000    0.00000000    0.00000000
     atom    3 type  1   force =     0.00000000   -0.00000000    0.00000000
     atom    4 type  1   force =     0.00000000   -0.00000000    0.00000000
     atom    5 type  1   force =    -0.00000000   -0.00000000    0.00000000
     atom    6 type  1   force =     0.00000000   -0.00000000    0.00000000
     atom    7 type  1   force =    -0.00000000   -0.00000000    0.00000000
     atom    8 type  1   force =    -0.00000000    0.00000000    0.00000000
     atom    9 type  1   force =     0.00000000   -0.00000000    0.00000000
     atom   10 type  1   force =     0.00000000    0.00000000    0.00000000
     atom   11 type  1   force =    -0.00000000   -0.00000000    0.00000000
     atom   12 type  1   force =     0.00000000   -0.00000000    0.00000000
     atom   13 type  1   force =    -0.00000000   -0.00000000    0.00000000
     atom   14 type  1   force =    -0.00000000    0.00000000    0.00000000
     atom   15 type  1   force =     0.00000000   -0.00000000    0.00000000
     atom   16 type  1   force =    -0.00000000    0.00000000    0.00000000
     atom   17 type  1   force =    -0.00000000    0.00000000    0.00000000
     atom   18 type  1   force =     0.00000000   -0.00000000    0.00000000
     atom   19 type  1   force =     0.00021706   -0.00009708    0.00012989
     atom   20 type  1   force =    -0.00015561   -0.00005069    0.00010646
     atom   21 type  1   force =    -0.00006213    0.00001493    0.00019328
     atom   22 type  1   force =     0.00006990   -0.00005887    0.00008085
     atom   23 type  1   force =    -0.00005173    0.00012657    0.00014636
     atom   24 type  1   force =    -0.00001743    0.00015900    0.00018651
     atom   25 type  1   force =     0.00017040   -0.00010832    0.00013552
     atom   26 type  1   force =    -0.00000874    0.00004937    0.00015524
     atom   27 type  1   force =    -0.00016263   -0.00003482    0.00015334
     atom   28 type  1   force =     0.00010846   -0.00005657   -0.00042424
     atom   29 type  1   force =    -0.00009123   -0.00002084   -0.00043759
     atom   30 type  1   force =    -0.00001481   -0.00004177   -0.00036451
     atom   31 type  1   force =     0.00004078   -0.00007664   -0.00040877
     atom   32 type  1   force =    -0.00006594    0.00003599   -0.00039644
     atom   33 type  1   force =     0.00003266    0.00003259   -0.00036358
     atom   34 type  1   force =     0.00008224   -0.00000111   -0.00038623
     atom   35 type  1   force =    -0.00002372    0.00009073   -0.00041675
     atom   36 type  1   force =    -0.00005798    0.00003371   -0.00036476
     atom   37 type  2   force =    -0.00000091   -0.00000448   -0.00020825

     Total force =     0.066548     Total SCF correction =     0.001388

     Writing all to output data dir ./output/pt-o-5p0.save/ :
     XML data file, charge density, pseudopotentials, collected wavefunctions

     init_run     :    337.63s CPU    340.85s WALL (       1 calls)
     electrons    :  54648.82s CPU  54973.52s WALL (       1 calls)
     forces       :    184.03s CPU    184.59s WALL (       1 calls)

     Called by init_run:
     wfcinit      :    327.51s CPU    330.14s WALL (       1 calls)
     wfcinit:atom :      1.05s CPU      1.59s WALL (      40 calls)
     wfcinit:wfcr :    322.25s CPU    323.73s WALL (      40 calls)
     potinit      :      5.03s CPU      5.21s WALL (       1 calls)
     hinit0       :      0.86s CPU      0.89s WALL (       1 calls)

     Called by electrons:
     c_bands      :  49006.97s CPU  49285.01s WALL (      56 calls)
     sum_band     :   5062.92s CPU   5095.62s WALL (      56 calls)
     v_of_rho     :    124.70s CPU    125.41s WALL (      57 calls)
     v_h          :      4.05s CPU      4.15s WALL (      57 calls)
     v_xc         :    118.65s CPU    119.18s WALL (      58 calls)
     newd         :    158.10s CPU    170.22s WALL (      57 calls)
     PAW_pot      :    187.20s CPU    187.55s WALL (      57 calls)
     mix_rho      :    107.29s CPU    107.66s WALL (      56 calls)

     Called by c_bands:
     init_us_2    :    323.25s CPU    324.67s WALL (    4560 calls)
     cegterg      :  48300.65s CPU  48575.10s WALL (    2240 calls)

     Called by sum_band:
     sum_band:wei :      1.29s CPU      1.29s WALL (      56 calls)
     sum_band:loo :   4768.68s CPU   4784.52s WALL (      56 calls)
     sum_band:buf :     64.44s CPU     65.07s WALL (    2240 calls)
     sum_band:ini :    158.60s CPU    159.22s WALL (    2240 calls)
     sum_band:cal :   2228.93s CPU   2231.78s WALL (    2240 calls)
     sum_band:bec :     11.88s CPU     11.92s WALL (    2240 calls)
     addusdens    :    282.53s CPU    299.33s WALL (      56 calls)
                                        0.00s GPU  (      56 calls)
     addusd:skk   :      3.09s CPU      4.88s WALL (     112 calls)
                                        0.00s GPU  (     112 calls)

     Called by *egterg:
     cdiaghg      :   2653.53s CPU   2656.44s WALL (    7439 calls)
     cegterg:over :   4916.84s CPU   4923.19s WALL (    5199 calls)
     cegterg:upda :   3141.13s CPU   3175.23s WALL (    5199 calls)
     cegterg:last :   6294.56s CPU   6303.94s WALL (    3359 calls)
     cdiaghg:chol :    137.18s CPU    137.40s WALL (    7439 calls)
     cdiaghg:inve :     41.14s CPU     41.22s WALL (    7439 calls)
     cdiaghg:para :    447.37s CPU    448.04s WALL (   14878 calls)
     h_psi        :  24920.02s CPU  25058.32s WALL (    7479 calls)
     s_psi        :   4464.17s CPU   4469.55s WALL (    7479 calls)
     g_psi        :     68.26s CPU     68.40s WALL (    5199 calls)

     Called by h_psi:
     h_psi:calbec :   4598.95s CPU   4605.53s WALL (    7479 calls)
     vloc_psi     :  15748.49s CPU  15823.98s WALL (    7479 calls)
     add_vuspsi   :   4477.44s CPU   4483.38s WALL (    7479 calls)

     General routines
     calbec       :   6990.61s CPU   7000.21s WALL (    9879 calls)
     fft          :     71.49s CPU     71.79s WALL (    1438 calls)
     ffts         :     43.01s CPU     43.16s WALL (    6991 calls)
     fftw         :  11700.21s CPU  11751.74s WALL ( 4456790 calls)
     interpolate  :      6.49s CPU      6.50s WALL (     114 calls)

     Parallel routines

     PAW routines
     PAW_pot      :    187.20s CPU    187.55s WALL (      57 calls)

     PWSCF        :     15h19m CPU     15h26m WALL


   This run was terminated on:   5:16:48  10Jun2026            

=------------------------------------------------------------------------------=
   JOB DONE.
=------------------------------------------------------------------------------=
