
     Program PWSCF v.7.4.1 starts on 28Jul2026 at 11:29:53 

     This program is part of the open-source Quantum ESPRESSO suite
     for quantum simulation of materials; please cite
         "P. Giannozzi et al., J. Phys.:Condens. Matter 21 395502 (2009);
         "P. Giannozzi et al., J. Phys.:Condens. Matter 29 465901 (2017);
         "P. Giannozzi et al., J. Chem. Phys. 152 154105 (2020);
          URL http://www.quantum-espresso.org", 
     in publications or presentations arising from this work. More details at
     http://www.quantum-espresso.org/quote

     Parallel version (MPI), running on    20 processors

     MPI processes distributed on     1 nodes
     456047 MiB available memory on the printing compute node when the environment starts

     Reading input from n-ni100-5.5A.in
Warning: card &CELL ignored
Warning: card / ignored

     Current dimensions of program PWSCF are:
     Max number of different atomic species (ntypx) = 10
     Max number of k-points (npk) =  40000
     Max angular momentum in pseudopotentials (lmaxx) =  4
     file N.pbe-n-kjpaw_psl.1.0.0.UPF: wavefunction(s)  2S renormalized

     IMPORTANT: XC functional enforced from input :
     Exchange-correlation= RPBE
                           (   1   4  44   4   0   0   0)
     Any further DFT definition will be discarded
     Please, verify this is what you really want

     Message from routine setup:
     using ibrav=0 with symmetry is DISCOURAGED, use correct ibrav instead

     R & G space division:  proc/nbgrp/npool/nimage =      20
     Subspace diagonalization in iterative solution of the eigenvalue problem:
     one sub-group per band group will be used
     custom distributed-memory algorithm (size of sub-group:  2*  2 procs)


     Parallelization info
     --------------------
     sticks:   dense  smooth     PW     G-vecs:    dense   smooth      PW
     Min         213      85     24                53165    13445    2006
     Max         215      86     25                53176    13460    2023
     Sum        4281    1709    489              1063469   269015   40189

     Using Slab Decomposition



     bravais-lattice index     =            0
     lattice parameter (alat)  =       9.4658  a.u.
     unit-cell volume          =    4286.0189 (a.u.)^3
     number of atoms/cell      =           17
     number of atomic types    =            2
     number of electrons       =       293.00
     number of Kohn-Sham states=          176
     kinetic-energy cutoff     =      60.0000  Ry
     charge density cutoff     =     600.0000  Ry
     scf convergence threshold =      1.0E-06
     mixing beta               =       0.5000
     number of iterations used =           20  TF        mixing
     Exchange-correlation= RPBE
                           (   1   4  44   4   0   0   0)

     celldm(1)=   9.465780  celldm(2)=   0.000000  celldm(3)=   0.000000
     celldm(4)=   0.000000  celldm(5)=   0.000000  celldm(6)=   0.000000

     crystal axes: (cart. coord. in units of alat)
               a(1) = (   1.000000   0.000000   0.000000 )  
               a(2) = (   0.000000   1.000000   0.000000 )  
               a(3) = (   0.000000   0.000000   5.053413 )  

     reciprocal axes: (cart. coord. in units 2 pi/alat)
               b(1) = (  1.000000  0.000000  0.000000 )  
               b(2) = (  0.000000  1.000000  0.000000 )  
               b(3) = (  0.000000  0.000000  0.197886 )  


     PseudoPot. # 1 for Ni read from file:
     ./pseudo/ni_pbe_v1.4.uspp.F.UPF
     MD5 check sum: 849734e1fde98a49bebfeab896d3cd68
     Pseudo is Ultrasoft + core correction, Zval = 18.0
     Generated by new atomic code, or converted to UPF format
     Using radial grid of  865 points,  6 beta functions with: 
                l(1) =   0
                l(2) =   0
                l(3) =   1
                l(4) =   1
                l(5) =   2
                l(6) =   2
     Q(r) pseudized with 10 coefficients,  rinner =    0.980   0.980   0.980
                                                       0.980   0.980

     PseudoPot. # 2 for N  read from file:
     ./pseudo/N.pbe-n-kjpaw_psl.1.0.0.UPF
     MD5 check sum: c39a4aec4ba7352d52c1696935a53a89
     Pseudo is Projector augmented-wave + core cor, Zval =  5.0
     Generated using &quot;atomic&quot; code by A. Dal Corso  v.6.3
     Shape of augmentation charge: PSQ
     Using radial grid of 1085 points,  4 beta functions with: 
                l(1) =   0
                l(2) =   0
                l(3) =   1
                l(4) =   1
     Q(r) pseudized with 0 coefficients 


     atomic species   valence    mass     pseudopotential
     Ni               18.00    58.69340     Ni( 1.00)
     N                 5.00    14.00700     N ( 1.00)

     Starting magnetic structure 
     atomic species   magnetization
     Ni              0.500
     N               0.000

      8 Sym. Ops. (no inversion) found ( 6 have fractional translation)


                                    s                        frac. trans.

      isym =  1     identity                                     

 cryst.   s( 1) = (     1          0          0      )
                  (     0          1          0      )
                  (     0          0          1      )

 cart.    s( 1) = (  1.0000000  0.0000000  0.0000000 )
                  (  0.0000000  1.0000000  0.0000000 )
                  (  0.0000000  0.0000000  1.0000000 )


      isym =  2     180 deg rotation - cart. axis [0,0,1]        

 cryst.   s( 2) = (    -1          0          0      )    f =( -0.5000000 )
                  (     0         -1          0      )       ( -0.5000000 )
                  (     0          0          1      )       (  0.0000000 )

 cart.    s( 2) = ( -1.0000000  0.0000000  0.0000000 )    f =( -0.5000000 )
                  (  0.0000000 -1.0000000  0.0000000 )       ( -0.5000000 )
                  (  0.0000000  0.0000000  1.0000000 )       (  0.0000000 )


      isym =  3      90 deg rotation - cart. axis [0,0,-1]       

 cryst.   s( 3) = (     0         -1          0      )    f =(  0.0000000 )
                  (     1          0          0      )       ( -0.5000000 )
                  (     0          0          1      )       (  0.0000000 )

 cart.    s( 3) = (  0.0000000  1.0000000  0.0000000 )    f =(  0.0000000 )
                  ( -1.0000000  0.0000000  0.0000000 )       ( -0.5000000 )
                  (  0.0000000  0.0000000  1.0000000 )       (  0.0000000 )


      isym =  4      90 deg rotation - cart. axis [0,0,1]        

 cryst.   s( 4) = (     0          1          0      )    f =( -0.5000000 )
                  (    -1          0          0      )       (  0.0000000 )
                  (     0          0          1      )       (  0.0000000 )

 cart.    s( 4) = (  0.0000000 -1.0000000  0.0000000 )    f =( -0.5000000 )
                  (  1.0000000  0.0000000  0.0000000 )       (  0.0000000 )
                  (  0.0000000  0.0000000  1.0000000 )       (  0.0000000 )


      isym =  5     inv. 180 deg rotation - cart. axis [0,1,0]   

 cryst.   s( 5) = (     1          0          0      )    f =(  0.0000000 )
                  (     0         -1          0      )       ( -0.5000000 )
                  (     0          0          1      )       (  0.0000000 )

 cart.    s( 5) = (  1.0000000  0.0000000  0.0000000 )    f =(  0.0000000 )
                  (  0.0000000 -1.0000000  0.0000000 )       ( -0.5000000 )
                  (  0.0000000  0.0000000  1.0000000 )       (  0.0000000 )


      isym =  6     inv. 180 deg rotation - cart. axis [1,0,0]   

 cryst.   s( 6) = (    -1          0          0      )    f =( -0.5000000 )
                  (     0          1          0      )       (  0.0000000 )
                  (     0          0          1      )       (  0.0000000 )

 cart.    s( 6) = ( -1.0000000  0.0000000  0.0000000 )    f =( -0.5000000 )
                  (  0.0000000  1.0000000  0.0000000 )       (  0.0000000 )
                  (  0.0000000  0.0000000  1.0000000 )       (  0.0000000 )


      isym =  7     inv. 180 deg rotation - cart. axis [1,1,0]   

 cryst.   s( 7) = (     0         -1          0      )    f =( -0.5000000 )
                  (    -1          0          0      )       ( -0.5000000 )
                  (     0          0          1      )       (  0.0000000 )

 cart.    s( 7) = (  0.0000000 -1.0000000  0.0000000 )    f =( -0.5000000 )
                  ( -1.0000000  0.0000000  0.0000000 )       ( -0.5000000 )
                  (  0.0000000  0.0000000  1.0000000 )       (  0.0000000 )


      isym =  8     inv. 180 deg rotation - cart. axis [1,-1,0]  

 cryst.   s( 8) = (     0          1          0      )
                  (     1          0          0      )
                  (     0          0          1      )

 cart.    s( 8) = (  0.0000000  1.0000000  0.0000000 )
                  (  1.0000000  0.0000000  0.0000000 )
                  (  0.0000000  0.0000000  1.0000000 )


   Cartesian axes

     site n.     atom                  positions (alat units)
         1        Ni     tau(   1) = (   0.2500000   0.2500000   0.3992753  )
         2        Ni     tau(   2) = (   0.7500000   0.2500000   0.3992753  )
         3        Ni     tau(   3) = (   0.2500000   0.7500000   0.3992753  )
         4        Ni     tau(   4) = (   0.7500000   0.7500000   0.3992753  )
         5        Ni     tau(   5) = (   0.0000000   0.0000000   0.7528287  )
         6        Ni     tau(   6) = (   0.5000000   0.0000000   0.7528287  )
         7        Ni     tau(   7) = (   0.0000000   0.5000000   0.7528287  )
         8        Ni     tau(   8) = (   0.5000000   0.5000000   0.7528287  )
         9        Ni     tau(   9) = (   0.2500000   0.2500000   1.1013438  )
        10        Ni     tau(  10) = (   0.7500000   0.2500000   1.1076682  )
        11        Ni     tau(  11) = (   0.2500000   0.7500000   1.1076682  )
        12        Ni     tau(  12) = (   0.7500000   0.7500000   1.1167030  )
        13        Ni     tau(  13) = (  -0.0023997  -0.0023997   1.4715263  )
        14        Ni     tau(  14) = (   0.5023997  -0.0023997   1.4715263  )
        15        Ni     tau(  15) = (  -0.0023997   0.5023997   1.4715263  )
        16        Ni     tau(  16) = (   0.5023997   0.5023997   1.4715263  )
        17        N      tau(  17) = (   0.2500000   0.2500000   2.5695334  )

     Fixed atoms
     site n.  direction
         1    0   0   0
         2    0   0   0
         3    0   0   0
         4    0   0   0
         5    0   0   0
         6    0   0   0
         7    0   0   0
         8    0   0   0
         9    1   1   1
        10    1   1   1
        11    1   1   1
        12    1   1   1
        13    1   1   1
        14    1   1   1
        15    1   1   1
        16    1   1   1
        17    0   0   0

   Crystallographic axes

     site n.     atom                  positions (cryst. coord.)
         1        Ni     tau(   1) = (  0.2500000  0.2500000  0.0790110  )
         2        Ni     tau(   2) = (  0.7500000  0.2500000  0.0790110  )
         3        Ni     tau(   3) = (  0.2500000  0.7500000  0.0790110  )
         4        Ni     tau(   4) = (  0.7500000  0.7500000  0.0790110  )
         5        Ni     tau(   5) = (  0.0000000  0.0000000  0.1489743  )
         6        Ni     tau(   6) = (  0.5000000  0.0000000  0.1489743  )
         7        Ni     tau(   7) = (  0.0000000  0.5000000  0.1489743  )
         8        Ni     tau(   8) = (  0.5000000  0.5000000  0.1489743  )
         9        Ni     tau(   9) = (  0.2500000  0.2500000  0.2179406  )
        10        Ni     tau(  10) = (  0.7500000  0.2500000  0.2191921  )
        11        Ni     tau(  11) = (  0.2500000  0.7500000  0.2191921  )
        12        Ni     tau(  12) = (  0.7500000  0.7500000  0.2209799  )
        13        Ni     tau(  13) = ( -0.0023997 -0.0023997  0.2911945  )
        14        Ni     tau(  14) = (  0.5023997 -0.0023997  0.2911945  )
        15        Ni     tau(  15) = ( -0.0023997  0.5023997  0.2911945  )
        16        Ni     tau(  16) = (  0.5023997  0.5023997  0.2911945  )
        17        N      tau(  17) = (  0.2500000  0.2500000  0.5084748  )

     number of k points=    15  Fermi-Dirac smearing, width (Ry)=  0.0037
                       cart. coord. in units 2pi/alat
        k(    1) = (   0.0000000   0.0000000   0.0000000), wk =   0.0156250
        k(    2) = (   0.0000000   0.1250000   0.0000000), wk =   0.0625000
        k(    3) = (   0.0000000   0.2500000   0.0000000), wk =   0.0625000
        k(    4) = (   0.0000000   0.3750000   0.0000000), wk =   0.0625000
        k(    5) = (   0.0000000  -0.5000000   0.0000000), wk =   0.0312500
        k(    6) = (   0.1250000   0.1250000   0.0000000), wk =   0.0625000
        k(    7) = (   0.1250000   0.2500000   0.0000000), wk =   0.1250000
        k(    8) = (   0.1250000   0.3750000   0.0000000), wk =   0.1250000
        k(    9) = (   0.1250000  -0.5000000   0.0000000), wk =   0.0625000
        k(   10) = (   0.2500000   0.2500000   0.0000000), wk =   0.0625000
        k(   11) = (   0.2500000   0.3750000   0.0000000), wk =   0.1250000
        k(   12) = (   0.2500000  -0.5000000   0.0000000), wk =   0.0625000
        k(   13) = (   0.3750000   0.3750000   0.0000000), wk =   0.0625000
        k(   14) = (   0.3750000  -0.5000000   0.0000000), wk =   0.0625000
        k(   15) = (  -0.5000000  -0.5000000   0.0000000), wk =   0.0156250

                       cryst. coord.
        k(    1) = (   0.0000000   0.0000000   0.0000000), wk =   0.0156250
        k(    2) = (   0.0000000   0.1250000   0.0000000), wk =   0.0625000
        k(    3) = (   0.0000000   0.2500000   0.0000000), wk =   0.0625000
        k(    4) = (   0.0000000   0.3750000   0.0000000), wk =   0.0625000
        k(    5) = (   0.0000000  -0.5000000   0.0000000), wk =   0.0312500
        k(    6) = (   0.1250000   0.1250000   0.0000000), wk =   0.0625000
        k(    7) = (   0.1250000   0.2500000   0.0000000), wk =   0.1250000
        k(    8) = (   0.1250000   0.3750000   0.0000000), wk =   0.1250000
        k(    9) = (   0.1250000  -0.5000000   0.0000000), wk =   0.0625000
        k(   10) = (   0.2500000   0.2500000   0.0000000), wk =   0.0625000
        k(   11) = (   0.2500000   0.3750000   0.0000000), wk =   0.1250000
        k(   12) = (   0.2500000  -0.5000000   0.0000000), wk =   0.0625000
        k(   13) = (   0.3750000   0.3750000   0.0000000), wk =   0.0625000
        k(   14) = (   0.3750000  -0.5000000   0.0000000), wk =   0.0625000
        k(   15) = (  -0.5000000  -0.5000000   0.0000000), wk =   0.0156250

     Dense  grid:  1063469 G-vectors     FFT dimensions: (  80,  80, 375)

     Smooth grid:   269015 G-vectors     FFT dimensions: (  48,  48, 240)

     Dynamical RAM for                 wfc:       4.51 MB

     Dynamical RAM for     wfc (w. buffer):     139.95 MB

     Dynamical RAM for           str. fact:       1.62 MB

     Dynamical RAM for           local pot:       0.00 MB

     Dynamical RAM for          nlocal pot:       7.59 MB

     Dynamical RAM for                qrad:       3.93 MB

     Dynamical RAM for          rho,v,vnew:      10.43 MB

     Dynamical RAM for               rhoin:       3.48 MB

     Dynamical RAM for            rho*nmix:      64.91 MB

     Dynamical RAM for           G-vectors:       3.15 MB

     Dynamical RAM for          h,s,v(r/c):       0.35 MB

     Dynamical RAM for          <psi|beta>:       0.79 MB

     Dynamical RAM for      wfcinit/wfcrot:       9.74 MB

     Dynamical RAM for           addusdens:     164.71 MB

     Dynamical RAM for          addusforce:     189.17 MB

     Dynamical RAM for         addusstress:     164.30 MB

     Estimated static dynamical RAM per process >     178.15 MB

     Estimated max dynamical RAM per process >     432.23 MB

     Estimated total dynamical RAM >       8.44 GB

     Check: negative core charge=   -0.000005
     Generating pointlists ...
     new r_m :   0.2043 (alat units)  1.9336 (a.u.) for type    1
     new r_m :   0.4125 (alat units)  3.9046 (a.u.) for type    2

     Initial potential from superposition of free atoms

     starting charge     261.0000, renormalised to     293.0000

     negative rho (up, down):  2.237E-04 7.440E-05
     Starting wfcs are  212 randomized atomic wfcs
     Checking if some PAW data can be deallocated... 
       PAW data deallocated on   19 nodes for type:  2

     total cpu time spent up to now is       37.9 secs

     per-process dynamical memory:   223.4 Mb

     Self-consistent Calculation

     iteration #  1     ecut=    60.00 Ry     beta= 0.50
     CG style diagonalization

---- Real-time Memory Report at c_bands before calling an iterative solver
           246 MiB given to the printing process from OS
           218 MiB allocation reported by mallinfo(arena+hblkhd)
        452195 MiB available memory on the node where the printing process lives
------------------
     c_bands:  5 eigenvalues not converged
     c_bands:  4 eigenvalues not converged
     c_bands:  2 eigenvalues not converged
     c_bands:  3 eigenvalues not converged
     c_bands:  3 eigenvalues not converged
     c_bands:  4 eigenvalues not converged
     c_bands:  5 eigenvalues not converged
     c_bands:  1 eigenvalues not converged
     c_bands:  3 eigenvalues not converged
     c_bands:  1 eigenvalues not converged
     c_bands:  3 eigenvalues not converged
     c_bands:  4 eigenvalues not converged
     c_bands:  4 eigenvalues not converged
     c_bands:  4 eigenvalues not converged
     c_bands:  4 eigenvalues not converged
     c_bands:  2 eigenvalues not converged
     c_bands:  2 eigenvalues not converged
     c_bands:  4 eigenvalues not converged
     c_bands:  3 eigenvalues not converged
     c_bands:  2 eigenvalues not converged
     c_bands:  4 eigenvalues not converged
     c_bands:  2 eigenvalues not converged
     c_bands:  5 eigenvalues not converged
     c_bands:  3 eigenvalues not converged
     c_bands:  5 eigenvalues not converged
     ethr =  1.00E-04,  avg # of iterations = 21.4

     negative rho (up, down):  1.912E-01 2.084E-01

     total cpu time spent up to now is     2546.6 secs

     total energy              =   -5319.63056934 Ry
     estimated scf accuracy    <    2192.49232203 Ry

     total magnetization       =    19.96 Bohr mag/cell
     absolute magnetization    =    21.02 Bohr mag/cell

     iteration #  2     ecut=    60.00 Ry     beta= 0.50
     CG style diagonalization

---- Real-time Memory Report at c_bands before calling an iterative solver
           425 MiB given to the printing process from OS
           262 MiB allocation reported by mallinfo(arena+hblkhd)
        450806 MiB available memory on the node where the printing process lives
------------------
     ethr =  1.00E-02,  avg # of iterations =  6.6

     negative rho (up, down):  9.766E-02 8.578E-02

     total cpu time spent up to now is     3270.6 secs

     total energy              =   -5492.96645685 Ry
     estimated scf accuracy    <     213.80399984 Ry

     total magnetization       =    -0.23 Bohr mag/cell
     absolute magnetization    =     7.50 Bohr mag/cell

     iteration #  3     ecut=    60.00 Ry     beta= 0.50
     CG style diagonalization

---- Real-time Memory Report at c_bands before calling an iterative solver
           431 MiB given to the printing process from OS
           262 MiB allocation reported by mallinfo(arena+hblkhd)
        450604 MiB available memory on the node where the printing process lives
------------------
     ethr =  1.00E-02,  avg # of iterations =  4.1

     negative rho (up, down):  7.201E-02 6.334E-02

     total cpu time spent up to now is     3675.8 secs

     total energy              =   -5517.98605016 Ry
     estimated scf accuracy    <      68.46314484 Ry

     total magnetization       =    20.89 Bohr mag/cell
     absolute magnetization    =    24.81 Bohr mag/cell

     iteration #  4     ecut=    60.00 Ry     beta= 0.50
     CG style diagonalization

---- Real-time Memory Report at c_bands before calling an iterative solver
           432 MiB given to the printing process from OS
           263 MiB allocation reported by mallinfo(arena+hblkhd)
        450608 MiB available memory on the node where the printing process lives
------------------
     ethr =  1.00E-02,  avg # of iterations =  3.1

     negative rho (up, down):  5.461E-02 4.704E-02

     total cpu time spent up to now is     3969.4 secs

     total energy              =   -5518.78132218 Ry
     estimated scf accuracy    <      32.78415302 Ry

     total magnetization       =    15.06 Bohr mag/cell
     absolute magnetization    =    19.17 Bohr mag/cell

     iteration #  5     ecut=    60.00 Ry     beta= 0.50
     CG style diagonalization

---- Real-time Memory Report at c_bands before calling an iterative solver
           433 MiB given to the printing process from OS
           264 MiB allocation reported by mallinfo(arena+hblkhd)
        450631 MiB available memory on the node where the printing process lives
------------------
     ethr =  1.00E-02,  avg # of iterations =  3.1

     negative rho (up, down):  3.422E-02 3.652E-02

     total cpu time spent up to now is     4259.2 secs

     total energy              =   -5519.55363480 Ry
     estimated scf accuracy    <     138.86859783 Ry

     total magnetization       =    14.59 Bohr mag/cell
     absolute magnetization    =    18.43 Bohr mag/cell

     iteration #  6     ecut=    60.00 Ry     beta= 0.50
     CG style diagonalization

---- Real-time Memory Report at c_bands before calling an iterative solver
           434 MiB given to the printing process from OS
           265 MiB allocation reported by mallinfo(arena+hblkhd)
        450639 MiB available memory on the node where the printing process lives
------------------
     ethr =  1.00E-02,  avg # of iterations =  3.1

     negative rho (up, down):  3.382E-02 3.615E-02

     total cpu time spent up to now is     4540.9 secs

     total energy              =   -5521.59330380 Ry
     estimated scf accuracy    <     165.77360844 Ry

     total magnetization       =     2.43 Bohr mag/cell
     absolute magnetization    =     5.91 Bohr mag/cell

     iteration #  7     ecut=    60.00 Ry     beta= 0.50
     CG style diagonalization

---- Real-time Memory Report at c_bands before calling an iterative solver
           435 MiB given to the printing process from OS
           266 MiB allocation reported by mallinfo(arena+hblkhd)
        450637 MiB available memory on the node where the printing process lives
------------------
     ethr =  1.00E-02,  avg # of iterations =  3.0

     negative rho (up, down):  3.477E-02 3.581E-02

     total cpu time spent up to now is     4816.5 secs

     total energy              =   -5522.14933157 Ry
     estimated scf accuracy    <      55.85699632 Ry

     total magnetization       =     6.89 Bohr mag/cell
     absolute magnetization    =     9.43 Bohr mag/cell

     iteration #  8     ecut=    60.00 Ry     beta= 0.50
     CG style diagonalization

---- Real-time Memory Report at c_bands before calling an iterative solver
           435 MiB given to the printing process from OS
           267 MiB allocation reported by mallinfo(arena+hblkhd)
        450653 MiB available memory on the node where the printing process lives
------------------
     ethr =  1.00E-02,  avg # of iterations =  3.0

     negative rho (up, down):  3.633E-02 3.434E-02

     total cpu time spent up to now is     5093.4 secs

     total energy              =   -5521.11386148 Ry
     estimated scf accuracy    <      16.73323253 Ry

     total magnetization       =    13.28 Bohr mag/cell
     absolute magnetization    =    15.80 Bohr mag/cell

     iteration #  9     ecut=    60.00 Ry     beta= 0.50
     CG style diagonalization

---- Real-time Memory Report at c_bands before calling an iterative solver
           436 MiB given to the printing process from OS
           268 MiB allocation reported by mallinfo(arena+hblkhd)
        450640 MiB available memory on the node where the printing process lives
------------------
     ethr =  5.71E-03,  avg # of iterations =  3.0

     negative rho (up, down):  3.253E-02 3.107E-02

     total cpu time spent up to now is     5369.6 secs

     total energy              =   -5521.71333131 Ry
     estimated scf accuracy    <      18.74966901 Ry

     total magnetization       =     9.66 Bohr mag/cell
     absolute magnetization    =    12.77 Bohr mag/cell

     iteration # 10     ecut=    60.00 Ry     beta= 0.50
     CG style diagonalization

---- Real-time Memory Report at c_bands before calling an iterative solver
           437 MiB given to the printing process from OS
           269 MiB allocation reported by mallinfo(arena+hblkhd)
        450644 MiB available memory on the node where the printing process lives
------------------
     ethr =  5.71E-03,  avg # of iterations =  3.0

     negative rho (up, down):  3.164E-02 3.069E-02

     total cpu time spent up to now is     5652.5 secs

     total energy              =   -5521.91249813 Ry
     estimated scf accuracy    <      18.02578431 Ry

     total magnetization       =     8.77 Bohr mag/cell
     absolute magnetization    =    10.98 Bohr mag/cell

     iteration # 11     ecut=    60.00 Ry     beta= 0.50
     CG style diagonalization

---- Real-time Memory Report at c_bands before calling an iterative solver
           438 MiB given to the printing process from OS
           270 MiB allocation reported by mallinfo(arena+hblkhd)
        450643 MiB available memory on the node where the printing process lives
------------------
     ethr =  5.71E-03,  avg # of iterations =  3.0

     negative rho (up, down):  3.038E-02 3.014E-02

     total cpu time spent up to now is     5928.2 secs

     total energy              =   -5521.99519551 Ry
     estimated scf accuracy    <      19.57899330 Ry

     total magnetization       =     8.45 Bohr mag/cell
     absolute magnetization    =    10.54 Bohr mag/cell

     iteration # 12     ecut=    60.00 Ry     beta= 0.50
     CG style diagonalization

---- Real-time Memory Report at c_bands before calling an iterative solver
           439 MiB given to the printing process from OS
           271 MiB allocation reported by mallinfo(arena+hblkhd)
        450636 MiB available memory on the node where the printing process lives
------------------
     ethr =  5.71E-03,  avg # of iterations =  3.0

     negative rho (up, down):  2.988E-02 2.998E-02

     total cpu time spent up to now is     6207.1 secs

     total energy              =   -5521.99904155 Ry
     estimated scf accuracy    <      25.33127441 Ry

     total magnetization       =     7.77 Bohr mag/cell
     absolute magnetization    =     9.55 Bohr mag/cell

     iteration # 13     ecut=    60.00 Ry     beta= 0.50
     CG style diagonalization

---- Real-time Memory Report at c_bands before calling an iterative solver
           440 MiB given to the printing process from OS
           272 MiB allocation reported by mallinfo(arena+hblkhd)
        450624 MiB available memory on the node where the printing process lives
------------------
     ethr =  5.71E-03,  avg # of iterations =  3.0

     negative rho (up, down):  3.008E-02 3.008E-02

     total cpu time spent up to now is     6487.0 secs

     total energy              =   -5521.90180030 Ry
     estimated scf accuracy    <      26.80238402 Ry

     total magnetization       =     7.32 Bohr mag/cell
     absolute magnetization    =     8.84 Bohr mag/cell

     iteration # 14     ecut=    60.00 Ry     beta= 0.50
     CG style diagonalization

---- Real-time Memory Report at c_bands before calling an iterative solver
           441 MiB given to the printing process from OS
           272 MiB allocation reported by mallinfo(arena+hblkhd)
        450604 MiB available memory on the node where the printing process lives
------------------
     ethr =  5.71E-03,  avg # of iterations =  3.0

     negative rho (up, down):  3.112E-02 3.069E-02

     total cpu time spent up to now is     6762.2 secs

     total energy              =   -5521.78146649 Ry
     estimated scf accuracy    <      21.89066175 Ry

     total magnetization       =     7.16 Bohr mag/cell
     absolute magnetization    =     8.38 Bohr mag/cell

     iteration # 15     ecut=    60.00 Ry     beta= 0.50
     CG style diagonalization

---- Real-time Memory Report at c_bands before calling an iterative solver
           442 MiB given to the printing process from OS
           273 MiB allocation reported by mallinfo(arena+hblkhd)
        450606 MiB available memory on the node where the printing process lives
------------------
     ethr =  5.71E-03,  avg # of iterations =  3.0

     negative rho (up, down):  3.504E-02 3.408E-02

     total cpu time spent up to now is     7038.5 secs

     total energy              =   -5521.63795432 Ry
     estimated scf accuracy    <      19.71053240 Ry

     total magnetization       =     7.09 Bohr mag/cell
     absolute magnetization    =     8.08 Bohr mag/cell

     iteration # 16     ecut=    60.00 Ry     beta= 0.50
     CG style diagonalization

---- Real-time Memory Report at c_bands before calling an iterative solver
           443 MiB given to the printing process from OS
           274 MiB allocation reported by mallinfo(arena+hblkhd)
        450600 MiB available memory on the node where the printing process lives
------------------
     ethr =  5.71E-03,  avg # of iterations =  3.0

     negative rho (up, down):  1.104E-01 1.196E-01

     total cpu time spent up to now is     7313.3 secs

     total energy              =   -5521.01439884 Ry
     estimated scf accuracy    <      26.53829390 Ry

     total magnetization       =     7.14 Bohr mag/cell
     absolute magnetization    =     7.99 Bohr mag/cell

     iteration # 17     ecut=    60.00 Ry     beta= 0.50
     CG style diagonalization

---- Real-time Memory Report at c_bands before calling an iterative solver
           444 MiB given to the printing process from OS
           275 MiB allocation reported by mallinfo(arena+hblkhd)
        450624 MiB available memory on the node where the printing process lives
------------------
     ethr =  5.71E-03,  avg # of iterations =  3.0

     negative rho (up, down):  4.752E-02 4.740E-02

     total cpu time spent up to now is     7589.2 secs

     total energy              =   -5520.92077897 Ry
     estimated scf accuracy    <      30.08161127 Ry

     total magnetization       =    11.71 Bohr mag/cell
     absolute magnetization    =    12.33 Bohr mag/cell

     iteration # 18     ecut=    60.00 Ry     beta= 0.50
     CG style diagonalization

---- Real-time Memory Report at c_bands before calling an iterative solver
           445 MiB given to the printing process from OS
           276 MiB allocation reported by mallinfo(arena+hblkhd)
        450613 MiB available memory on the node where the printing process lives
------------------
     ethr =  5.71E-03,  avg # of iterations =  3.0

     negative rho (up, down):  5.605E-02 5.561E-02

     total cpu time spent up to now is     7865.1 secs

     total energy              =   -5520.88985305 Ry
     estimated scf accuracy    <      25.78190503 Ry

     total magnetization       =     9.00 Bohr mag/cell
     absolute magnetization    =    10.31 Bohr mag/cell

     iteration # 19     ecut=    60.00 Ry     beta= 0.50
     CG style diagonalization

---- Real-time Memory Report at c_bands before calling an iterative solver
           445 MiB given to the printing process from OS
           277 MiB allocation reported by mallinfo(arena+hblkhd)
        450601 MiB available memory on the node where the printing process lives
------------------
     ethr =  5.71E-03,  avg # of iterations =  3.0

     negative rho (up, down):  6.522E-02 6.317E-02

     total cpu time spent up to now is     8139.9 secs

     total energy              =   -5520.84625429 Ry
     estimated scf accuracy    <      15.48081205 Ry

     total magnetization       =    13.84 Bohr mag/cell
     absolute magnetization    =    15.25 Bohr mag/cell

     iteration # 20     ecut=    60.00 Ry     beta= 0.50
     CG style diagonalization

---- Real-time Memory Report at c_bands before calling an iterative solver
           446 MiB given to the printing process from OS
           278 MiB allocation reported by mallinfo(arena+hblkhd)
        450594 MiB available memory on the node where the printing process lives
------------------
     ethr =  5.28E-03,  avg # of iterations =  3.0

     negative rho (up, down):  7.294E-02 6.974E-02

     total cpu time spent up to now is     8414.7 secs

     total energy              =   -5521.39661648 Ry
     estimated scf accuracy    <      15.32605375 Ry

     total magnetization       =     9.61 Bohr mag/cell
     absolute magnetization    =    11.71 Bohr mag/cell

     iteration # 21     ecut=    60.00 Ry     beta= 0.50
     CG style diagonalization

---- Real-time Memory Report at c_bands before calling an iterative solver
           447 MiB given to the printing process from OS
           279 MiB allocation reported by mallinfo(arena+hblkhd)
        450595 MiB available memory on the node where the printing process lives
------------------
     ethr =  5.23E-03,  avg # of iterations =  3.0

     negative rho (up, down):  7.391E-02 7.071E-02

     total cpu time spent up to now is     8690.4 secs

     total energy              =   -5521.29451033 Ry
     estimated scf accuracy    <      13.83006835 Ry

     total magnetization       =     9.47 Bohr mag/cell
     absolute magnetization    =    11.95 Bohr mag/cell

     iteration # 22     ecut=    60.00 Ry     beta= 0.50
     CG style diagonalization

---- Real-time Memory Report at c_bands before calling an iterative solver
           448 MiB given to the printing process from OS
           280 MiB allocation reported by mallinfo(arena+hblkhd)
        450588 MiB available memory on the node where the printing process lives
------------------
     ethr =  4.72E-03,  avg # of iterations =  3.0

     negative rho (up, down):  7.251E-02 6.929E-02

     total cpu time spent up to now is     8965.3 secs

     total energy              =   -5521.26049928 Ry
     estimated scf accuracy    <      13.25485096 Ry

     total magnetization       =     9.30 Bohr mag/cell
     absolute magnetization    =    11.77 Bohr mag/cell

     iteration # 23     ecut=    60.00 Ry     beta= 0.50
     CG style diagonalization

---- Real-time Memory Report at c_bands before calling an iterative solver
           449 MiB given to the printing process from OS
           280 MiB allocation reported by mallinfo(arena+hblkhd)
        450583 MiB available memory on the node where the printing process lives
------------------
     ethr =  4.52E-03,  avg # of iterations =  3.0

     negative rho (up, down):  8.912E-02 8.483E-02

     total cpu time spent up to now is     9241.2 secs

     total energy              =   -5520.99228073 Ry
     estimated scf accuracy    <      13.17556789 Ry

     total magnetization       =     9.29 Bohr mag/cell
     absolute magnetization    =    11.73 Bohr mag/cell

     iteration # 24     ecut=    60.00 Ry     beta= 0.50
     CG style diagonalization

---- Real-time Memory Report at c_bands before calling an iterative solver
           449 MiB given to the printing process from OS
           280 MiB allocation reported by mallinfo(arena+hblkhd)
        450565 MiB available memory on the node where the printing process lives
------------------
     ethr =  4.50E-03,  avg # of iterations =  3.0

     negative rho (up, down):  8.908E-02 8.316E-02

     total cpu time spent up to now is     9516.4 secs

     total energy              =   -5521.02975700 Ry
     estimated scf accuracy    <       2.02631601 Ry

     total magnetization       =     9.75 Bohr mag/cell
     absolute magnetization    =    13.91 Bohr mag/cell

     iteration # 25     ecut=    60.00 Ry     beta= 0.50
     CG style diagonalization

---- Real-time Memory Report at c_bands before calling an iterative solver
           449 MiB given to the printing process from OS
           280 MiB allocation reported by mallinfo(arena+hblkhd)
        450573 MiB available memory on the node where the printing process lives
------------------
     ethr =  6.92E-04,  avg # of iterations =  3.0

     negative rho (up, down):  8.966E-02 8.335E-02

     total cpu time spent up to now is     9794.8 secs

     total energy              =   -5521.04413816 Ry
     estimated scf accuracy    <       4.13305739 Ry

     total magnetization       =     8.68 Bohr mag/cell
     absolute magnetization    =    13.59 Bohr mag/cell

     iteration # 26     ecut=    60.00 Ry     beta= 0.50
     CG style diagonalization

---- Real-time Memory Report at c_bands before calling an iterative solver
           449 MiB given to the printing process from OS
           280 MiB allocation reported by mallinfo(arena+hblkhd)
        450577 MiB available memory on the node where the printing process lives
------------------
     ethr =  6.92E-04,  avg # of iterations =  3.0

     negative rho (up, down):  8.677E-02 8.296E-02

     total cpu time spent up to now is    10070.4 secs

     total energy              =   -5521.03839641 Ry
     estimated scf accuracy    <       3.26964297 Ry

     total magnetization       =     8.60 Bohr mag/cell
     absolute magnetization    =    13.89 Bohr mag/cell

     iteration # 27     ecut=    60.00 Ry     beta= 0.50
     CG style diagonalization

---- Real-time Memory Report at c_bands before calling an iterative solver
           449 MiB given to the printing process from OS
           280 MiB allocation reported by mallinfo(arena+hblkhd)
        450564 MiB available memory on the node where the printing process lives
------------------
     ethr =  6.92E-04,  avg # of iterations =  3.0

     negative rho (up, down):  6.865E-02 6.580E-02

     total cpu time spent up to now is    10345.4 secs

     total energy              =   -5521.12463512 Ry
     estimated scf accuracy    <      12.06845368 Ry

     total magnetization       =     8.98 Bohr mag/cell
     absolute magnetization    =    11.28 Bohr mag/cell

     iteration # 28     ecut=    60.00 Ry     beta= 0.50
     CG style diagonalization

---- Real-time Memory Report at c_bands before calling an iterative solver
           449 MiB given to the printing process from OS
           280 MiB allocation reported by mallinfo(arena+hblkhd)
        450581 MiB available memory on the node where the printing process lives
------------------
     ethr =  6.92E-04,  avg # of iterations =  3.0

     negative rho (up, down):  7.787E-02 8.299E-02

     total cpu time spent up to now is    10621.6 secs

     total energy              =   -5521.06360949 Ry
     estimated scf accuracy    <      13.35505514 Ry

     total magnetization       =     8.83 Bohr mag/cell
     absolute magnetization    =    10.99 Bohr mag/cell

     iteration # 29     ecut=    60.00 Ry     beta= 0.50
     CG style diagonalization

---- Real-time Memory Report at c_bands before calling an iterative solver
           449 MiB given to the printing process from OS
           280 MiB allocation reported by mallinfo(arena+hblkhd)
        450594 MiB available memory on the node where the printing process lives
------------------
     ethr =  6.92E-04,  avg # of iterations =  3.0

     negative rho (up, down):  8.050E-02 8.584E-02

     total cpu time spent up to now is    10896.5 secs

     total energy              =   -5521.15737907 Ry
     estimated scf accuracy    <       0.18816692 Ry

     total magnetization       =    14.06 Bohr mag/cell
     absolute magnetization    =    16.06 Bohr mag/cell

     iteration # 30     ecut=    60.00 Ry     beta= 0.50
     CG style diagonalization

---- Real-time Memory Report at c_bands before calling an iterative solver
           449 MiB given to the printing process from OS
           280 MiB allocation reported by mallinfo(arena+hblkhd)
        450584 MiB available memory on the node where the printing process lives
------------------
     c_bands:  1 eigenvalues not converged
     c_bands:  1 eigenvalues not converged
     ethr =  6.42E-05,  avg # of iterations =  3.1

     negative rho (up, down):  7.591E-02 7.562E-02

     total cpu time spent up to now is    11184.2 secs

     total energy              =   -5521.13135806 Ry
     estimated scf accuracy    <       0.11723513 Ry

     total magnetization       =    14.07 Bohr mag/cell
     absolute magnetization    =    16.04 Bohr mag/cell

     iteration # 31     ecut=    60.00 Ry     beta= 0.50
     CG style diagonalization

---- Real-time Memory Report at c_bands before calling an iterative solver
           449 MiB given to the printing process from OS
           280 MiB allocation reported by mallinfo(arena+hblkhd)
        450592 MiB available memory on the node where the printing process lives
------------------
     c_bands:  1 eigenvalues not converged
     ethr =  4.00E-05,  avg # of iterations =  3.1

     negative rho (up, down):  9.702E-02 1.017E-01

     total cpu time spent up to now is    11466.7 secs

     total energy              =   -5521.42849330 Ry
     estimated scf accuracy    <      14.24784775 Ry

     total magnetization       =     8.88 Bohr mag/cell
     absolute magnetization    =    11.03 Bohr mag/cell

     iteration # 32     ecut=    60.00 Ry     beta= 0.50
     CG style diagonalization

---- Real-time Memory Report at c_bands before calling an iterative solver
           449 MiB given to the printing process from OS
           280 MiB allocation reported by mallinfo(arena+hblkhd)
        450583 MiB available memory on the node where the printing process lives
------------------
     c_bands:  1 eigenvalues not converged
     ethr =  4.00E-05,  avg # of iterations =  3.1

     negative rho (up, down):  9.654E-02 1.061E-01

     total cpu time spent up to now is    11749.0 secs

     total energy              =   -5521.34311895 Ry
     estimated scf accuracy    <      14.59886262 Ry

     total magnetization       =     8.81 Bohr mag/cell
     absolute magnetization    =    10.99 Bohr mag/cell

     iteration # 33     ecut=    60.00 Ry     beta= 0.50
     CG style diagonalization

---- Real-time Memory Report at c_bands before calling an iterative solver
           449 MiB given to the printing process from OS
           280 MiB allocation reported by mallinfo(arena+hblkhd)
        450597 MiB available memory on the node where the printing process lives
------------------
     ethr =  4.00E-05,  avg # of iterations =  3.0

     negative rho (up, down):  8.959E-02 2.888E-01

     total cpu time spent up to now is    12029.8 secs

     total energy              =   -5520.87483770 Ry
     estimated scf accuracy    <      14.68575688 Ry

     total magnetization       =     8.82 Bohr mag/cell
     absolute magnetization    =    10.95 Bohr mag/cell

     iteration # 34     ecut=    60.00 Ry     beta= 0.50
     CG style diagonalization

---- Real-time Memory Report at c_bands before calling an iterative solver
           449 MiB given to the printing process from OS
           280 MiB allocation reported by mallinfo(arena+hblkhd)
        450594 MiB available memory on the node where the printing process lives
------------------
     c_bands:  1 eigenvalues not converged
     ethr =  4.00E-05,  avg # of iterations =  3.1

     negative rho (up, down):  7.550E-02 5.176E-01

     total cpu time spent up to now is    12326.7 secs

     total energy              =   -5520.78336034 Ry
     estimated scf accuracy    <       0.26150781 Ry

     total magnetization       =    14.17 Bohr mag/cell
     absolute magnetization    =    16.03 Bohr mag/cell

     iteration # 35     ecut=    60.00 Ry     beta= 0.50
     CG style diagonalization

---- Real-time Memory Report at c_bands before calling an iterative solver
           449 MiB given to the printing process from OS
           280 MiB allocation reported by mallinfo(arena+hblkhd)
        450594 MiB available memory on the node where the printing process lives
------------------
     c_bands:  1 eigenvalues not converged
     c_bands:  1 eigenvalues not converged
     c_bands:  1 eigenvalues not converged
     ethr =  4.00E-05,  avg # of iterations =  3.1

     negative rho (up, down):  5.987E-02 1.791E+00

     total cpu time spent up to now is    12615.5 secs

     total energy              =   -5519.60832359 Ry
     estimated scf accuracy    <       0.20199724 Ry

     total magnetization       =    14.16 Bohr mag/cell
     absolute magnetization    =    16.03 Bohr mag/cell

     iteration # 36     ecut=    60.00 Ry     beta= 0.50
     CG style diagonalization

---- Real-time Memory Report at c_bands before calling an iterative solver
           449 MiB given to the printing process from OS
           280 MiB allocation reported by mallinfo(arena+hblkhd)
        450594 MiB available memory on the node where the printing process lives
------------------
     c_bands:  1 eigenvalues not converged
     c_bands:  1 eigenvalues not converged
     c_bands:  2 eigenvalues not converged
     c_bands:  1 eigenvalues not converged
     c_bands:  1 eigenvalues not converged
     c_bands:  1 eigenvalues not converged
     c_bands:  1 eigenvalues not converged
     c_bands:  1 eigenvalues not converged
     c_bands:  1 eigenvalues not converged
     ethr =  4.00E-05,  avg # of iterations =  3.1

     negative rho (up, down):  6.226E-02 1.752E+00

     total cpu time spent up to now is    12912.5 secs

     total energy              =   -5519.65938357 Ry
     estimated scf accuracy    <       0.62746636 Ry

     total magnetization       =    14.12 Bohr mag/cell
     absolute magnetization    =    15.98 Bohr mag/cell

     iteration # 37     ecut=    60.00 Ry     beta= 0.50
     CG style diagonalization

---- Real-time Memory Report at c_bands before calling an iterative solver
           449 MiB given to the printing process from OS
           280 MiB allocation reported by mallinfo(arena+hblkhd)
        450575 MiB available memory on the node where the printing process lives
------------------
     ethr =  4.00E-05,  avg # of iterations =  3.0

     negative rho (up, down):  6.032E-02 1.854E+00

     total cpu time spent up to now is    13190.1 secs

     total energy              =   -5519.57540950 Ry
     estimated scf accuracy    <       0.55081596 Ry

     total magnetization       =    14.10 Bohr mag/cell
     absolute magnetization    =    15.96 Bohr mag/cell

     iteration # 38     ecut=    60.00 Ry     beta= 0.50
     CG style diagonalization

---- Real-time Memory Report at c_bands before calling an iterative solver
           449 MiB given to the printing process from OS
           280 MiB allocation reported by mallinfo(arena+hblkhd)
        450584 MiB available memory on the node where the printing process lives
------------------
     ethr =  4.00E-05,  avg # of iterations =  3.0

     negative rho (up, down):  7.312E-02 1.670E+00

     total cpu time spent up to now is    13465.3 secs

     total energy              =   -5519.72508849 Ry
     estimated scf accuracy    <       0.65542164 Ry

     total magnetization       =    14.09 Bohr mag/cell
     absolute magnetization    =    15.93 Bohr mag/cell

     iteration # 39     ecut=    60.00 Ry     beta= 0.50
     CG style diagonalization

---- Real-time Memory Report at c_bands before calling an iterative solver
           449 MiB given to the printing process from OS
           280 MiB allocation reported by mallinfo(arena+hblkhd)
        450593 MiB available memory on the node where the printing process lives
------------------
     ethr =  4.00E-05,  avg # of iterations =  3.0

     negative rho (up, down):  6.974E-02 2.362E+00

     total cpu time spent up to now is    13747.1 secs

     total energy              =   -5519.09794942 Ry
     estimated scf accuracy    <       0.64545593 Ry

     total magnetization       =    14.20 Bohr mag/cell
     absolute magnetization    =    16.05 Bohr mag/cell

     iteration # 40     ecut=    60.00 Ry     beta= 0.50
     CG style diagonalization

---- Real-time Memory Report at c_bands before calling an iterative solver
           449 MiB given to the printing process from OS
           280 MiB allocation reported by mallinfo(arena+hblkhd)
        450612 MiB available memory on the node where the printing process lives
------------------
     ethr =  4.00E-05,  avg # of iterations =  3.1

     negative rho (up, down):  7.072E-02 2.200E+00

     total cpu time spent up to now is    14030.5 secs

     total energy              =   -5519.23637178 Ry
     estimated scf accuracy    <       0.81738755 Ry

     total magnetization       =    14.25 Bohr mag/cell
     absolute magnetization    =    16.13 Bohr mag/cell

     iteration # 41     ecut=    60.00 Ry     beta= 0.50
     CG style diagonalization

---- Real-time Memory Report at c_bands before calling an iterative solver
           449 MiB given to the printing process from OS
           280 MiB allocation reported by mallinfo(arena+hblkhd)
        450596 MiB available memory on the node where the printing process lives
------------------
     ethr =  4.00E-05,  avg # of iterations =  3.0

     negative rho (up, down):  6.170E-02 8.470E-01

     total cpu time spent up to now is    14308.4 secs

     total energy              =   -5520.38460299 Ry
     estimated scf accuracy    <       0.75616944 Ry

     total magnetization       =    14.25 Bohr mag/cell
     absolute magnetization    =    16.12 Bohr mag/cell

     iteration # 42     ecut=    60.00 Ry     beta= 0.50
     CG style diagonalization

---- Real-time Memory Report at c_bands before calling an iterative solver
           449 MiB given to the printing process from OS
           280 MiB allocation reported by mallinfo(arena+hblkhd)
        450600 MiB available memory on the node where the printing process lives
------------------
     ethr =  4.00E-05,  avg # of iterations =  3.1

     negative rho (up, down):  5.047E-02 6.061E-02

     total cpu time spent up to now is    14597.5 secs

     total energy              =   -5521.11738456 Ry
     estimated scf accuracy    <       0.39114773 Ry

     total magnetization       =    14.17 Bohr mag/cell
     absolute magnetization    =    16.01 Bohr mag/cell

     iteration # 43     ecut=    60.00 Ry     beta= 0.50
     CG style diagonalization

---- Real-time Memory Report at c_bands before calling an iterative solver
           449 MiB given to the printing process from OS
           280 MiB allocation reported by mallinfo(arena+hblkhd)
        450608 MiB available memory on the node where the printing process lives
------------------
     c_bands:  1 eigenvalues not converged
     c_bands:  1 eigenvalues not converged
     c_bands:  1 eigenvalues not converged
     ethr =  4.00E-05,  avg # of iterations =  3.2

     negative rho (up, down):  2.941E-02 3.013E-02

     total cpu time spent up to now is    14902.4 secs

     total energy              =   -5521.66341021 Ry
     estimated scf accuracy    <      14.74350556 Ry

     total magnetization       =     8.73 Bohr mag/cell
     absolute magnetization    =    10.78 Bohr mag/cell

     iteration # 44     ecut=    60.00 Ry     beta= 0.50
     CG style diagonalization

---- Real-time Memory Report at c_bands before calling an iterative solver
           449 MiB given to the printing process from OS
           280 MiB allocation reported by mallinfo(arena+hblkhd)
        450602 MiB available memory on the node where the printing process lives
------------------
     c_bands:  1 eigenvalues not converged
     ethr =  4.00E-05,  avg # of iterations =  3.1

     negative rho (up, down):  2.603E-02 2.568E-02

     total cpu time spent up to now is    15196.1 secs

     total energy              =   -5522.11182599 Ry
     estimated scf accuracy    <      14.87619355 Ry

     total magnetization       =     8.70 Bohr mag/cell
     absolute magnetization    =    10.69 Bohr mag/cell

     iteration # 45     ecut=    60.00 Ry     beta= 0.50
     CG style diagonalization

---- Real-time Memory Report at c_bands before calling an iterative solver
           449 MiB given to the printing process from OS
           280 MiB allocation reported by mallinfo(arena+hblkhd)
        450606 MiB available memory on the node where the printing process lives
------------------
     ethr =  4.00E-05,  avg # of iterations =  3.1

     negative rho (up, down):  2.389E-02 2.428E-02

     total cpu time spent up to now is    15480.9 secs

     total energy              =   -5522.18481926 Ry
     estimated scf accuracy    <      15.17880417 Ry

     total magnetization       =     8.67 Bohr mag/cell
     absolute magnetization    =    10.60 Bohr mag/cell

     iteration # 46     ecut=    60.00 Ry     beta= 0.50
     CG style diagonalization

---- Real-time Memory Report at c_bands before calling an iterative solver
           449 MiB given to the printing process from OS
           280 MiB allocation reported by mallinfo(arena+hblkhd)
        450612 MiB available memory on the node where the printing process lives
------------------
     ethr =  4.00E-05,  avg # of iterations =  3.0

     negative rho (up, down):  1.829E-02 1.999E-02

     total cpu time spent up to now is    15760.8 secs

     total energy              =   -5522.43685025 Ry
     estimated scf accuracy    <      15.31394118 Ry

     total magnetization       =     8.71 Bohr mag/cell
     absolute magnetization    =    10.64 Bohr mag/cell

     iteration # 47     ecut=    60.00 Ry     beta= 0.50
     CG style diagonalization

---- Real-time Memory Report at c_bands before calling an iterative solver
           449 MiB given to the printing process from OS
           280 MiB allocation reported by mallinfo(arena+hblkhd)
        450611 MiB available memory on the node where the printing process lives
------------------
     c_bands:  1 eigenvalues not converged
     ethr =  4.00E-05,  avg # of iterations =  3.1

     negative rho (up, down):  1.546E-02 2.103E-02

     total cpu time spent up to now is    16046.8 secs

     total energy              =   -5522.36016424 Ry
     estimated scf accuracy    <      15.58535460 Ry

     total magnetization       =     8.73 Bohr mag/cell
     absolute magnetization    =    10.68 Bohr mag/cell

     iteration # 48     ecut=    60.00 Ry     beta= 0.50
     CG style diagonalization

---- Real-time Memory Report at c_bands before calling an iterative solver
           449 MiB given to the printing process from OS
           280 MiB allocation reported by mallinfo(arena+hblkhd)
        450620 MiB available memory on the node where the printing process lives
------------------
     c_bands:  1 eigenvalues not converged
     c_bands:  1 eigenvalues not converged
     ethr =  4.00E-05,  avg # of iterations =  3.1

     negative rho (up, down):  1.576E-02 1.989E-02

     total cpu time spent up to now is    16338.6 secs

     total energy              =   -5522.38040877 Ry
     estimated scf accuracy    <      15.63835784 Ry

     total magnetization       =     8.78 Bohr mag/cell
     absolute magnetization    =    10.83 Bohr mag/cell

     iteration # 49     ecut=    60.00 Ry     beta= 0.50
     CG style diagonalization

---- Real-time Memory Report at c_bands before calling an iterative solver
           449 MiB given to the printing process from OS
           280 MiB allocation reported by mallinfo(arena+hblkhd)
        450567 MiB available memory on the node where the printing process lives
------------------
     ethr =  4.00E-05,  avg # of iterations =  3.0

     negative rho (up, down):  1.621E-02 2.081E-02

     total cpu time spent up to now is    16615.1 secs

     total energy              =   -5522.36534833 Ry
     estimated scf accuracy    <      15.61449261 Ry

     total magnetization       =     8.79 Bohr mag/cell
     absolute magnetization    =    10.84 Bohr mag/cell

     iteration # 50     ecut=    60.00 Ry     beta= 0.50
     CG style diagonalization

---- Real-time Memory Report at c_bands before calling an iterative solver
           449 MiB given to the printing process from OS
           280 MiB allocation reported by mallinfo(arena+hblkhd)
        450591 MiB available memory on the node where the printing process lives
------------------
     ethr =  4.00E-05,  avg # of iterations =  3.0

     negative rho (up, down):  1.948E-02 2.312E-02

     total cpu time spent up to now is    16892.0 secs

     total energy              =   -5522.39703793 Ry
     estimated scf accuracy    <      15.56063085 Ry

     total magnetization       =     8.79 Bohr mag/cell
     absolute magnetization    =    10.85 Bohr mag/cell

     iteration # 51     ecut=    60.00 Ry     beta= 0.50
     CG style diagonalization

---- Real-time Memory Report at c_bands before calling an iterative solver
           449 MiB given to the printing process from OS
           280 MiB allocation reported by mallinfo(arena+hblkhd)
        450592 MiB available memory on the node where the printing process lives
------------------
     ethr =  4.00E-05,  avg # of iterations =  3.0

     negative rho (up, down):  1.642E-02 1.930E-02

     total cpu time spent up to now is    17168.9 secs

     total energy              =   -5522.39353359 Ry
     estimated scf accuracy    <      15.72289745 Ry

     total magnetization       =     8.79 Bohr mag/cell
     absolute magnetization    =    10.85 Bohr mag/cell

     iteration # 52     ecut=    60.00 Ry     beta= 0.50
     CG style diagonalization

---- Real-time Memory Report at c_bands before calling an iterative solver
           449 MiB given to the printing process from OS
           280 MiB allocation reported by mallinfo(arena+hblkhd)
        450591 MiB available memory on the node where the printing process lives
------------------
     ethr =  4.00E-05,  avg # of iterations =  3.0

     negative rho (up, down):  1.799E-02 2.103E-02

     total cpu time spent up to now is    17444.9 secs

     total energy              =   -5522.41497026 Ry
     estimated scf accuracy    <      15.61601922 Ry

     total magnetization       =     8.80 Bohr mag/cell
     absolute magnetization    =    10.85 Bohr mag/cell

     iteration # 53     ecut=    60.00 Ry     beta= 0.50
     CG style diagonalization

---- Real-time Memory Report at c_bands before calling an iterative solver
           449 MiB given to the printing process from OS
           280 MiB allocation reported by mallinfo(arena+hblkhd)
        450593 MiB available memory on the node where the printing process lives
------------------
     ethr =  4.00E-05,  avg # of iterations =  3.0

     negative rho (up, down):  1.709E-02 2.063E-02

     total cpu time spent up to now is    17721.1 secs

     total energy              =   -5522.41536135 Ry
     estimated scf accuracy    <      15.63210628 Ry

     total magnetization       =     8.79 Bohr mag/cell
     absolute magnetization    =    10.84 Bohr mag/cell

     iteration # 54     ecut=    60.00 Ry     beta= 0.50
     CG style diagonalization

---- Real-time Memory Report at c_bands before calling an iterative solver
           449 MiB given to the printing process from OS
           280 MiB allocation reported by mallinfo(arena+hblkhd)
        450588 MiB available memory on the node where the printing process lives
------------------
     ethr =  4.00E-05,  avg # of iterations =  3.0

     negative rho (up, down):  1.720E-02 2.422E-02

     total cpu time spent up to now is    18000.3 secs

     total energy              =   -5522.23086934 Ry
     estimated scf accuracy    <      15.75548288 Ry

     total magnetization       =     8.81 Bohr mag/cell
     absolute magnetization    =    10.86 Bohr mag/cell

     iteration # 55     ecut=    60.00 Ry     beta= 0.50
     CG style diagonalization

---- Real-time Memory Report at c_bands before calling an iterative solver
           449 MiB given to the printing process from OS
           280 MiB allocation reported by mallinfo(arena+hblkhd)
        450607 MiB available memory on the node where the printing process lives
------------------
     ethr =  4.00E-05,  avg # of iterations =  3.0

     negative rho (up, down):  2.484E-02 3.381E-02

     total cpu time spent up to now is    18285.7 secs

     total energy              =   -5522.08385166 Ry
     estimated scf accuracy    <      15.06300269 Ry

     total magnetization       =     8.74 Bohr mag/cell
     absolute magnetization    =    10.79 Bohr mag/cell

     iteration # 56     ecut=    60.00 Ry     beta= 0.50
     CG style diagonalization

---- Real-time Memory Report at c_bands before calling an iterative solver
           449 MiB given to the printing process from OS
           280 MiB allocation reported by mallinfo(arena+hblkhd)
        450607 MiB available memory on the node where the printing process lives
------------------
     c_bands:  1 eigenvalues not converged
     c_bands:  1 eigenvalues not converged
     ethr =  4.00E-05,  avg # of iterations =  3.1

     negative rho (up, down):  3.212E-02 4.167E-02

     total cpu time spent up to now is    18572.8 secs

     total energy              =   -5522.16535916 Ry
     estimated scf accuracy    <      15.65500788 Ry

     total magnetization       =     8.80 Bohr mag/cell
     absolute magnetization    =    10.93 Bohr mag/cell

     iteration # 57     ecut=    60.00 Ry     beta= 0.50
     CG style diagonalization

---- Real-time Memory Report at c_bands before calling an iterative solver
           449 MiB given to the printing process from OS
           280 MiB allocation reported by mallinfo(arena+hblkhd)
        450607 MiB available memory on the node where the printing process lives
------------------
     ethr =  4.00E-05,  avg # of iterations =  3.0

     negative rho (up, down):  1.743E-02 2.298E-02

     total cpu time spent up to now is    18852.3 secs

     total energy              =   -5522.30471338 Ry
     estimated scf accuracy    <      15.58837731 Ry

     total magnetization       =     8.80 Bohr mag/cell
     absolute magnetization    =    10.93 Bohr mag/cell

     iteration # 58     ecut=    60.00 Ry     beta= 0.50
     CG style diagonalization

---- Real-time Memory Report at c_bands before calling an iterative solver
           449 MiB given to the printing process from OS
           280 MiB allocation reported by mallinfo(arena+hblkhd)
        450610 MiB available memory on the node where the printing process lives
------------------
     ethr =  4.00E-05,  avg # of iterations =  3.0

     negative rho (up, down):  2.028E-02 3.036E-02

     total cpu time spent up to now is    19129.2 secs

     total energy              =   -5522.27736124 Ry
     estimated scf accuracy    <      15.80524720 Ry

     total magnetization       =     8.77 Bohr mag/cell
     absolute magnetization    =    10.88 Bohr mag/cell

     iteration # 59     ecut=    60.00 Ry     beta= 0.50
     CG style diagonalization

---- Real-time Memory Report at c_bands before calling an iterative solver
           449 MiB given to the printing process from OS
           280 MiB allocation reported by mallinfo(arena+hblkhd)
        450608 MiB available memory on the node where the printing process lives
------------------
     ethr =  4.00E-05,  avg # of iterations =  3.0

     negative rho (up, down):  1.850E-02 2.587E-02

     total cpu time spent up to now is    19404.0 secs

     total energy              =   -5522.30651717 Ry
     estimated scf accuracy    <      15.70547790 Ry

     total magnetization       =     8.76 Bohr mag/cell
     absolute magnetization    =    10.85 Bohr mag/cell

     iteration # 60     ecut=    60.00 Ry     beta= 0.50
     CG style diagonalization

---- Real-time Memory Report at c_bands before calling an iterative solver
           449 MiB given to the printing process from OS
           280 MiB allocation reported by mallinfo(arena+hblkhd)
        450623 MiB available memory on the node where the printing process lives
------------------
     ethr =  4.00E-05,  avg # of iterations =  3.0

     negative rho (up, down):  1.234E-02 1.694E-02

     total cpu time spent up to now is    19679.8 secs

     total energy              =   -5522.37479970 Ry
     estimated scf accuracy    <      15.71099004 Ry

     total magnetization       =     8.74 Bohr mag/cell
     absolute magnetization    =    10.82 Bohr mag/cell

     iteration # 61     ecut=    60.00 Ry     beta= 0.50
     CG style diagonalization

---- Real-time Memory Report at c_bands before calling an iterative solver
           449 MiB given to the printing process from OS
           280 MiB allocation reported by mallinfo(arena+hblkhd)
        450619 MiB available memory on the node where the printing process lives
------------------
     ethr =  4.00E-05,  avg # of iterations =  3.0

     negative rho (up, down):  1.317E-02 2.025E-02

     total cpu time spent up to now is    19957.3 secs

     total energy              =   -5522.52798000 Ry
     estimated scf accuracy    <      15.82149362 Ry

     total magnetization       =     8.73 Bohr mag/cell
     absolute magnetization    =    10.81 Bohr mag/cell

     iteration # 62     ecut=    60.00 Ry     beta= 0.50
     CG style diagonalization

---- Real-time Memory Report at c_bands before calling an iterative solver
           449 MiB given to the printing process from OS
           280 MiB allocation reported by mallinfo(arena+hblkhd)
        450590 MiB available memory on the node where the printing process lives
------------------
     c_bands:  1 eigenvalues not converged
     c_bands:  1 eigenvalues not converged
     ethr =  4.00E-05,  avg # of iterations =  3.0

     negative rho (up, down):  1.607E-02 1.791E-02

     total cpu time spent up to now is    20238.5 secs

     total energy              =   -5522.42753885 Ry
     estimated scf accuracy    <      15.98538941 Ry

     total magnetization       =     8.71 Bohr mag/cell
     absolute magnetization    =    10.75 Bohr mag/cell

     iteration # 63     ecut=    60.00 Ry     beta= 0.50
     CG style diagonalization

---- Real-time Memory Report at c_bands before calling an iterative solver
           449 MiB given to the printing process from OS
           280 MiB allocation reported by mallinfo(arena+hblkhd)
        450612 MiB available memory on the node where the printing process lives
------------------
     ethr =  4.00E-05,  avg # of iterations =  3.0

     negative rho (up, down):  1.527E+00 1.520E+00

     total cpu time spent up to now is    20516.1 secs

     total energy              =   -5512.82477011 Ry
     estimated scf accuracy    <      15.88770616 Ry

     total magnetization       =     8.70 Bohr mag/cell
     absolute magnetization    =    10.73 Bohr mag/cell

     iteration # 64     ecut=    60.00 Ry     beta= 0.50
     CG style diagonalization

---- Real-time Memory Report at c_bands before calling an iterative solver
           449 MiB given to the printing process from OS
           280 MiB allocation reported by mallinfo(arena+hblkhd)
        450607 MiB available memory on the node where the printing process lives
------------------
     c_bands:  2 eigenvalues not converged
     c_bands:  4 eigenvalues not converged
     c_bands:  1 eigenvalues not converged
     c_bands:  5 eigenvalues not converged
     c_bands:  5 eigenvalues not converged
     c_bands:  2 eigenvalues not converged
     c_bands:  1 eigenvalues not converged
     c_bands:  2 eigenvalues not converged
     c_bands:  1 eigenvalues not converged
     c_bands:  1 eigenvalues not converged
     c_bands:  1 eigenvalues not converged
     c_bands:  1 eigenvalues not converged
     c_bands:  5 eigenvalues not converged
     c_bands:  5 eigenvalues not converged
     c_bands:  3 eigenvalues not converged
     c_bands:  3 eigenvalues not converged
     c_bands:  3 eigenvalues not converged
     c_bands:  3 eigenvalues not converged
     c_bands:  4 eigenvalues not converged
     c_bands:  1 eigenvalues not converged
     c_bands:  1 eigenvalues not converged
     c_bands:  5 eigenvalues not converged
     c_bands:  2 eigenvalues not converged
     c_bands:  2 eigenvalues not converged
     c_bands:  4 eigenvalues not converged
     ethr =  4.00E-05,  avg # of iterations = 22.8

     negative rho (up, down):  1.671E-01 2.091E-01

     total cpu time spent up to now is    23041.7 secs

     total energy              =   -5284.39869867 Ry
     estimated scf accuracy    <   18923.12446174 Ry

     total magnetization       =     1.27 Bohr mag/cell
     absolute magnetization    =     3.16 Bohr mag/cell

     iteration # 65     ecut=    60.00 Ry     beta= 0.50
     CG style diagonalization

---- Real-time Memory Report at c_bands before calling an iterative solver
           449 MiB given to the printing process from OS
           280 MiB allocation reported by mallinfo(arena+hblkhd)
        450609 MiB available memory on the node where the printing process lives
------------------
     c_bands:  1 eigenvalues not converged
     c_bands:  1 eigenvalues not converged
     c_bands:  1 eigenvalues not converged
     c_bands:  1 eigenvalues not converged
     ethr =  4.00E-05,  avg # of iterations = 18.2

     negative rho (up, down):  3.292E-02 2.626E-02

     total cpu time spent up to now is    25066.4 secs

     total energy              =   -5519.84697317 Ry
     estimated scf accuracy    <      31.48466725 Ry

     total magnetization       =    11.78 Bohr mag/cell
     absolute magnetization    =    12.86 Bohr mag/cell

     iteration # 66     ecut=    60.00 Ry     beta= 0.50
     CG style diagonalization

---- Real-time Memory Report at c_bands before calling an iterative solver
           449 MiB given to the printing process from OS
           280 MiB allocation reported by mallinfo(arena+hblkhd)
        450562 MiB available memory on the node where the printing process lives
------------------
     c_bands:  2 eigenvalues not converged
     c_bands:  3 eigenvalues not converged
     c_bands:  1 eigenvalues not converged
     c_bands:  2 eigenvalues not converged
     c_bands:  1 eigenvalues not converged
     c_bands:  1 eigenvalues not converged
     c_bands:  1 eigenvalues not converged
     c_bands:  2 eigenvalues not converged
     c_bands:  3 eigenvalues not converged
     c_bands:  1 eigenvalues not converged
     c_bands:  1 eigenvalues not converged
     c_bands:  2 eigenvalues not converged
     c_bands:  4 eigenvalues not converged
     c_bands:  1 eigenvalues not converged
     c_bands:  1 eigenvalues not converged
     c_bands:  1 eigenvalues not converged
     c_bands:  2 eigenvalues not converged
     c_bands:  2 eigenvalues not converged
     c_bands:  2 eigenvalues not converged
     c_bands:  2 eigenvalues not converged
     c_bands:  3 eigenvalues not converged
     c_bands:  2 eigenvalues not converged
     ethr =  4.00E-05,  avg # of iterations =  4.2

     negative rho (up, down):  3.631E-02 3.423E-02

     total cpu time spent up to now is    25492.0 secs

     total energy              =   -5520.67089185 Ry
     estimated scf accuracy    <      17.79304584 Ry

     total magnetization       =     8.69 Bohr mag/cell
     absolute magnetization    =    10.78 Bohr mag/cell

     iteration # 67     ecut=    60.00 Ry     beta= 0.50
     CG style diagonalization

---- Real-time Memory Report at c_bands before calling an iterative solver
           449 MiB given to the printing process from OS
           280 MiB allocation reported by mallinfo(arena+hblkhd)
        450563 MiB available memory on the node where the printing process lives
------------------
     ethr =  4.00E-05,  avg # of iterations =  3.1

     negative rho (up, down):  1.034E-02 1.022E-02

     total cpu time spent up to now is    25788.2 secs

     total energy              =   -5519.50880629 Ry
     estimated scf accuracy    <      12.92695070 Ry

     total magnetization       =    13.24 Bohr mag/cell
     absolute magnetization    =    14.88 Bohr mag/cell

     iteration # 68     ecut=    60.00 Ry     beta= 0.50
     CG style diagonalization

---- Real-time Memory Report at c_bands before calling an iterative solver
           449 MiB given to the printing process from OS
           280 MiB allocation reported by mallinfo(arena+hblkhd)
        450559 MiB available memory on the node where the printing process lives
------------------
     c_bands:  1 eigenvalues not converged
     c_bands:  1 eigenvalues not converged
     c_bands:  1 eigenvalues not converged
     c_bands:  1 eigenvalues not converged
     c_bands:  1 eigenvalues not converged
     c_bands:  1 eigenvalues not converged
     c_bands:  1 eigenvalues not converged
     c_bands:  1 eigenvalues not converged
     c_bands:  1 eigenvalues not converged
     c_bands:  2 eigenvalues not converged
     c_bands:  3 eigenvalues not converged
     ethr =  4.00E-05,  avg # of iterations =  3.4

     negative rho (up, down):  9.722E-03 9.695E-03

     total cpu time spent up to now is    26111.4 secs

     total energy              =   -5522.53893536 Ry
     estimated scf accuracy    <      16.01915767 Ry

     total magnetization       =     8.67 Bohr mag/cell
     absolute magnetization    =    10.50 Bohr mag/cell

     iteration # 69     ecut=    60.00 Ry     beta= 0.50
     CG style diagonalization

---- Real-time Memory Report at c_bands before calling an iterative solver
           449 MiB given to the printing process from OS
           280 MiB allocation reported by mallinfo(arena+hblkhd)
        450557 MiB available memory on the node where the printing process lives
------------------
     ethr =  4.00E-05,  avg # of iterations =  3.0

     negative rho (up, down):  5.697E-03 5.683E-03

     total cpu time spent up to now is    26389.0 secs

     total energy              =   -5522.30943941 Ry
     estimated scf accuracy    <      15.57781541 Ry

     total magnetization       =     8.66 Bohr mag/cell
     absolute magnetization    =    10.48 Bohr mag/cell

     iteration # 70     ecut=    60.00 Ry     beta= 0.50
     CG style diagonalization

---- Real-time Memory Report at c_bands before calling an iterative solver
           449 MiB given to the printing process from OS
           280 MiB allocation reported by mallinfo(arena+hblkhd)
        450566 MiB available memory on the node where the printing process lives
------------------
     ethr =  4.00E-05,  avg # of iterations =  3.0

     negative rho (up, down):  5.334E-03 5.319E-03

     total cpu time spent up to now is    26671.0 secs

     total energy              =   -5522.25532777 Ry
     estimated scf accuracy    <      14.89742739 Ry

     total magnetization       =     8.68 Bohr mag/cell
     absolute magnetization    =    10.55 Bohr mag/cell

     iteration # 71     ecut=    60.00 Ry     beta= 0.50
     CG style diagonalization

---- Real-time Memory Report at c_bands before calling an iterative solver
           449 MiB given to the printing process from OS
           280 MiB allocation reported by mallinfo(arena+hblkhd)
        450564 MiB available memory on the node where the printing process lives
------------------
     ethr =  4.00E-05,  avg # of iterations =  3.0

     negative rho (up, down):  4.557E-03 4.549E-03

     total cpu time spent up to now is    26946.6 secs

     total energy              =   -5522.29081830 Ry
     estimated scf accuracy    <      14.82167007 Ry

     total magnetization       =     8.68 Bohr mag/cell
     absolute magnetization    =    10.57 Bohr mag/cell

     iteration # 72     ecut=    60.00 Ry     beta= 0.50
     CG style diagonalization

---- Real-time Memory Report at c_bands before calling an iterative solver
           449 MiB given to the printing process from OS
           280 MiB allocation reported by mallinfo(arena+hblkhd)
        450565 MiB available memory on the node where the printing process lives
------------------
     ethr =  4.00E-05,  avg # of iterations =  3.0

     negative rho (up, down):  5.003E-03 4.975E-03

     total cpu time spent up to now is    27222.6 secs

     total energy              =   -5522.21614311 Ry
     estimated scf accuracy    <      14.86525309 Ry

     total magnetization       =     8.67 Bohr mag/cell
     absolute magnetization    =    10.57 Bohr mag/cell

     iteration # 73     ecut=    60.00 Ry     beta= 0.50
     CG style diagonalization

---- Real-time Memory Report at c_bands before calling an iterative solver
           449 MiB given to the printing process from OS
           280 MiB allocation reported by mallinfo(arena+hblkhd)
        450553 MiB available memory on the node where the printing process lives
------------------
     ethr =  4.00E-05,  avg # of iterations =  3.0

     negative rho (up, down):  5.302E-03 5.288E-03

     total cpu time spent up to now is    27498.0 secs

     total energy              =   -5522.22238810 Ry
     estimated scf accuracy    <      14.84568638 Ry

     total magnetization       =     8.67 Bohr mag/cell
     absolute magnetization    =    10.58 Bohr mag/cell

     iteration # 74     ecut=    60.00 Ry     beta= 0.50
     CG style diagonalization

---- Real-time Memory Report at c_bands before calling an iterative solver
           449 MiB given to the printing process from OS
           280 MiB allocation reported by mallinfo(arena+hblkhd)
        450567 MiB available memory on the node where the printing process lives
------------------
     ethr =  4.00E-05,  avg # of iterations =  3.0

     negative rho (up, down):  4.368E-03 4.363E-03

     total cpu time spent up to now is    27774.1 secs

     total energy              =   -5522.31443042 Ry
     estimated scf accuracy    <      14.81147473 Ry

     total magnetization       =     8.66 Bohr mag/cell
     absolute magnetization    =    10.57 Bohr mag/cell

     iteration # 75     ecut=    60.00 Ry     beta= 0.50
     CG style diagonalization

---- Real-time Memory Report at c_bands before calling an iterative solver
           449 MiB given to the printing process from OS
           280 MiB allocation reported by mallinfo(arena+hblkhd)
        450568 MiB available memory on the node where the printing process lives
------------------
     ethr =  4.00E-05,  avg # of iterations =  3.0

     negative rho (up, down):  5.368E-03 5.347E-03

     total cpu time spent up to now is    28049.6 secs

     total energy              =   -5522.25855349 Ry
     estimated scf accuracy    <      14.94302598 Ry

     total magnetization       =     8.68 Bohr mag/cell
     absolute magnetization    =    10.57 Bohr mag/cell

     iteration # 76     ecut=    60.00 Ry     beta= 0.50
     CG style diagonalization

---- Real-time Memory Report at c_bands before calling an iterative solver
           449 MiB given to the printing process from OS
           280 MiB allocation reported by mallinfo(arena+hblkhd)
        450577 MiB available memory on the node where the printing process lives
------------------
     ethr =  4.00E-05,  avg # of iterations =  3.0

     negative rho (up, down):  4.063E-03 4.034E-03

     total cpu time spent up to now is    28324.7 secs

     total energy              =   -5522.38064451 Ry
     estimated scf accuracy    <      14.90808479 Ry

     total magnetization       =     8.67 Bohr mag/cell
     absolute magnetization    =    10.55 Bohr mag/cell

     iteration # 77     ecut=    60.00 Ry     beta= 0.50
     CG style diagonalization

---- Real-time Memory Report at c_bands before calling an iterative solver
           449 MiB given to the printing process from OS
           280 MiB allocation reported by mallinfo(arena+hblkhd)
        450585 MiB available memory on the node where the printing process lives
------------------
     ethr =  4.00E-05,  avg # of iterations =  3.0

     negative rho (up, down):  4.492E-03 4.468E-03

     total cpu time spent up to now is    28601.9 secs

     total energy              =   -5522.21581005 Ry
     estimated scf accuracy    <      15.00361767 Ry

     total magnetization       =     8.68 Bohr mag/cell
     absolute magnetization    =    10.56 Bohr mag/cell

     iteration # 78     ecut=    60.00 Ry     beta= 0.50
     CG style diagonalization

---- Real-time Memory Report at c_bands before calling an iterative solver
           449 MiB given to the printing process from OS
           280 MiB allocation reported by mallinfo(arena+hblkhd)
        450584 MiB available memory on the node where the printing process lives
------------------
     ethr =  4.00E-05,  avg # of iterations =  3.0

     negative rho (up, down):  3.051E-03 2.996E-03

     total cpu time spent up to now is    28878.0 secs

     total energy              =   -5522.42379670 Ry
     estimated scf accuracy    <      14.76227120 Ry

     total magnetization       =     8.68 Bohr mag/cell
     absolute magnetization    =    10.55 Bohr mag/cell

     iteration # 79     ecut=    60.00 Ry     beta= 0.50
     CG style diagonalization

---- Real-time Memory Report at c_bands before calling an iterative solver
           449 MiB given to the printing process from OS
           280 MiB allocation reported by mallinfo(arena+hblkhd)
        450576 MiB available memory on the node where the printing process lives
------------------
     ethr =  4.00E-05,  avg # of iterations =  3.0

     negative rho (up, down):  3.031E-03 2.977E-03

     total cpu time spent up to now is    29154.4 secs

     total energy              =   -5522.48203182 Ry
     estimated scf accuracy    <      15.05229265 Ry

     total magnetization       =     8.68 Bohr mag/cell
     absolute magnetization    =    10.56 Bohr mag/cell

     iteration # 80     ecut=    60.00 Ry     beta= 0.50
     CG style diagonalization

---- Real-time Memory Report at c_bands before calling an iterative solver
           449 MiB given to the printing process from OS
           280 MiB allocation reported by mallinfo(arena+hblkhd)
        450584 MiB available memory on the node where the printing process lives
------------------
     ethr =  4.00E-05,  avg # of iterations =  3.0

     negative rho (up, down):  4.453E-03 4.375E-03

     total cpu time spent up to now is    29430.5 secs

     total energy              =   -5522.39914475 Ry
     estimated scf accuracy    <      15.15889646 Ry

     total magnetization       =     8.69 Bohr mag/cell
     absolute magnetization    =    10.59 Bohr mag/cell

     iteration # 81     ecut=    60.00 Ry     beta= 0.50
     CG style diagonalization

---- Real-time Memory Report at c_bands before calling an iterative solver
           449 MiB given to the printing process from OS
           280 MiB allocation reported by mallinfo(arena+hblkhd)
        450566 MiB available memory on the node where the printing process lives
------------------
     ethr =  4.00E-05,  avg # of iterations =  3.0

     negative rho (up, down):  4.451E-03 4.368E-03

     total cpu time spent up to now is    29705.5 secs

     total energy              =   -5522.42535078 Ry
     estimated scf accuracy    <      15.06735684 Ry

     total magnetization       =     8.67 Bohr mag/cell
     absolute magnetization    =    10.56 Bohr mag/cell

     iteration # 82     ecut=    60.00 Ry     beta= 0.50
     CG style diagonalization

---- Real-time Memory Report at c_bands before calling an iterative solver
           449 MiB given to the printing process from OS
           280 MiB allocation reported by mallinfo(arena+hblkhd)
        450576 MiB available memory on the node where the printing process lives
------------------
     ethr =  4.00E-05,  avg # of iterations =  3.0

     negative rho (up, down):  2.211E-03 2.186E-03

     total cpu time spent up to now is    29981.4 secs

     total energy              =   -5522.34012568 Ry
     estimated scf accuracy    <      15.10386331 Ry

     total magnetization       =     8.66 Bohr mag/cell
     absolute magnetization    =    10.55 Bohr mag/cell

     iteration # 83     ecut=    60.00 Ry     beta= 0.50
     CG style diagonalization

---- Real-time Memory Report at c_bands before calling an iterative solver
           449 MiB given to the printing process from OS
           280 MiB allocation reported by mallinfo(arena+hblkhd)
        450567 MiB available memory on the node where the printing process lives
------------------
     ethr =  4.00E-05,  avg # of iterations =  3.0

     negative rho (up, down):  4.468E-03 4.333E-03

     total cpu time spent up to now is    30257.7 secs

     total energy              =   -5522.53681574 Ry
     estimated scf accuracy    <      14.94589324 Ry

     total magnetization       =     8.68 Bohr mag/cell
     absolute magnetization    =    10.58 Bohr mag/cell

     iteration # 84     ecut=    60.00 Ry     beta= 0.50
     CG style diagonalization

---- Real-time Memory Report at c_bands before calling an iterative solver
           449 MiB given to the printing process from OS
           280 MiB allocation reported by mallinfo(arena+hblkhd)
        450571 MiB available memory on the node where the printing process lives
------------------
     ethr =  4.00E-05,  avg # of iterations =  3.0

     negative rho (up, down):  4.427E-03 4.224E-03

     total cpu time spent up to now is    30536.3 secs

     total energy              =   -5522.67101963 Ry
     estimated scf accuracy    <      15.24565948 Ry

     total magnetization       =     8.69 Bohr mag/cell
     absolute magnetization    =    10.60 Bohr mag/cell

     iteration # 85     ecut=    60.00 Ry     beta= 0.50
     CG style diagonalization

---- Real-time Memory Report at c_bands before calling an iterative solver
           449 MiB given to the printing process from OS
           280 MiB allocation reported by mallinfo(arena+hblkhd)
        450570 MiB available memory on the node where the printing process lives
------------------
     ethr =  4.00E-05,  avg # of iterations =  3.0

     negative rho (up, down):  3.786E-03 3.546E-03

     total cpu time spent up to now is    30819.8 secs

     total energy              =   -5523.08220793 Ry
     estimated scf accuracy    <      15.38908246 Ry

     total magnetization       =     8.71 Bohr mag/cell
     absolute magnetization    =    10.61 Bohr mag/cell

     iteration # 86     ecut=    60.00 Ry     beta= 0.50
     CG style diagonalization

---- Real-time Memory Report at c_bands before calling an iterative solver
           449 MiB given to the printing process from OS
           280 MiB allocation reported by mallinfo(arena+hblkhd)
        450525 MiB available memory on the node where the printing process lives
------------------
     ethr =  4.00E-05,  avg # of iterations =  3.1

     negative rho (up, down):  6.705E-03 6.346E-03

     total cpu time spent up to now is    31108.5 secs

     total energy              =   -5523.30296473 Ry
     estimated scf accuracy    <      15.95950545 Ry

     total magnetization       =     8.73 Bohr mag/cell
     absolute magnetization    =    10.65 Bohr mag/cell

     iteration # 87     ecut=    60.00 Ry     beta= 0.50
     CG style diagonalization

---- Real-time Memory Report at c_bands before calling an iterative solver
           449 MiB given to the printing process from OS
           280 MiB allocation reported by mallinfo(arena+hblkhd)
        450560 MiB available memory on the node where the printing process lives
------------------
     c_bands:  1 eigenvalues not converged
     c_bands:  1 eigenvalues not converged
     ethr =  4.00E-05,  avg # of iterations =  3.1

     negative rho (up, down):  2.679E-02 2.452E-02

     total cpu time spent up to now is    31397.7 secs

     total energy              =   -5523.32946120 Ry
     estimated scf accuracy    <      16.19121585 Ry

     total magnetization       =     8.74 Bohr mag/cell
     absolute magnetization    =    10.67 Bohr mag/cell

     iteration # 88     ecut=    60.00 Ry     beta= 0.50
     CG style diagonalization

---- Real-time Memory Report at c_bands before calling an iterative solver
           449 MiB given to the printing process from OS
           280 MiB allocation reported by mallinfo(arena+hblkhd)
        450582 MiB available memory on the node where the printing process lives
------------------
     c_bands:  1 eigenvalues not converged
     c_bands:  1 eigenvalues not converged
     c_bands:  1 eigenvalues not converged
     c_bands:  1 eigenvalues not converged
     c_bands:  1 eigenvalues not converged
     ethr =  4.00E-05,  avg # of iterations =  3.1

     negative rho (up, down):  4.263E-01 6.229E-01

     total cpu time spent up to now is    31687.6 secs

     total energy              =   -5511.25005022 Ry
     estimated scf accuracy    <      16.07941582 Ry

     total magnetization       =     8.77 Bohr mag/cell
     absolute magnetization    =    10.71 Bohr mag/cell

     iteration # 89     ecut=    60.00 Ry     beta= 0.50
     CG style diagonalization

---- Real-time Memory Report at c_bands before calling an iterative solver
           449 MiB given to the printing process from OS
           280 MiB allocation reported by mallinfo(arena+hblkhd)
        450588 MiB available memory on the node where the printing process lives
------------------
     c_bands:  5 eigenvalues not converged
     c_bands:  2 eigenvalues not converged
     c_bands:  3 eigenvalues not converged
     c_bands:  4 eigenvalues not converged
     c_bands:  5 eigenvalues not converged
     c_bands:  3 eigenvalues not converged
     c_bands:  2 eigenvalues not converged
     c_bands:  5 eigenvalues not converged
     c_bands:  5 eigenvalues not converged
     c_bands:  2 eigenvalues not converged
     c_bands:  2 eigenvalues not converged
     c_bands:  2 eigenvalues not converged
     c_bands:  4 eigenvalues not converged
     c_bands:  3 eigenvalues not converged
     c_bands:  1 eigenvalues not converged
     c_bands:  3 eigenvalues not converged
     c_bands:  4 eigenvalues not converged
     c_bands:  1 eigenvalues not converged
     c_bands:  2 eigenvalues not converged
     c_bands:  1 eigenvalues not converged
     c_bands:  1 eigenvalues not converged
     c_bands:  3 eigenvalues not converged
     c_bands:  3 eigenvalues not converged
     c_bands:  2 eigenvalues not converged
     c_bands:  4 eigenvalues not converged
     c_bands:  4 eigenvalues not converged
     c_bands:  2 eigenvalues not converged
     c_bands:  5 eigenvalues not converged
     ethr =  4.00E-05,  avg # of iterations = 20.5

     negative rho (up, down):  4.603E-02 4.579E-02

     total cpu time spent up to now is    33998.8 secs

     total energy              =   -5420.98526125 Ry
     estimated scf accuracy    <   24450.55956330 Ry

     total magnetization       =     0.67 Bohr mag/cell
     absolute magnetization    =     1.20 Bohr mag/cell

     iteration # 90     ecut=    60.00 Ry     beta= 0.50
     CG style diagonalization

---- Real-time Memory Report at c_bands before calling an iterative solver
           449 MiB given to the printing process from OS
           280 MiB allocation reported by mallinfo(arena+hblkhd)
        450592 MiB available memory on the node where the printing process lives
------------------
     c_bands:  1 eigenvalues not converged
     c_bands:  5 eigenvalues not converged
     c_bands:  2 eigenvalues not converged
     c_bands:  5 eigenvalues not converged
     c_bands:  5 eigenvalues not converged
     c_bands:  1 eigenvalues not converged
     c_bands:  5 eigenvalues not converged
     c_bands:  5 eigenvalues not converged
     c_bands:  4 eigenvalues not converged
     c_bands:  4 eigenvalues not converged
     c_bands:  2 eigenvalues not converged
     c_bands:  1 eigenvalues not converged
     c_bands:  4 eigenvalues not converged
     c_bands:  1 eigenvalues not converged
     c_bands:  5 eigenvalues not converged
     c_bands:  1 eigenvalues not converged
     c_bands:  1 eigenvalues not converged
     ethr =  4.00E-05,  avg # of iterations = 21.9

     negative rho (up, down):  4.590E-02 4.564E-02

     total cpu time spent up to now is    36428.1 secs

     total energy              =   -5539.70356487 Ry
     estimated scf accuracy    <    1083.14392987 Ry

     total magnetization       =    15.16 Bohr mag/cell
     absolute magnetization    =    16.01 Bohr mag/cell

     iteration # 91     ecut=    60.00 Ry     beta= 0.50
     CG style diagonalization

---- Real-time Memory Report at c_bands before calling an iterative solver
           449 MiB given to the printing process from OS
           280 MiB allocation reported by mallinfo(arena+hblkhd)
        450586 MiB available memory on the node where the printing process lives
------------------
     c_bands:  1 eigenvalues not converged
     c_bands:  1 eigenvalues not converged
     c_bands:  1 eigenvalues not converged
     c_bands:  1 eigenvalues not converged
     c_bands:  1 eigenvalues not converged
     c_bands:  3 eigenvalues not converged
     c_bands:  2 eigenvalues not converged
     c_bands:  1 eigenvalues not converged
     c_bands:  2 eigenvalues not converged
     c_bands:  1 eigenvalues not converged
     c_bands:  2 eigenvalues not converged
     c_bands:  1 eigenvalues not converged
     c_bands:  2 eigenvalues not converged
     c_bands:  1 eigenvalues not converged
     c_bands:  1 eigenvalues not converged
     c_bands:  1 eigenvalues not converged
     c_bands:  1 eigenvalues not converged
     c_bands:  3 eigenvalues not converged
     c_bands:  5 eigenvalues not converged
     c_bands:  2 eigenvalues not converged
     c_bands:  1 eigenvalues not converged
     c_bands:  1 eigenvalues not converged
     c_bands:  1 eigenvalues not converged
     c_bands:  4 eigenvalues not converged
     c_bands:  1 eigenvalues not converged
     c_bands:  1 eigenvalues not converged
     ethr =  4.00E-05,  avg # of iterations =  3.7

     negative rho (up, down):  3.410E-02 3.391E-02

     total cpu time spent up to now is    36801.7 secs

     total energy              =   -5527.72127709 Ry
     estimated scf accuracy    <     784.42383993 Ry

     total magnetization       =    16.66 Bohr mag/cell
     absolute magnetization    =    17.48 Bohr mag/cell

     iteration # 92     ecut=    60.00 Ry     beta= 0.50
     CG style diagonalization

---- Real-time Memory Report at c_bands before calling an iterative solver
           449 MiB given to the printing process from OS
           280 MiB allocation reported by mallinfo(arena+hblkhd)
        450599 MiB available memory on the node where the printing process lives
------------------
     c_bands:  1 eigenvalues not converged
     c_bands:  4 eigenvalues not converged
     c_bands:  4 eigenvalues not converged
     c_bands:  5 eigenvalues not converged
     c_bands:  5 eigenvalues not converged
     c_bands:  4 eigenvalues not converged
     c_bands:  4 eigenvalues not converged
     c_bands:  4 eigenvalues not converged
     c_bands:  5 eigenvalues not converged
     c_bands:  4 eigenvalues not converged
     ethr =  4.00E-05,  avg # of iterations =  6.5

     negative rho (up, down):  3.287E-02 3.268E-02

     total cpu time spent up to now is    37449.0 secs

     total energy              =   -5529.09321272 Ry
     estimated scf accuracy    <     188.14019801 Ry

     total magnetization       =    18.85 Bohr mag/cell
     absolute magnetization    =    19.89 Bohr mag/cell

     iteration # 93     ecut=    60.00 Ry     beta= 0.50
     CG style diagonalization

---- Real-time Memory Report at c_bands before calling an iterative solver
           449 MiB given to the printing process from OS
           280 MiB allocation reported by mallinfo(arena+hblkhd)
        450605 MiB available memory on the node where the printing process lives
------------------
     c_bands:  1 eigenvalues not converged
     c_bands:  1 eigenvalues not converged
     ethr =  4.00E-05,  avg # of iterations =  3.3

     negative rho (up, down):  2.779E-02 2.767E-02

     total cpu time spent up to now is    37761.0 secs

     total energy              =   -5526.55859341 Ry
     estimated scf accuracy    <     140.03912720 Ry

     total magnetization       =    18.62 Bohr mag/cell
     absolute magnetization    =    19.75 Bohr mag/cell

     iteration # 94     ecut=    60.00 Ry     beta= 0.50
     CG style diagonalization

---- Real-time Memory Report at c_bands before calling an iterative solver
           449 MiB given to the printing process from OS
           280 MiB allocation reported by mallinfo(arena+hblkhd)
        450603 MiB available memory on the node where the printing process lives
------------------
     c_bands:  1 eigenvalues not converged
     c_bands:  3 eigenvalues not converged
     c_bands:  2 eigenvalues not converged
     c_bands:  1 eigenvalues not converged
     c_bands:  2 eigenvalues not converged
     c_bands:  1 eigenvalues not converged
     c_bands:  1 eigenvalues not converged
     c_bands:  1 eigenvalues not converged
     c_bands:  1 eigenvalues not converged
     c_bands:  1 eigenvalues not converged
     c_bands:  1 eigenvalues not converged
     c_bands:  1 eigenvalues not converged
     c_bands:  2 eigenvalues not converged
     c_bands:  1 eigenvalues not converged
     c_bands:  2 eigenvalues not converged
     c_bands:  2 eigenvalues not converged
     c_bands:  2 eigenvalues not converged
     c_bands:  2 eigenvalues not converged
     c_bands:  1 eigenvalues not converged
     c_bands:  3 eigenvalues not converged
     c_bands:  2 eigenvalues not converged
     c_bands:  1 eigenvalues not converged
     c_bands:  1 eigenvalues not converged
     c_bands:  1 eigenvalues not converged
     ethr =  4.00E-05,  avg # of iterations =  3.5

     negative rho (up, down):  1.176E-02 1.131E-02

     total cpu time spent up to now is    38104.6 secs

     total energy              =   -5522.87312044 Ry
     estimated scf accuracy    <      62.98764151 Ry

     total magnetization       =    16.42 Bohr mag/cell
     absolute magnetization    =    17.73 Bohr mag/cell

     iteration # 95     ecut=    60.00 Ry     beta= 0.50
     CG style diagonalization

---- Real-time Memory Report at c_bands before calling an iterative solver
           449 MiB given to the printing process from OS
           280 MiB allocation reported by mallinfo(arena+hblkhd)
        450584 MiB available memory on the node where the printing process lives
------------------
     c_bands:  4 eigenvalues not converged
     c_bands:  5 eigenvalues not converged
     c_bands:  5 eigenvalues not converged
     c_bands:  2 eigenvalues not converged
     c_bands:  3 eigenvalues not converged
     c_bands:  5 eigenvalues not converged
     c_bands:  5 eigenvalues not converged
     c_bands:  3 eigenvalues not converged
     c_bands:  2 eigenvalues not converged
     c_bands:  5 eigenvalues not converged
     c_bands:  4 eigenvalues not converged
     c_bands:  2 eigenvalues not converged
     c_bands:  2 eigenvalues not converged
     c_bands:  4 eigenvalues not converged
     c_bands:  3 eigenvalues not converged
     c_bands:  2 eigenvalues not converged
     c_bands:  2 eigenvalues not converged
     c_bands:  5 eigenvalues not converged
     c_bands:  4 eigenvalues not converged
     c_bands:  3 eigenvalues not converged
     c_bands:  4 eigenvalues not converged
     c_bands:  3 eigenvalues not converged
     c_bands:  5 eigenvalues not converged
     c_bands:  5 eigenvalues not converged
     c_bands:  3 eigenvalues not converged
     c_bands:  3 eigenvalues not converged
     c_bands:  1 eigenvalues not converged
     ethr =  4.00E-05,  avg # of iterations =  4.1

     negative rho (up, down):  8.729E-03 8.617E-03

     total cpu time spent up to now is    38518.6 secs

     total energy              =   -5520.88628596 Ry
     estimated scf accuracy    <      17.11425772 Ry

     total magnetization       =    13.23 Bohr mag/cell
     absolute magnetization    =    14.72 Bohr mag/cell

     iteration # 96     ecut=    60.00 Ry     beta= 0.50
     CG style diagonalization

---- Real-time Memory Report at c_bands before calling an iterative solver
           449 MiB given to the printing process from OS
           280 MiB allocation reported by mallinfo(arena+hblkhd)
        450575 MiB available memory on the node where the printing process lives
------------------
     c_bands:  3 eigenvalues not converged
     c_bands:  1 eigenvalues not converged
     c_bands:  2 eigenvalues not converged
     c_bands:  1 eigenvalues not converged
     c_bands:  3 eigenvalues not converged
     c_bands:  4 eigenvalues not converged
     c_bands:  3 eigenvalues not converged
     c_bands:  2 eigenvalues not converged
     c_bands:  3 eigenvalues not converged
     c_bands:  3 eigenvalues not converged
     c_bands:  2 eigenvalues not converged
     c_bands:  3 eigenvalues not converged
     c_bands:  2 eigenvalues not converged
     c_bands:  2 eigenvalues not converged
     c_bands:  1 eigenvalues not converged
     c_bands:  3 eigenvalues not converged
     c_bands:  4 eigenvalues not converged
     c_bands:  3 eigenvalues not converged
     c_bands:  2 eigenvalues not converged
     c_bands:  1 eigenvalues not converged
     c_bands:  4 eigenvalues not converged
     c_bands:  3 eigenvalues not converged
     c_bands:  1 eigenvalues not converged
     c_bands:  3 eigenvalues not converged
     c_bands:  4 eigenvalues not converged
     c_bands:  5 eigenvalues not converged
     c_bands:  1 eigenvalues not converged
     ethr =  4.00E-05,  avg # of iterations =  4.1

     negative rho (up, down):  7.185E-03 7.020E-03

     total cpu time spent up to now is    38927.4 secs

     total energy              =   -5520.80545039 Ry
     estimated scf accuracy    <      10.45132267 Ry

     total magnetization       =    13.24 Bohr mag/cell
     absolute magnetization    =    14.76 Bohr mag/cell

     iteration # 97     ecut=    60.00 Ry     beta= 0.50
     CG style diagonalization

---- Real-time Memory Report at c_bands before calling an iterative solver
           449 MiB given to the printing process from OS
           280 MiB allocation reported by mallinfo(arena+hblkhd)
        450589 MiB available memory on the node where the printing process lives
------------------
     c_bands:  1 eigenvalues not converged
     ethr =  4.00E-05,  avg # of iterations =  3.1

     negative rho (up, down):  7.511E-03 7.347E-03

     total cpu time spent up to now is    39219.7 secs

     total energy              =   -5520.84248131 Ry
     estimated scf accuracy    <      13.52235684 Ry

     total magnetization       =     8.60 Bohr mag/cell
     absolute magnetization    =    10.46 Bohr mag/cell

     iteration # 98     ecut=    60.00 Ry     beta= 0.50
     CG style diagonalization

---- Real-time Memory Report at c_bands before calling an iterative solver
           449 MiB given to the printing process from OS
           280 MiB allocation reported by mallinfo(arena+hblkhd)
        450592 MiB available memory on the node where the printing process lives
------------------
     ethr =  4.00E-05,  avg # of iterations =  3.1

     negative rho (up, down):  7.173E-03 7.028E-03

     total cpu time spent up to now is    39505.9 secs

     total energy              =   -5521.11723934 Ry
     estimated scf accuracy    <      11.92487473 Ry

     total magnetization       =    13.44 Bohr mag/cell
     absolute magnetization    =    15.02 Bohr mag/cell

     iteration # 99     ecut=    60.00 Ry     beta= 0.50
     CG style diagonalization

---- Real-time Memory Report at c_bands before calling an iterative solver
           449 MiB given to the printing process from OS
           280 MiB allocation reported by mallinfo(arena+hblkhd)
        450600 MiB available memory on the node where the printing process lives
------------------
     ethr =  4.00E-05,  avg # of iterations =  3.0

     negative rho (up, down):  6.009E-03 5.878E-03

     total cpu time spent up to now is    39782.3 secs

     total energy              =   -5520.84582494 Ry
     estimated scf accuracy    <      11.96050777 Ry

     total magnetization       =    13.47 Bohr mag/cell
     absolute magnetization    =    15.07 Bohr mag/cell

     iteration #100     ecut=    60.00 Ry     beta= 0.50
     CG style diagonalization

---- Real-time Memory Report at c_bands before calling an iterative solver
           449 MiB given to the printing process from OS
           280 MiB allocation reported by mallinfo(arena+hblkhd)
        450605 MiB available memory on the node where the printing process lives
------------------
     ethr =  4.00E-05,  avg # of iterations =  3.1

     negative rho (up, down):  4.579E-03 4.454E-03

     total cpu time spent up to now is    40064.7 secs

     total energy              =   -5521.11726834 Ry
     estimated scf accuracy    <      13.49831616 Ry

     total magnetization       =     8.67 Bohr mag/cell
     absolute magnetization    =    10.56 Bohr mag/cell

     iteration #101     ecut=    60.00 Ry     beta= 0.50
     CG style diagonalization

---- Real-time Memory Report at c_bands before calling an iterative solver
           449 MiB given to the printing process from OS
           280 MiB allocation reported by mallinfo(arena+hblkhd)
        450615 MiB available memory on the node where the printing process lives
------------------
     ethr =  4.00E-05,  avg # of iterations =  3.0

     negative rho (up, down):  2.064E-03 1.987E-03

     total cpu time spent up to now is    40341.4 secs

     total energy              =   -5521.30722424 Ry
     estimated scf accuracy    <      13.56678468 Ry

     total magnetization       =     8.72 Bohr mag/cell
     absolute magnetization    =    10.65 Bohr mag/cell

     iteration #102     ecut=    60.00 Ry     beta= 0.50
     CG style diagonalization

---- Real-time Memory Report at c_bands before calling an iterative solver
           449 MiB given to the printing process from OS
           280 MiB allocation reported by mallinfo(arena+hblkhd)
        450613 MiB available memory on the node where the printing process lives
------------------
     c_bands:  1 eigenvalues not converged
     ethr =  4.00E-05,  avg # of iterations =  3.1

     negative rho (up, down):  1.573E-03 1.558E-03

     total cpu time spent up to now is    40626.4 secs

     total energy              =   -5521.17700292 Ry
     estimated scf accuracy    <      13.78563231 Ry

     total magnetization       =     8.77 Bohr mag/cell
     absolute magnetization    =    10.74 Bohr mag/cell

     iteration #103     ecut=    60.00 Ry     beta= 0.50
     CG style diagonalization

---- Real-time Memory Report at c_bands before calling an iterative solver
           449 MiB given to the printing process from OS
           280 MiB allocation reported by mallinfo(arena+hblkhd)
        450612 MiB available memory on the node where the printing process lives
------------------
     ethr =  4.00E-05,  avg # of iterations =  3.0

     negative rho (up, down):  7.121E-04 7.172E-04

     total cpu time spent up to now is    40903.2 secs

     total energy              =   -5521.22790122 Ry
     estimated scf accuracy    <      13.63684802 Ry

     total magnetization       =     8.81 Bohr mag/cell
     absolute magnetization    =    10.80 Bohr mag/cell

     iteration #104     ecut=    60.00 Ry     beta= 0.50
     CG style diagonalization

---- Real-time Memory Report at c_bands before calling an iterative solver
           449 MiB given to the printing process from OS
           280 MiB allocation reported by mallinfo(arena+hblkhd)
        450616 MiB available memory on the node where the printing process lives
------------------
     ethr =  4.00E-05,  avg # of iterations =  3.0

     negative rho (up, down):  1.018E-03 1.020E-03

     total cpu time spent up to now is    41179.9 secs

     total energy              =   -5521.17674300 Ry
     estimated scf accuracy    <      13.64847614 Ry

     total magnetization       =     8.84 Bohr mag/cell
     absolute magnetization    =    10.85 Bohr mag/cell

     iteration #105     ecut=    60.00 Ry     beta= 0.50
     CG style diagonalization

---- Real-time Memory Report at c_bands before calling an iterative solver
           449 MiB given to the printing process from OS
           280 MiB allocation reported by mallinfo(arena+hblkhd)
        450596 MiB available memory on the node where the printing process lives
------------------
     ethr =  4.00E-05,  avg # of iterations =  3.0

     negative rho (up, down):  1.366E-03 1.358E-03

     total cpu time spent up to now is    41455.1 secs

     total energy              =   -5521.15942567 Ry
     estimated scf accuracy    <      13.55145571 Ry

     total magnetization       =     8.84 Bohr mag/cell
     absolute magnetization    =    10.87 Bohr mag/cell

     iteration #106     ecut=    60.00 Ry     beta= 0.50
     CG style diagonalization

---- Real-time Memory Report at c_bands before calling an iterative solver
           449 MiB given to the printing process from OS
           280 MiB allocation reported by mallinfo(arena+hblkhd)
        450605 MiB available memory on the node where the printing process lives
------------------
     ethr =  4.00E-05,  avg # of iterations =  3.0

     negative rho (up, down):  1.431E-03 1.427E-03

     total cpu time spent up to now is    41731.2 secs

     total energy              =   -5521.12741209 Ry
     estimated scf accuracy    <      13.54831129 Ry

     total magnetization       =     8.84 Bohr mag/cell
     absolute magnetization    =    10.86 Bohr mag/cell

     iteration #107     ecut=    60.00 Ry     beta= 0.50
     CG style diagonalization

---- Real-time Memory Report at c_bands before calling an iterative solver
           449 MiB given to the printing process from OS
           280 MiB allocation reported by mallinfo(arena+hblkhd)
        450586 MiB available memory on the node where the printing process lives
------------------
     ethr =  4.00E-05,  avg # of iterations =  3.0

     negative rho (up, down):  1.463E-03 1.461E-03

     total cpu time spent up to now is    42007.3 secs

     total energy              =   -5521.21162731 Ry
     estimated scf accuracy    <      13.50793792 Ry

     total magnetization       =     8.84 Bohr mag/cell
     absolute magnetization    =    10.86 Bohr mag/cell

     iteration #108     ecut=    60.00 Ry     beta= 0.50
     CG style diagonalization

---- Real-time Memory Report at c_bands before calling an iterative solver
           449 MiB given to the printing process from OS
           280 MiB allocation reported by mallinfo(arena+hblkhd)
        450589 MiB available memory on the node where the printing process lives
------------------
     ethr =  4.00E-05,  avg # of iterations =  3.0

     negative rho (up, down):  2.318E-03 2.311E-03

     total cpu time spent up to now is    42282.3 secs

     total energy              =   -5521.07295350 Ry
     estimated scf accuracy    <      13.62085049 Ry

     total magnetization       =     8.84 Bohr mag/cell
     absolute magnetization    =    10.86 Bohr mag/cell

     iteration #109     ecut=    60.00 Ry     beta= 0.50
     CG style diagonalization

---- Real-time Memory Report at c_bands before calling an iterative solver
           449 MiB given to the printing process from OS
           280 MiB allocation reported by mallinfo(arena+hblkhd)
        450603 MiB available memory on the node where the printing process lives
------------------
     ethr =  4.00E-05,  avg # of iterations =  3.0

     negative rho (up, down):  2.237E-03 2.228E-03

     total cpu time spent up to now is    42558.0 secs

     total energy              =   -5521.09747733 Ry
     estimated scf accuracy    <      13.41169206 Ry

     total magnetization       =     8.84 Bohr mag/cell
     absolute magnetization    =    10.86 Bohr mag/cell

     iteration #110     ecut=    60.00 Ry     beta= 0.50
     CG style diagonalization

---- Real-time Memory Report at c_bands before calling an iterative solver
           449 MiB given to the printing process from OS
           280 MiB allocation reported by mallinfo(arena+hblkhd)
        450600 MiB available memory on the node where the printing process lives
------------------
     c_bands:  1 eigenvalues not converged
     ethr =  4.00E-05,  avg # of iterations =  3.0

     negative rho (up, down):  1.135E-03 9.735E-04

     total cpu time spent up to now is    42833.8 secs

     total energy              =   -5521.29234985 Ry
     estimated scf accuracy    <      13.47463296 Ry

     total magnetization       =     8.83 Bohr mag/cell
     absolute magnetization    =    10.84 Bohr mag/cell

     iteration #111     ecut=    60.00 Ry     beta= 0.50
     CG style diagonalization

---- Real-time Memory Report at c_bands before calling an iterative solver
           449 MiB given to the printing process from OS
           280 MiB allocation reported by mallinfo(arena+hblkhd)
        450601 MiB available memory on the node where the printing process lives
------------------
     ethr =  4.00E-05,  avg # of iterations =  3.0

     negative rho (up, down):  2.558E-03 2.472E-03

     total cpu time spent up to now is    43115.2 secs

     total energy              =   -5521.34893677 Ry
     estimated scf accuracy    <      13.78708067 Ry

     total magnetization       =     8.74 Bohr mag/cell
     absolute magnetization    =    10.70 Bohr mag/cell

     iteration #112     ecut=    60.00 Ry     beta= 0.50
     CG style diagonalization

---- Real-time Memory Report at c_bands before calling an iterative solver
           449 MiB given to the printing process from OS
           280 MiB allocation reported by mallinfo(arena+hblkhd)
        450614 MiB available memory on the node where the printing process lives
------------------
     ethr =  4.00E-05,  avg # of iterations =  3.0

     negative rho (up, down):  1.395E-03 1.468E-03

     total cpu time spent up to now is    43393.4 secs

     total energy              =   -5522.64800378 Ry
     estimated scf accuracy    <      13.94936223 Ry

     total magnetization       =     8.70 Bohr mag/cell
     absolute magnetization    =    10.62 Bohr mag/cell

     iteration #113     ecut=    60.00 Ry     beta= 0.50
     CG style diagonalization

---- Real-time Memory Report at c_bands before calling an iterative solver
           449 MiB given to the printing process from OS
           280 MiB allocation reported by mallinfo(arena+hblkhd)
        450600 MiB available memory on the node where the printing process lives
------------------
     c_bands:  1 eigenvalues not converged
     c_bands:  1 eigenvalues not converged
     c_bands:  1 eigenvalues not converged
     c_bands:  1 eigenvalues not converged
     c_bands:  1 eigenvalues not converged
     c_bands:  1 eigenvalues not converged
     ethr =  4.00E-05,  avg # of iterations =  3.2

     negative rho (up, down):  2.161E-03 2.085E-03

     total cpu time spent up to now is    43700.2 secs

     total energy              =   -5522.86911983 Ry
     estimated scf accuracy    <      15.63128505 Ry

     total magnetization       =     8.83 Bohr mag/cell
     absolute magnetization    =    10.82 Bohr mag/cell

     iteration #114     ecut=    60.00 Ry     beta= 0.50
     CG style diagonalization

---- Real-time Memory Report at c_bands before calling an iterative solver
           449 MiB given to the printing process from OS
           280 MiB allocation reported by mallinfo(arena+hblkhd)
        450602 MiB available memory on the node where the printing process lives
------------------
     c_bands:  1 eigenvalues not converged
     ethr =  4.00E-05,  avg # of iterations =  3.1

     negative rho (up, down):  1.900E-03 1.880E-03

     total cpu time spent up to now is    43985.9 secs

     total energy              =   -5522.73852802 Ry
     estimated scf accuracy    <      15.80184702 Ry

     total magnetization       =     8.76 Bohr mag/cell
     absolute magnetization    =    10.70 Bohr mag/cell

     iteration #115     ecut=    60.00 Ry     beta= 0.50
     CG style diagonalization

---- Real-time Memory Report at c_bands before calling an iterative solver
           449 MiB given to the printing process from OS
           280 MiB allocation reported by mallinfo(arena+hblkhd)
        450603 MiB available memory on the node where the printing process lives
------------------
     ethr =  4.00E-05,  avg # of iterations =  3.0

     negative rho (up, down):  4.026E-03 4.009E-03

     total cpu time spent up to now is    44262.4 secs

     total energy              =   -5523.05186915 Ry
     estimated scf accuracy    <      15.66585071 Ry

     total magnetization       =     8.75 Bohr mag/cell
     absolute magnetization    =    10.70 Bohr mag/cell

     iteration #116     ecut=    60.00 Ry     beta= 0.50
     CG style diagonalization

---- Real-time Memory Report at c_bands before calling an iterative solver
           449 MiB given to the printing process from OS
           280 MiB allocation reported by mallinfo(arena+hblkhd)
        450613 MiB available memory on the node where the printing process lives
------------------
     c_bands:  1 eigenvalues not converged
     c_bands:  1 eigenvalues not converged
     ethr =  4.00E-05,  avg # of iterations =  3.1

     negative rho (up, down):  3.077E-03 3.046E-03

     total cpu time spent up to now is    44545.0 secs

     total energy              =   -5522.95988024 Ry
     estimated scf accuracy    <      16.11004580 Ry

     total magnetization       =     8.76 Bohr mag/cell
     absolute magnetization    =    10.72 Bohr mag/cell

     iteration #117     ecut=    60.00 Ry     beta= 0.50
     CG style diagonalization

---- Real-time Memory Report at c_bands before calling an iterative solver
           449 MiB given to the printing process from OS
           280 MiB allocation reported by mallinfo(arena+hblkhd)
        450601 MiB available memory on the node where the printing process lives
------------------
     ethr =  4.00E-05,  avg # of iterations =  3.0

     negative rho (up, down):  2.332E-03 2.309E-03

     total cpu time spent up to now is    44821.3 secs

     total energy              =   -5522.95134701 Ry
     estimated scf accuracy    <      15.96187428 Ry

     total magnetization       =     8.76 Bohr mag/cell
     absolute magnetization    =    10.73 Bohr mag/cell

     iteration #118     ecut=    60.00 Ry     beta= 0.50
     CG style diagonalization

---- Real-time Memory Report at c_bands before calling an iterative solver
           449 MiB given to the printing process from OS
           280 MiB allocation reported by mallinfo(arena+hblkhd)
        450618 MiB available memory on the node where the printing process lives
------------------
     ethr =  4.00E-05,  avg # of iterations =  3.0

     negative rho (up, down):  1.702E-03 1.675E-03

     total cpu time spent up to now is    45097.6 secs

     total energy              =   -5522.94699507 Ry
     estimated scf accuracy    <      15.95420027 Ry

     total magnetization       =     8.76 Bohr mag/cell
     absolute magnetization    =    10.72 Bohr mag/cell

     iteration #119     ecut=    60.00 Ry     beta= 0.50
     CG style diagonalization

---- Real-time Memory Report at c_bands before calling an iterative solver
           449 MiB given to the printing process from OS
           280 MiB allocation reported by mallinfo(arena+hblkhd)
        450579 MiB available memory on the node where the printing process lives
------------------
     ethr =  4.00E-05,  avg # of iterations =  3.0

     negative rho (up, down):  1.788E-03 1.761E-03

     total cpu time spent up to now is    45374.4 secs

     total energy              =   -5522.94431645 Ry
     estimated scf accuracy    <      15.90989649 Ry

     total magnetization       =     8.76 Bohr mag/cell
     absolute magnetization    =    10.71 Bohr mag/cell

     iteration #120     ecut=    60.00 Ry     beta= 0.50
     CG style diagonalization

---- Real-time Memory Report at c_bands before calling an iterative solver
           449 MiB given to the printing process from OS
           280 MiB allocation reported by mallinfo(arena+hblkhd)
        450582 MiB available memory on the node where the printing process lives
------------------
     ethr =  4.00E-05,  avg # of iterations =  3.0

     negative rho (up, down):  1.367E-01 1.311E-01

     total cpu time spent up to now is    45650.6 secs

     total energy              =   -5518.12508085 Ry
     estimated scf accuracy    <      15.90289776 Ry

     total magnetization       =     8.76 Bohr mag/cell
     absolute magnetization    =    10.71 Bohr mag/cell

     iteration #121     ecut=    60.00 Ry     beta= 0.50
     CG style diagonalization

---- Real-time Memory Report at c_bands before calling an iterative solver
           449 MiB given to the printing process from OS
           280 MiB allocation reported by mallinfo(arena+hblkhd)
        450591 MiB available memory on the node where the printing process lives
------------------
     c_bands:  1 eigenvalues not converged
     c_bands:  4 eigenvalues not converged
     c_bands:  2 eigenvalues not converged
     c_bands:  5 eigenvalues not converged
     c_bands:  5 eigenvalues not converged
     c_bands:  1 eigenvalues not converged
     c_bands:  2 eigenvalues not converged
     ethr =  4.00E-05,  avg # of iterations =  7.4

     negative rho (up, down):  1.061E-02 1.102E-02

     total cpu time spent up to now is    46408.4 secs

     total energy              =   -5519.12813878 Ry
     estimated scf accuracy    <      30.78649534 Ry

     total magnetization       =    15.07 Bohr mag/cell
     absolute magnetization    =    16.95 Bohr mag/cell

     iteration #122     ecut=    60.00 Ry     beta= 0.50
     CG style diagonalization

---- Real-time Memory Report at c_bands before calling an iterative solver
           449 MiB given to the printing process from OS
           280 MiB allocation reported by mallinfo(arena+hblkhd)
        450608 MiB available memory on the node where the printing process lives
------------------
     c_bands:  1 eigenvalues not converged
     c_bands:  2 eigenvalues not converged
     c_bands:  2 eigenvalues not converged
     c_bands:  4 eigenvalues not converged
     c_bands:  4 eigenvalues not converged
     c_bands:  3 eigenvalues not converged
     c_bands:  3 eigenvalues not converged
     c_bands:  3 eigenvalues not converged
     c_bands:  3 eigenvalues not converged
     c_bands:  3 eigenvalues not converged
     c_bands:  4 eigenvalues not converged
     c_bands:  1 eigenvalues not converged
     c_bands:  2 eigenvalues not converged
     c_bands:  3 eigenvalues not converged
     c_bands:  3 eigenvalues not converged
     c_bands:  4 eigenvalues not converged
     c_bands:  1 eigenvalues not converged
     c_bands:  3 eigenvalues not converged
     c_bands:  5 eigenvalues not converged
     c_bands:  3 eigenvalues not converged
     c_bands:  3 eigenvalues not converged
     c_bands:  5 eigenvalues not converged
     c_bands:  2 eigenvalues not converged
     ethr =  4.00E-05,  avg # of iterations =  4.9

     negative rho (up, down):  7.833E-03 8.117E-03

     total cpu time spent up to now is    46909.0 secs

     total energy              =   -5521.44602846 Ry
     estimated scf accuracy    <      14.33656829 Ry

     total magnetization       =     8.73 Bohr mag/cell
     absolute magnetization    =    10.74 Bohr mag/cell

     iteration #123     ecut=    60.00 Ry     beta= 0.50
     CG style diagonalization

---- Real-time Memory Report at c_bands before calling an iterative solver
           449 MiB given to the printing process from OS
           280 MiB allocation reported by mallinfo(arena+hblkhd)
        450602 MiB available memory on the node where the printing process lives
------------------
     ethr =  4.00E-05,  avg # of iterations =  3.1

     negative rho (up, down):  2.230E-02 2.195E-02

     total cpu time spent up to now is    47196.5 secs

     total energy              =   -5521.67232988 Ry
     estimated scf accuracy    <      13.90166642 Ry

     total magnetization       =     8.75 Bohr mag/cell
     absolute magnetization    =    10.77 Bohr mag/cell

     iteration #124     ecut=    60.00 Ry     beta= 0.50
     CG style diagonalization

---- Real-time Memory Report at c_bands before calling an iterative solver
           449 MiB given to the printing process from OS
           280 MiB allocation reported by mallinfo(arena+hblkhd)
        450604 MiB available memory on the node where the printing process lives
------------------
     ethr =  4.00E-05,  avg # of iterations =  3.1

     negative rho (up, down):  2.457E-02 2.431E-02

     total cpu time spent up to now is    47479.4 secs

     total energy              =   -5521.49201056 Ry
     estimated scf accuracy    <      14.46911288 Ry

     total magnetization       =     8.72 Bohr mag/cell
     absolute magnetization    =    10.65 Bohr mag/cell

     iteration #125     ecut=    60.00 Ry     beta= 0.50
     CG style diagonalization

---- Real-time Memory Report at c_bands before calling an iterative solver
           449 MiB given to the printing process from OS
           280 MiB allocation reported by mallinfo(arena+hblkhd)
        450604 MiB available memory on the node where the printing process lives
------------------
     ethr =  4.00E-05,  avg # of iterations =  3.0

     negative rho (up, down):  2.281E-02 2.270E-02

     total cpu time spent up to now is    47757.2 secs

     total energy              =   -5521.49454288 Ry
     estimated scf accuracy    <      14.38033370 Ry

     total magnetization       =     8.72 Bohr mag/cell
     absolute magnetization    =    10.64 Bohr mag/cell

     iteration #126     ecut=    60.00 Ry     beta= 0.50
     CG style diagonalization

---- Real-time Memory Report at c_bands before calling an iterative solver
           449 MiB given to the printing process from OS
           280 MiB allocation reported by mallinfo(arena+hblkhd)
        450608 MiB available memory on the node where the printing process lives
------------------
     ethr =  4.00E-05,  avg # of iterations =  3.0

     negative rho (up, down):  2.286E-02 2.274E-02

     total cpu time spent up to now is    48032.7 secs

     total energy              =   -5521.49795932 Ry
     estimated scf accuracy    <      14.00388161 Ry

     total magnetization       =     8.75 Bohr mag/cell
     absolute magnetization    =    10.67 Bohr mag/cell

     iteration #127     ecut=    60.00 Ry     beta= 0.50
     CG style diagonalization

---- Real-time Memory Report at c_bands before calling an iterative solver
           449 MiB given to the printing process from OS
           280 MiB allocation reported by mallinfo(arena+hblkhd)
        450606 MiB available memory on the node where the printing process lives
------------------
     ethr =  4.00E-05,  avg # of iterations =  3.0

     negative rho (up, down):  2.070E-02 2.044E-02

     total cpu time spent up to now is    48308.4 secs

     total energy              =   -5521.38944979 Ry
     estimated scf accuracy    <      14.00801332 Ry

     total magnetization       =     8.75 Bohr mag/cell
     absolute magnetization    =    10.67 Bohr mag/cell

     iteration #128     ecut=    60.00 Ry     beta= 0.50
     CG style diagonalization

---- Real-time Memory Report at c_bands before calling an iterative solver
           449 MiB given to the printing process from OS
           280 MiB allocation reported by mallinfo(arena+hblkhd)
        450604 MiB available memory on the node where the printing process lives
------------------
     ethr =  4.00E-05,  avg # of iterations =  3.0

     negative rho (up, down):  1.666E-02 1.647E-02

     total cpu time spent up to now is    48583.5 secs

     total energy              =   -5521.53320858 Ry
     estimated scf accuracy    <      13.85431181 Ry

     total magnetization       =     8.83 Bohr mag/cell
     absolute magnetization    =    10.82 Bohr mag/cell

     iteration #129     ecut=    60.00 Ry     beta= 0.50
     CG style diagonalization

---- Real-time Memory Report at c_bands before calling an iterative solver
           449 MiB given to the printing process from OS
           280 MiB allocation reported by mallinfo(arena+hblkhd)
        450610 MiB available memory on the node where the printing process lives
------------------
     ethr =  4.00E-05,  avg # of iterations =  3.0

     negative rho (up, down):  9.324E-03 9.020E-03

     total cpu time spent up to now is    48881.0 secs

     total energy              =   -5521.52741217 Ry
     estimated scf accuracy    <      14.11157520 Ry

     total magnetization       =     8.83 Bohr mag/cell
     absolute magnetization    =    10.81 Bohr mag/cell

     iteration #130     ecut=    60.00 Ry     beta= 0.50
     CG style diagonalization

---- Real-time Memory Report at c_bands before calling an iterative solver
           449 MiB given to the printing process from OS
           280 MiB allocation reported by mallinfo(arena+hblkhd)
        450579 MiB available memory on the node where the printing process lives
------------------
     ethr =  4.00E-05,  avg # of iterations =  3.0

     negative rho (up, down):  5.223E-03 5.004E-03

     total cpu time spent up to now is    49157.7 secs

     total energy              =   -5521.30000287 Ry
     estimated scf accuracy    <      14.20392333 Ry

     total magnetization       =     8.91 Bohr mag/cell
     absolute magnetization    =    10.99 Bohr mag/cell

     iteration #131     ecut=    60.00 Ry     beta= 0.50
     CG style diagonalization

---- Real-time Memory Report at c_bands before calling an iterative solver
           449 MiB given to the printing process from OS
           280 MiB allocation reported by mallinfo(arena+hblkhd)
        450579 MiB available memory on the node where the printing process lives
------------------
     ethr =  4.00E-05,  avg # of iterations =  3.1

     negative rho (up, down):  1.308E-02 1.321E-02

     total cpu time spent up to now is    49441.6 secs

     total energy              =   -5521.52968231 Ry
     estimated scf accuracy    <      13.73975605 Ry

     total magnetization       =     8.91 Bohr mag/cell
     absolute magnetization    =    11.00 Bohr mag/cell

     iteration #132     ecut=    60.00 Ry     beta= 0.50
     CG style diagonalization

---- Real-time Memory Report at c_bands before calling an iterative solver
           449 MiB given to the printing process from OS
           280 MiB allocation reported by mallinfo(arena+hblkhd)
        450589 MiB available memory on the node where the printing process lives
------------------
     ethr =  4.00E-05,  avg # of iterations =  3.1

     negative rho (up, down):  1.182E-02 1.209E-02

     total cpu time spent up to now is    49723.3 secs

     total energy              =   -5521.55491177 Ry
     estimated scf accuracy    <      13.98307152 Ry

     total magnetization       =     8.90 Bohr mag/cell
     absolute magnetization    =    10.98 Bohr mag/cell

     iteration #133     ecut=    60.00 Ry     beta= 0.50
     CG style diagonalization

---- Real-time Memory Report at c_bands before calling an iterative solver
           449 MiB given to the printing process from OS
           280 MiB allocation reported by mallinfo(arena+hblkhd)
        450599 MiB available memory on the node where the printing process lives
------------------
     ethr =  4.00E-05,  avg # of iterations =  3.0

     negative rho (up, down):  1.300E-02 1.354E-02

     total cpu time spent up to now is    49999.5 secs

     total energy              =   -5521.47098124 Ry
     estimated scf accuracy    <      13.99584606 Ry

     total magnetization       =     8.89 Bohr mag/cell
     absolute magnetization    =    10.97 Bohr mag/cell

     iteration #134     ecut=    60.00 Ry     beta= 0.50
     CG style diagonalization

---- Real-time Memory Report at c_bands before calling an iterative solver
           449 MiB given to the printing process from OS
           280 MiB allocation reported by mallinfo(arena+hblkhd)
        450599 MiB available memory on the node where the printing process lives
------------------
     ethr =  4.00E-05,  avg # of iterations =  3.0

     negative rho (up, down):  1.811E-02 1.907E-02

     total cpu time spent up to now is    50278.0 secs

     total energy              =   -5521.27085980 Ry
     estimated scf accuracy    <      13.86941819 Ry

     total magnetization       =     8.83 Bohr mag/cell
     absolute magnetization    =    10.87 Bohr mag/cell

     iteration #135     ecut=    60.00 Ry     beta= 0.50
     CG style diagonalization

---- Real-time Memory Report at c_bands before calling an iterative solver
           449 MiB given to the printing process from OS
           280 MiB allocation reported by mallinfo(arena+hblkhd)
        450597 MiB available memory on the node where the printing process lives
------------------
     ethr =  4.00E-05,  avg # of iterations =  3.0

     negative rho (up, down):  1.645E-02 1.699E-02

     total cpu time spent up to now is    50559.6 secs

     total energy              =   -5520.93871549 Ry
     estimated scf accuracy    <      13.53110406 Ry

     total magnetization       =     8.90 Bohr mag/cell
     absolute magnetization    =    10.99 Bohr mag/cell

     iteration #136     ecut=    60.00 Ry     beta= 0.50
     CG style diagonalization

---- Real-time Memory Report at c_bands before calling an iterative solver
           449 MiB given to the printing process from OS
           280 MiB allocation reported by mallinfo(arena+hblkhd)
        450605 MiB available memory on the node where the printing process lives
------------------
     ethr =  4.00E-05,  avg # of iterations =  3.1

     negative rho (up, down):  8.127E-03 8.247E-03

     total cpu time spent up to now is    50856.1 secs

     total energy              =   -5520.63228136 Ry
     estimated scf accuracy    <       1.80505049 Ry

     total magnetization       =    12.56 Bohr mag/cell
     absolute magnetization    =    14.61 Bohr mag/cell

     iteration #137     ecut=    60.00 Ry     beta= 0.50
     CG style diagonalization

---- Real-time Memory Report at c_bands before calling an iterative solver
           449 MiB given to the printing process from OS
           280 MiB allocation reported by mallinfo(arena+hblkhd)
        450605 MiB available memory on the node where the printing process lives
------------------
     c_bands:  1 eigenvalues not converged
     c_bands:  1 eigenvalues not converged
     c_bands:  1 eigenvalues not converged
     c_bands:  1 eigenvalues not converged
     ethr =  4.00E-05,  avg # of iterations =  3.2

     negative rho (up, down):  6.797E-03 6.994E-03

     total cpu time spent up to now is    51167.0 secs

     total energy              =   -5522.11540588 Ry
     estimated scf accuracy    <      14.77848422 Ry

     total magnetization       =     8.88 Bohr mag/cell
     absolute magnetization    =    10.96 Bohr mag/cell

     iteration #138     ecut=    60.00 Ry     beta= 0.50
     CG style diagonalization

---- Real-time Memory Report at c_bands before calling an iterative solver
           449 MiB given to the printing process from OS
           280 MiB allocation reported by mallinfo(arena+hblkhd)
        450616 MiB available memory on the node where the printing process lives
------------------
     c_bands:  1 eigenvalues not converged
     ethr =  4.00E-05,  avg # of iterations =  3.0

     negative rho (up, down):  1.014E-02 1.077E-02

     total cpu time spent up to now is    51449.4 secs

     total energy              =   -5522.25653829 Ry
     estimated scf accuracy    <      14.76922657 Ry

     total magnetization       =     8.88 Bohr mag/cell
     absolute magnetization    =    10.97 Bohr mag/cell

     iteration #139     ecut=    60.00 Ry     beta= 0.50
     CG style diagonalization

---- Real-time Memory Report at c_bands before calling an iterative solver
           449 MiB given to the printing process from OS
           280 MiB allocation reported by mallinfo(arena+hblkhd)
        450608 MiB available memory on the node where the printing process lives
------------------
     ethr =  4.00E-05,  avg # of iterations =  3.0

     negative rho (up, down):  5.476E-03 6.031E-03

     total cpu time spent up to now is    51725.1 secs

     total energy              =   -5522.26171632 Ry
     estimated scf accuracy    <      15.02912175 Ry

     total magnetization       =     8.87 Bohr mag/cell
     absolute magnetization    =    10.95 Bohr mag/cell

     iteration #140     ecut=    60.00 Ry     beta= 0.50
     CG style diagonalization

---- Real-time Memory Report at c_bands before calling an iterative solver
           449 MiB given to the printing process from OS
           280 MiB allocation reported by mallinfo(arena+hblkhd)
        450610 MiB available memory on the node where the printing process lives
------------------
     ethr =  4.00E-05,  avg # of iterations =  3.0

     negative rho (up, down):  1.414E-02 1.543E-02

     total cpu time spent up to now is    52002.0 secs

     total energy              =   -5522.35575267 Ry
     estimated scf accuracy    <      15.06445408 Ry

     total magnetization       =     8.85 Bohr mag/cell
     absolute magnetization    =    10.93 Bohr mag/cell

     iteration #141     ecut=    60.00 Ry     beta= 0.50
     CG style diagonalization

---- Real-time Memory Report at c_bands before calling an iterative solver
           449 MiB given to the printing process from OS
           280 MiB allocation reported by mallinfo(arena+hblkhd)
        450604 MiB available memory on the node where the printing process lives
------------------
     ethr =  4.00E-05,  avg # of iterations =  3.0

     negative rho (up, down):  9.898E-03 1.032E-02

     total cpu time spent up to now is    52282.6 secs

     total energy              =   -5522.25229278 Ry
     estimated scf accuracy    <      15.13865951 Ry

     total magnetization       =     8.82 Bohr mag/cell
     absolute magnetization    =    10.85 Bohr mag/cell

     iteration #142     ecut=    60.00 Ry     beta= 0.50
     CG style diagonalization

---- Real-time Memory Report at c_bands before calling an iterative solver
           449 MiB given to the printing process from OS
           280 MiB allocation reported by mallinfo(arena+hblkhd)
        450599 MiB available memory on the node where the printing process lives
------------------
     ethr =  4.00E-05,  avg # of iterations =  3.0

     negative rho (up, down):  1.033E-02 1.075E-02

     total cpu time spent up to now is    52560.5 secs

     total energy              =   -5522.22468313 Ry
     estimated scf accuracy    <      14.95467623 Ry

     total magnetization       =     8.81 Bohr mag/cell
     absolute magnetization    =    10.83 Bohr mag/cell

     iteration #143     ecut=    60.00 Ry     beta= 0.50
     CG style diagonalization

---- Real-time Memory Report at c_bands before calling an iterative solver
           449 MiB given to the printing process from OS
           280 MiB allocation reported by mallinfo(arena+hblkhd)
        450580 MiB available memory on the node where the printing process lives
------------------
     ethr =  4.00E-05,  avg # of iterations =  3.0

     negative rho (up, down):  1.039E-02 1.079E-02

     total cpu time spent up to now is    52836.5 secs

     total energy              =   -5522.22626449 Ry
     estimated scf accuracy    <      14.91287045 Ry

     total magnetization       =     8.82 Bohr mag/cell
     absolute magnetization    =    10.83 Bohr mag/cell

     iteration #144     ecut=    60.00 Ry     beta= 0.50
     CG style diagonalization

---- Real-time Memory Report at c_bands before calling an iterative solver
           449 MiB given to the printing process from OS
           280 MiB allocation reported by mallinfo(arena+hblkhd)
        450591 MiB available memory on the node where the printing process lives
------------------
     ethr =  4.00E-05,  avg # of iterations =  3.0

     negative rho (up, down):  1.039E-02 1.102E-02

     total cpu time spent up to now is    53111.2 secs

     total energy              =   -5522.16514667 Ry
     estimated scf accuracy    <      14.91472422 Ry

     total magnetization       =     8.82 Bohr mag/cell
     absolute magnetization    =    10.83 Bohr mag/cell

     iteration #145     ecut=    60.00 Ry     beta= 0.50
     CG style diagonalization

---- Real-time Memory Report at c_bands before calling an iterative solver
           449 MiB given to the printing process from OS
           280 MiB allocation reported by mallinfo(arena+hblkhd)
        450604 MiB available memory on the node where the printing process lives
------------------
     ethr =  4.00E-05,  avg # of iterations =  3.0

     negative rho (up, down):  1.061E-02 1.130E-02

     total cpu time spent up to now is    53386.6 secs

     total energy              =   -5522.15185407 Ry
     estimated scf accuracy    <      14.88881113 Ry

     total magnetization       =     8.83 Bohr mag/cell
     absolute magnetization    =    10.86 Bohr mag/cell

     iteration #146     ecut=    60.00 Ry     beta= 0.50
     CG style diagonalization

---- Real-time Memory Report at c_bands before calling an iterative solver
           449 MiB given to the printing process from OS
           280 MiB allocation reported by mallinfo(arena+hblkhd)
        450600 MiB available memory on the node where the printing process lives
------------------
     ethr =  4.00E-05,  avg # of iterations =  3.0

     negative rho (up, down):  9.709E-03 1.014E-02

     total cpu time spent up to now is    53662.9 secs

     total energy              =   -5522.06653582 Ry
     estimated scf accuracy    <      14.87560255 Ry

     total magnetization       =     8.83 Bohr mag/cell
     absolute magnetization    =    10.85 Bohr mag/cell

     iteration #147     ecut=    60.00 Ry     beta= 0.50
     CG style diagonalization

---- Real-time Memory Report at c_bands before calling an iterative solver
           449 MiB given to the printing process from OS
           280 MiB allocation reported by mallinfo(arena+hblkhd)
        450600 MiB available memory on the node where the printing process lives
------------------
     ethr =  4.00E-05,  avg # of iterations =  3.0

     negative rho (up, down):  1.612E-02 1.629E-02

     total cpu time spent up to now is    53939.4 secs

     total energy              =   -5522.18473429 Ry
     estimated scf accuracy    <      14.74740930 Ry

     total magnetization       =     8.84 Bohr mag/cell
     absolute magnetization    =    10.88 Bohr mag/cell

     iteration #148     ecut=    60.00 Ry     beta= 0.50
     CG style diagonalization

---- Real-time Memory Report at c_bands before calling an iterative solver
           449 MiB given to the printing process from OS
           280 MiB allocation reported by mallinfo(arena+hblkhd)
        450606 MiB available memory on the node where the printing process lives
------------------
     ethr =  4.00E-05,  avg # of iterations =  3.0

     negative rho (up, down):  1.290E-02 1.361E-02

     total cpu time spent up to now is    54216.6 secs

     total energy              =   -5522.19284711 Ry
     estimated scf accuracy    <      14.86652104 Ry

     total magnetization       =     8.78 Bohr mag/cell
     absolute magnetization    =    10.75 Bohr mag/cell

     iteration #149     ecut=    60.00 Ry     beta= 0.50
     CG style diagonalization

---- Real-time Memory Report at c_bands before calling an iterative solver
           449 MiB given to the printing process from OS
           280 MiB allocation reported by mallinfo(arena+hblkhd)
        450608 MiB available memory on the node where the printing process lives
------------------
     ethr =  4.00E-05,  avg # of iterations =  3.0

     negative rho (up, down):  1.355E-02 1.448E-02

     total cpu time spent up to now is    54492.7 secs

     total energy              =   -5522.26231361 Ry
     estimated scf accuracy    <      14.88601203 Ry

     total magnetization       =     8.79 Bohr mag/cell
     absolute magnetization    =    10.76 Bohr mag/cell

     iteration #150     ecut=    60.00 Ry     beta= 0.50
     CG style diagonalization

---- Real-time Memory Report at c_bands before calling an iterative solver
           449 MiB given to the printing process from OS
           280 MiB allocation reported by mallinfo(arena+hblkhd)
        450611 MiB available memory on the node where the printing process lives
------------------
     ethr =  4.00E-05,  avg # of iterations =  3.0

     negative rho (up, down):  2.285E-02 2.305E-02

     total cpu time spent up to now is    54768.8 secs

     total energy              =   -5522.23787469 Ry
     estimated scf accuracy    <      15.00429947 Ry

     total magnetization       =     8.78 Bohr mag/cell
     absolute magnetization    =    10.74 Bohr mag/cell

     iteration #151     ecut=    60.00 Ry     beta= 0.50
     CG style diagonalization

---- Real-time Memory Report at c_bands before calling an iterative solver
           449 MiB given to the printing process from OS
           280 MiB allocation reported by mallinfo(arena+hblkhd)
        450615 MiB available memory on the node where the printing process lives
------------------
     ethr =  4.00E-05,  avg # of iterations =  3.0

     negative rho (up, down):  1.541E-02 1.565E-02

     total cpu time spent up to now is    55043.6 secs

     total energy              =   -5522.11192529 Ry
     estimated scf accuracy    <      15.03297662 Ry

     total magnetization       =     8.79 Bohr mag/cell
     absolute magnetization    =    10.77 Bohr mag/cell

     iteration #152     ecut=    60.00 Ry     beta= 0.50
     CG style diagonalization

---- Real-time Memory Report at c_bands before calling an iterative solver
           449 MiB given to the printing process from OS
           280 MiB allocation reported by mallinfo(arena+hblkhd)
        450619 MiB available memory on the node where the printing process lives
------------------
     ethr =  4.00E-05,  avg # of iterations =  3.0

     negative rho (up, down):  1.702E-02 1.708E-02

     total cpu time spent up to now is    55319.1 secs

     total energy              =   -5522.01791357 Ry
     estimated scf accuracy    <      14.95823332 Ry

     total magnetization       =     8.79 Bohr mag/cell
     absolute magnetization    =    10.75 Bohr mag/cell

     iteration #153     ecut=    60.00 Ry     beta= 0.50
     CG style diagonalization

---- Real-time Memory Report at c_bands before calling an iterative solver
           449 MiB given to the printing process from OS
           280 MiB allocation reported by mallinfo(arena+hblkhd)
        450608 MiB available memory on the node where the printing process lives
------------------
     ethr =  4.00E-05,  avg # of iterations =  3.0

     negative rho (up, down):  1.744E-02 1.731E-02

     total cpu time spent up to now is    55597.8 secs

     total energy              =   -5522.39981897 Ry
     estimated scf accuracy    <      14.80598380 Ry

     total magnetization       =     8.80 Bohr mag/cell
     absolute magnetization    =    10.78 Bohr mag/cell

     iteration #154     ecut=    60.00 Ry     beta= 0.50
     CG style diagonalization

---- Real-time Memory Report at c_bands before calling an iterative solver
           449 MiB given to the printing process from OS
           280 MiB allocation reported by mallinfo(arena+hblkhd)
        450607 MiB available memory on the node where the printing process lives
------------------
     c_bands:  1 eigenvalues not converged
     ethr =  4.00E-05,  avg # of iterations =  3.1

     negative rho (up, down):  1.739E-02 1.711E-02

     total cpu time spent up to now is    55879.9 secs

     total energy              =   -5522.49806807 Ry
     estimated scf accuracy    <      15.28020287 Ry

     total magnetization       =     8.79 Bohr mag/cell
     absolute magnetization    =    10.75 Bohr mag/cell

     iteration #155     ecut=    60.00 Ry     beta= 0.50
     CG style diagonalization

---- Real-time Memory Report at c_bands before calling an iterative solver
           449 MiB given to the printing process from OS
           280 MiB allocation reported by mallinfo(arena+hblkhd)
        450611 MiB available memory on the node where the printing process lives
------------------
     ethr =  4.00E-05,  avg # of iterations =  3.0

     negative rho (up, down):  2.887E-02 2.826E-02

     total cpu time spent up to now is    56157.4 secs

     total energy              =   -5522.26499837 Ry
     estimated scf accuracy    <      15.42072242 Ry

     total magnetization       =     8.78 Bohr mag/cell
     absolute magnetization    =    10.73 Bohr mag/cell

     iteration #156     ecut=    60.00 Ry     beta= 0.50
     CG style diagonalization

---- Real-time Memory Report at c_bands before calling an iterative solver
           449 MiB given to the printing process from OS
           280 MiB allocation reported by mallinfo(arena+hblkhd)
        450604 MiB available memory on the node where the printing process lives
------------------
     ethr =  4.00E-05,  avg # of iterations =  3.0

     negative rho (up, down):  2.183E-02 2.118E-02

     total cpu time spent up to now is    56443.6 secs

     total energy              =   -5522.31598691 Ry
     estimated scf accuracy    <      15.10930188 Ry

     total magnetization       =     8.80 Bohr mag/cell
     absolute magnetization    =    10.76 Bohr mag/cell

     iteration #157     ecut=    60.00 Ry     beta= 0.50
     CG style diagonalization

---- Real-time Memory Report at c_bands before calling an iterative solver
           449 MiB given to the printing process from OS
           280 MiB allocation reported by mallinfo(arena+hblkhd)
        450595 MiB available memory on the node where the printing process lives
------------------
     ethr =  4.00E-05,  avg # of iterations =  3.0

     negative rho (up, down):  5.153E-01 5.390E-01

     total cpu time spent up to now is    56719.8 secs

     total energy              =   -5510.90208799 Ry
     estimated scf accuracy    <      15.20243219 Ry

     total magnetization       =     8.81 Bohr mag/cell
     absolute magnetization    =    10.77 Bohr mag/cell

     iteration #158     ecut=    60.00 Ry     beta= 0.50
     CG style diagonalization

---- Real-time Memory Report at c_bands before calling an iterative solver
           449 MiB given to the printing process from OS
           280 MiB allocation reported by mallinfo(arena+hblkhd)
        450595 MiB available memory on the node where the printing process lives
------------------
     c_bands:  5 eigenvalues not converged
     c_bands:  3 eigenvalues not converged
     c_bands:  2 eigenvalues not converged
     c_bands:  2 eigenvalues not converged
     c_bands:  1 eigenvalues not converged
     c_bands:  2 eigenvalues not converged
     c_bands:  1 eigenvalues not converged
     c_bands:  4 eigenvalues not converged
     c_bands:  1 eigenvalues not converged
     c_bands:  1 eigenvalues not converged
     c_bands:  2 eigenvalues not converged
     c_bands:  4 eigenvalues not converged
     c_bands:  4 eigenvalues not converged
     c_bands:  1 eigenvalues not converged
     c_bands:  1 eigenvalues not converged
     c_bands:  1 eigenvalues not converged
     c_bands:  2 eigenvalues not converged
     c_bands:  1 eigenvalues not converged
     c_bands:  4 eigenvalues not converged
     c_bands:  2 eigenvalues not converged
     c_bands:  5 eigenvalues not converged
     c_bands:  2 eigenvalues not converged
     c_bands:  5 eigenvalues not converged
     c_bands:  2 eigenvalues not converged
     c_bands:  2 eigenvalues not converged
     ethr =  4.00E-05,  avg # of iterations = 20.4

     negative rho (up, down):  5.583E-02 9.376E-02

     total cpu time spent up to now is    59005.5 secs

     total energy              =   -5619.34520523 Ry
     estimated scf accuracy    <   25471.84682902 Ry

     total magnetization       =     0.16 Bohr mag/cell
     absolute magnetization    =     0.57 Bohr mag/cell

     iteration #159     ecut=    60.00 Ry     beta= 0.50
     CG style diagonalization

---- Real-time Memory Report at c_bands before calling an iterative solver
           449 MiB given to the printing process from OS
           280 MiB allocation reported by mallinfo(arena+hblkhd)
        450597 MiB available memory on the node where the printing process lives
------------------
     c_bands:  2 eigenvalues not converged
     c_bands:  3 eigenvalues not converged
     c_bands:  4 eigenvalues not converged
     c_bands:  2 eigenvalues not converged
     c_bands:  3 eigenvalues not converged
     c_bands:  3 eigenvalues not converged
     c_bands:  3 eigenvalues not converged
     c_bands:  3 eigenvalues not converged
     c_bands:  3 eigenvalues not converged
     c_bands:  1 eigenvalues not converged
     c_bands:  3 eigenvalues not converged
     c_bands:  4 eigenvalues not converged
     c_bands:  1 eigenvalues not converged
     c_bands:  1 eigenvalues not converged
     c_bands:  1 eigenvalues not converged
     c_bands:  2 eigenvalues not converged
     c_bands:  2 eigenvalues not converged
     c_bands:  2 eigenvalues not converged
     c_bands:  2 eigenvalues not converged
     c_bands:  4 eigenvalues not converged
     c_bands:  1 eigenvalues not converged
     c_bands:  4 eigenvalues not converged
     c_bands:  2 eigenvalues not converged
     c_bands:  1 eigenvalues not converged
     ethr =  4.00E-05,  avg # of iterations = 19.4

     negative rho (up, down):  9.349E-02 1.124E-01

     total cpu time spent up to now is    61116.5 secs

     total energy              =   -5611.00592697 Ry
     estimated scf accuracy    <   13318.23771433 Ry

     total magnetization       =     7.13 Bohr mag/cell
     absolute magnetization    =     7.58 Bohr mag/cell

     iteration #160     ecut=    60.00 Ry     beta= 0.50
     CG style diagonalization

---- Real-time Memory Report at c_bands before calling an iterative solver
           449 MiB given to the printing process from OS
           280 MiB allocation reported by mallinfo(arena+hblkhd)
        450582 MiB available memory on the node where the printing process lives
------------------
     c_bands:  4 eigenvalues not converged
     c_bands:  2 eigenvalues not converged
     c_bands:  3 eigenvalues not converged
     c_bands:  3 eigenvalues not converged
     c_bands:  3 eigenvalues not converged
     c_bands:  1 eigenvalues not converged
     c_bands:  3 eigenvalues not converged
     c_bands:  5 eigenvalues not converged
     c_bands:  4 eigenvalues not converged
     c_bands:  3 eigenvalues not converged
     c_bands:  1 eigenvalues not converged
     c_bands:  2 eigenvalues not converged
     c_bands:  1 eigenvalues not converged
     c_bands:  2 eigenvalues not converged
     c_bands:  1 eigenvalues not converged
     c_bands:  1 eigenvalues not converged
     c_bands:  4 eigenvalues not converged
     c_bands:  4 eigenvalues not converged
     c_bands:  3 eigenvalues not converged
     c_bands:  3 eigenvalues not converged
     c_bands:  3 eigenvalues not converged
     c_bands:  3 eigenvalues not converged
     c_bands:  3 eigenvalues not converged
     c_bands:  2 eigenvalues not converged
     c_bands:  3 eigenvalues not converged
     c_bands:  5 eigenvalues not converged
     c_bands:  3 eigenvalues not converged
     c_bands:  1 eigenvalues not converged
     ethr =  4.00E-05,  avg # of iterations =  9.4

     negative rho (up, down):  1.287E-01 1.255E-01

     total cpu time spent up to now is    62087.0 secs

     total energy              =   -5631.12671998 Ry
     estimated scf accuracy    <   10181.79372136 Ry

     total magnetization       =    11.46 Bohr mag/cell
     absolute magnetization    =    11.84 Bohr mag/cell

     iteration #161     ecut=    60.00 Ry     beta= 0.50
     CG style diagonalization

---- Real-time Memory Report at c_bands before calling an iterative solver
           449 MiB given to the printing process from OS
           280 MiB allocation reported by mallinfo(arena+hblkhd)
        450585 MiB available memory on the node where the printing process lives
------------------
     c_bands:  3 eigenvalues not converged
     c_bands:  3 eigenvalues not converged
     c_bands:  3 eigenvalues not converged
     c_bands:  3 eigenvalues not converged
     c_bands:  1 eigenvalues not converged
     c_bands:  1 eigenvalues not converged
     c_bands:  1 eigenvalues not converged
     c_bands:  1 eigenvalues not converged
     c_bands:  4 eigenvalues not converged
     c_bands:  5 eigenvalues not converged
     c_bands:  1 eigenvalues not converged
     c_bands:  1 eigenvalues not converged
     c_bands:  1 eigenvalues not converged
     c_bands:  1 eigenvalues not converged
     c_bands:  1 eigenvalues not converged
     c_bands:  2 eigenvalues not converged
     c_bands:  2 eigenvalues not converged
     c_bands:  2 eigenvalues not converged
     ethr =  4.00E-05,  avg # of iterations =  8.9

     negative rho (up, down):  2.038E-01 1.924E-01

     total cpu time spent up to now is    63017.3 secs

     total energy              =   -5646.46396915 Ry
     estimated scf accuracy    <   12938.04534637 Ry

     total magnetization       =     8.18 Bohr mag/cell
     absolute magnetization    =     8.72 Bohr mag/cell

     iteration #162     ecut=    60.00 Ry     beta= 0.50
     CG style diagonalization

---- Real-time Memory Report at c_bands before calling an iterative solver
           449 MiB given to the printing process from OS
           280 MiB allocation reported by mallinfo(arena+hblkhd)
        450601 MiB available memory on the node where the printing process lives
------------------
     c_bands:  4 eigenvalues not converged
     c_bands:  3 eigenvalues not converged
     c_bands:  1 eigenvalues not converged
     c_bands:  4 eigenvalues not converged
     c_bands:  4 eigenvalues not converged
     c_bands:  4 eigenvalues not converged
     c_bands:  3 eigenvalues not converged
     c_bands:  1 eigenvalues not converged
     c_bands:  4 eigenvalues not converged
     c_bands:  1 eigenvalues not converged
     c_bands:  1 eigenvalues not converged
     c_bands:  4 eigenvalues not converged
     c_bands:  5 eigenvalues not converged
     c_bands:  5 eigenvalues not converged
     c_bands:  4 eigenvalues not converged
     c_bands:  4 eigenvalues not converged
     c_bands:  5 eigenvalues not converged
     c_bands:  5 eigenvalues not converged
     c_bands:  5 eigenvalues not converged
     c_bands:  5 eigenvalues not converged
     c_bands:  5 eigenvalues not converged
     c_bands:  2 eigenvalues not converged
     ethr =  4.00E-05,  avg # of iterations =  6.6

     negative rho (up, down):  1.556E-01 1.557E-01

     total cpu time spent up to now is    63694.4 secs

     total energy              =   -5563.66533414 Ry
     estimated scf accuracy    <   15123.85372463 Ry

     total magnetization       =     7.51 Bohr mag/cell
     absolute magnetization    =     7.90 Bohr mag/cell

     iteration #163     ecut=    60.00 Ry     beta= 0.50
     CG style diagonalization

---- Real-time Memory Report at c_bands before calling an iterative solver
           449 MiB given to the printing process from OS
           280 MiB allocation reported by mallinfo(arena+hblkhd)
        450592 MiB available memory on the node where the printing process lives
------------------
     c_bands:  2 eigenvalues not converged
     c_bands:  1 eigenvalues not converged
     c_bands:  3 eigenvalues not converged
     c_bands:  1 eigenvalues not converged
     c_bands:  5 eigenvalues not converged
     c_bands:  1 eigenvalues not converged
     c_bands:  1 eigenvalues not converged
     c_bands:  1 eigenvalues not converged
     c_bands:  2 eigenvalues not converged
     c_bands:  1 eigenvalues not converged
     c_bands:  5 eigenvalues not converged
     c_bands:  1 eigenvalues not converged
     c_bands:  1 eigenvalues not converged
     c_bands:  1 eigenvalues not converged
     ethr =  4.00E-05,  avg # of iterations = 16.1

     negative rho (up, down):  1.610E-01 1.586E-01

     total cpu time spent up to now is    65422.3 secs

     total energy              =   -5571.19171428 Ry
     estimated scf accuracy    <    5938.36916262 Ry

     total magnetization       =    15.18 Bohr mag/cell
     absolute magnetization    =    15.68 Bohr mag/cell

     iteration #164     ecut=    60.00 Ry     beta= 0.50
     CG style diagonalization

---- Real-time Memory Report at c_bands before calling an iterative solver
           449 MiB given to the printing process from OS
           280 MiB allocation reported by mallinfo(arena+hblkhd)
        450602 MiB available memory on the node where the printing process lives
------------------
     c_bands:  1 eigenvalues not converged
     c_bands:  1 eigenvalues not converged
     c_bands:  1 eigenvalues not converged
     c_bands:  3 eigenvalues not converged
     c_bands:  4 eigenvalues not converged
     c_bands:  3 eigenvalues not converged
     c_bands:  1 eigenvalues not converged
     c_bands:  1 eigenvalues not converged
     c_bands:  3 eigenvalues not converged
     c_bands:  4 eigenvalues not converged
     c_bands:  3 eigenvalues not converged
     c_bands:  2 eigenvalues not converged
     c_bands:  1 eigenvalues not converged
     c_bands:  1 eigenvalues not converged
     c_bands:  3 eigenvalues not converged
     c_bands:  2 eigenvalues not converged
     c_bands:  2 eigenvalues not converged
     c_bands:  5 eigenvalues not converged
     c_bands:  2 eigenvalues not converged
     c_bands:  4 eigenvalues not converged
     c_bands:  1 eigenvalues not converged
     c_bands:  2 eigenvalues not converged
     c_bands:  3 eigenvalues not converged
     c_bands:  4 eigenvalues not converged
     c_bands:  3 eigenvalues not converged
     c_bands:  5 eigenvalues not converged
     c_bands:  3 eigenvalues not converged
     ethr =  4.00E-05,  avg # of iterations =  4.4

     negative rho (up, down):  2.362E-01 2.712E-01

     total cpu time spent up to now is    65873.8 secs

     total energy              =   -5547.48234617 Ry
     estimated scf accuracy    <    5037.86337373 Ry

     total magnetization       =    16.44 Bohr mag/cell
     absolute magnetization    =    16.92 Bohr mag/cell

     iteration #165     ecut=    60.00 Ry     beta= 0.50
     CG style diagonalization

---- Real-time Memory Report at c_bands before calling an iterative solver
           449 MiB given to the printing process from OS
           280 MiB allocation reported by mallinfo(arena+hblkhd)
        450601 MiB available memory on the node where the printing process lives
------------------
     c_bands:  2 eigenvalues not converged
     c_bands:  2 eigenvalues not converged
     c_bands:  2 eigenvalues not converged
     c_bands:  3 eigenvalues not converged
     c_bands:  2 eigenvalues not converged
     c_bands:  2 eigenvalues not converged
     c_bands:  2 eigenvalues not converged
     c_bands:  5 eigenvalues not converged
     c_bands:  1 eigenvalues not converged
     c_bands:  3 eigenvalues not converged
     c_bands:  4 eigenvalues not converged
     c_bands:  5 eigenvalues not converged
     c_bands:  5 eigenvalues not converged
     c_bands:  3 eigenvalues not converged
     c_bands:  3 eigenvalues not converged
     c_bands:  1 eigenvalues not converged
     c_bands:  3 eigenvalues not converged
     c_bands:  2 eigenvalues not converged
     c_bands:  3 eigenvalues not converged
     c_bands:  2 eigenvalues not converged
     c_bands:  4 eigenvalues not converged
     c_bands:  5 eigenvalues not converged
     c_bands:  2 eigenvalues not converged
     c_bands:  1 eigenvalues not converged
     c_bands:  1 eigenvalues not converged
     c_bands:  2 eigenvalues not converged
     c_bands:  2 eigenvalues not converged
     c_bands:  4 eigenvalues not converged
     ethr =  4.00E-05,  avg # of iterations = 10.7

     negative rho (up, down):  2.234E-01 2.545E-01

     total cpu time spent up to now is    66988.7 secs

     total energy              =   -5547.92527704 Ry
     estimated scf accuracy    <    2590.63965367 Ry

     total magnetization       =    19.79 Bohr mag/cell
     absolute magnetization    =    20.63 Bohr mag/cell

     iteration #166     ecut=    60.00 Ry     beta= 0.50
     CG style diagonalization

---- Real-time Memory Report at c_bands before calling an iterative solver
           449 MiB given to the printing process from OS
           280 MiB allocation reported by mallinfo(arena+hblkhd)
        450581 MiB available memory on the node where the printing process lives
------------------
     c_bands:  1 eigenvalues not converged
     c_bands:  1 eigenvalues not converged
     c_bands:  2 eigenvalues not converged
     c_bands:  3 eigenvalues not converged
     c_bands:  4 eigenvalues not converged
     c_bands:  1 eigenvalues not converged
     c_bands:  3 eigenvalues not converged
     c_bands:  1 eigenvalues not converged
     c_bands:  1 eigenvalues not converged
     c_bands:  5 eigenvalues not converged
     c_bands:  3 eigenvalues not converged
     c_bands:  4 eigenvalues not converged
     c_bands:  1 eigenvalues not converged
     c_bands:  3 eigenvalues not converged
     c_bands:  1 eigenvalues not converged
     c_bands:  4 eigenvalues not converged
     c_bands:  4 eigenvalues not converged
     c_bands:  2 eigenvalues not converged
     c_bands:  3 eigenvalues not converged
     c_bands:  1 eigenvalues not converged
     c_bands:  1 eigenvalues not converged
     c_bands:  3 eigenvalues not converged
     c_bands:  2 eigenvalues not converged
     c_bands:  2 eigenvalues not converged
     c_bands:  2 eigenvalues not converged
     ethr =  4.00E-05,  avg # of iterations =  3.7

     negative rho (up, down):  2.110E-01 2.574E-01

     total cpu time spent up to now is    67353.7 secs

     total energy              =   -5496.66691236 Ry
     estimated scf accuracy    <    2218.72131302 Ry

     total magnetization       =    19.89 Bohr mag/cell
     absolute magnetization    =    20.65 Bohr mag/cell

     iteration #167     ecut=    60.00 Ry     beta= 0.50
     CG style diagonalization

---- Real-time Memory Report at c_bands before calling an iterative solver
           449 MiB given to the printing process from OS
           280 MiB allocation reported by mallinfo(arena+hblkhd)
        450595 MiB available memory on the node where the printing process lives
------------------
     c_bands:  1 eigenvalues not converged
     c_bands:  1 eigenvalues not converged
     ethr =  4.00E-05,  avg # of iterations = 10.9

     negative rho (up, down):  7.883E-02 9.293E-02

     total cpu time spent up to now is    68509.6 secs

     total energy              =   -5518.85958154 Ry
     estimated scf accuracy    <      20.60122057 Ry

     total magnetization       =    14.21 Bohr mag/cell
     absolute magnetization    =    15.99 Bohr mag/cell

     iteration #168     ecut=    60.00 Ry     beta= 0.50
     CG style diagonalization

---- Real-time Memory Report at c_bands before calling an iterative solver
           449 MiB given to the printing process from OS
           280 MiB allocation reported by mallinfo(arena+hblkhd)
        450594 MiB available memory on the node where the printing process lives
------------------
     c_bands:  3 eigenvalues not converged
     c_bands:  5 eigenvalues not converged
     c_bands:  4 eigenvalues not converged
     c_bands:  3 eigenvalues not converged
     c_bands:  5 eigenvalues not converged
     c_bands:  5 eigenvalues not converged
     c_bands:  5 eigenvalues not converged
     c_bands:  4 eigenvalues not converged
     c_bands:  5 eigenvalues not converged
     c_bands:  4 eigenvalues not converged
     c_bands:  5 eigenvalues not converged
     c_bands:  4 eigenvalues not converged
     c_bands:  3 eigenvalues not converged
     c_bands:  4 eigenvalues not converged
     c_bands:  4 eigenvalues not converged
     c_bands:  3 eigenvalues not converged
     c_bands:  5 eigenvalues not converged
     c_bands:  4 eigenvalues not converged
     c_bands:  3 eigenvalues not converged
     ethr =  4.00E-05,  avg # of iterations =  5.7

     negative rho (up, down):  8.459E-02 9.905E-02

     total cpu time spent up to now is    69095.5 secs

     total energy              =   -5522.38776228 Ry
     estimated scf accuracy    <      15.35574177 Ry

     total magnetization       =     8.54 Bohr mag/cell
     absolute magnetization    =    10.39 Bohr mag/cell

     iteration #169     ecut=    60.00 Ry     beta= 0.50
     CG style diagonalization

---- Real-time Memory Report at c_bands before calling an iterative solver
           449 MiB given to the printing process from OS
           280 MiB allocation reported by mallinfo(arena+hblkhd)
        450598 MiB available memory on the node where the printing process lives
------------------
     c_bands:  1 eigenvalues not converged
     c_bands:  1 eigenvalues not converged
     ethr =  4.00E-05,  avg # of iterations =  3.1

     negative rho (up, down):  8.915E-02 1.056E-01

     total cpu time spent up to now is    69392.9 secs

     total energy              =   -5522.30398209 Ry
     estimated scf accuracy    <      15.43510589 Ry

     total magnetization       =     8.28 Bohr mag/cell
     absolute magnetization    =    10.02 Bohr mag/cell

     iteration #170     ecut=    60.00 Ry     beta= 0.50
     CG style diagonalization

---- Real-time Memory Report at c_bands before calling an iterative solver
           449 MiB given to the printing process from OS
           280 MiB allocation reported by mallinfo(arena+hblkhd)
        450602 MiB available memory on the node where the printing process lives
------------------
     ethr =  4.00E-05,  avg # of iterations =  3.0

     negative rho (up, down):  8.847E-02 1.049E-01

     total cpu time spent up to now is    69673.3 secs

     total energy              =   -5522.22243124 Ry
     estimated scf accuracy    <      15.42221498 Ry

     total magnetization       =     8.16 Bohr mag/cell
     absolute magnetization    =     9.84 Bohr mag/cell

     iteration #171     ecut=    60.00 Ry     beta= 0.50
     CG style diagonalization

---- Real-time Memory Report at c_bands before calling an iterative solver
           449 MiB given to the printing process from OS
           280 MiB allocation reported by mallinfo(arena+hblkhd)
        450594 MiB available memory on the node where the printing process lives
------------------
     ethr =  4.00E-05,  avg # of iterations =  3.0

     negative rho (up, down):  1.014E-01 1.209E-01

     total cpu time spent up to now is    69949.9 secs

     total energy              =   -5522.17246697 Ry
     estimated scf accuracy    <      15.22460296 Ry

     total magnetization       =     8.22 Bohr mag/cell
     absolute magnetization    =     9.91 Bohr mag/cell

     iteration #172     ecut=    60.00 Ry     beta= 0.50
     CG style diagonalization

---- Real-time Memory Report at c_bands before calling an iterative solver
           449 MiB given to the printing process from OS
           280 MiB allocation reported by mallinfo(arena+hblkhd)
        450594 MiB available memory on the node where the printing process lives
------------------
     ethr =  4.00E-05,  avg # of iterations =  3.0

     negative rho (up, down):  7.162E-02 8.373E-02

     total cpu time spent up to now is    70225.2 secs

     total energy              =   -5521.73480681 Ry
     estimated scf accuracy    <      15.17169854 Ry

     total magnetization       =     8.22 Bohr mag/cell
     absolute magnetization    =     9.91 Bohr mag/cell

     iteration #173     ecut=    60.00 Ry     beta= 0.50
     CG style diagonalization

---- Real-time Memory Report at c_bands before calling an iterative solver
           449 MiB given to the printing process from OS
           280 MiB allocation reported by mallinfo(arena+hblkhd)
        450598 MiB available memory on the node where the printing process lives
------------------
     ethr =  4.00E-05,  avg # of iterations =  3.0

     negative rho (up, down):  6.894E-02 7.651E-02

     total cpu time spent up to now is    70505.9 secs

     total energy              =   -5522.25379614 Ry
     estimated scf accuracy    <      14.40221423 Ry

     total magnetization       =     8.34 Bohr mag/cell
     absolute magnetization    =    10.07 Bohr mag/cell

     iteration #174     ecut=    60.00 Ry     beta= 0.50
     CG style diagonalization

---- Real-time Memory Report at c_bands before calling an iterative solver
           449 MiB given to the printing process from OS
           280 MiB allocation reported by mallinfo(arena+hblkhd)
        450593 MiB available memory on the node where the printing process lives
------------------
     ethr =  4.00E-05,  avg # of iterations =  3.1

     negative rho (up, down):  6.194E-02 7.147E-02

     total cpu time spent up to now is    70790.5 secs

     total energy              =   -5521.14322248 Ry
     estimated scf accuracy    <      15.23204145 Ry

     total magnetization       =     8.24 Bohr mag/cell
     absolute magnetization    =     9.94 Bohr mag/cell

     iteration #175     ecut=    60.00 Ry     beta= 0.50
     CG style diagonalization

---- Real-time Memory Report at c_bands before calling an iterative solver
           449 MiB given to the printing process from OS
           280 MiB allocation reported by mallinfo(arena+hblkhd)
        450602 MiB available memory on the node where the printing process lives
------------------
     c_bands:  1 eigenvalues not converged
     ethr =  4.00E-05,  avg # of iterations =  3.2

     negative rho (up, down):  6.622E-02 7.491E-02

     total cpu time spent up to now is    71088.3 secs

     total energy              =   -5521.80161771 Ry
     estimated scf accuracy    <      13.57316305 Ry

     total magnetization       =     8.44 Bohr mag/cell
     absolute magnetization    =    10.24 Bohr mag/cell

     iteration #176     ecut=    60.00 Ry     beta= 0.50
     CG style diagonalization

---- Real-time Memory Report at c_bands before calling an iterative solver
           449 MiB given to the printing process from OS
           280 MiB allocation reported by mallinfo(arena+hblkhd)
        450607 MiB available memory on the node where the printing process lives
------------------
     ethr =  4.00E-05,  avg # of iterations =  3.1

     negative rho (up, down):  7.507E-02 8.330E-02

     total cpu time spent up to now is    71377.7 secs

     total energy              =   -5522.47167474 Ry
     estimated scf accuracy    <      14.45289506 Ry

     total magnetization       =     8.37 Bohr mag/cell
     absolute magnetization    =    10.12 Bohr mag/cell

     iteration #177     ecut=    60.00 Ry     beta= 0.50
     CG style diagonalization

---- Real-time Memory Report at c_bands before calling an iterative solver
           449 MiB given to the printing process from OS
           280 MiB allocation reported by mallinfo(arena+hblkhd)
        450611 MiB available memory on the node where the printing process lives
------------------
     c_bands:  1 eigenvalues not converged
     ethr =  4.00E-05,  avg # of iterations =  3.1

     negative rho (up, down):  6.994E-02 7.603E-02

     total cpu time spent up to now is    71667.9 secs

     total energy              =   -5522.37890206 Ry
     estimated scf accuracy    <      15.41885365 Ry

     total magnetization       =     8.32 Bohr mag/cell
     absolute magnetization    =    10.05 Bohr mag/cell

     iteration #178     ecut=    60.00 Ry     beta= 0.50
     CG style diagonalization

---- Real-time Memory Report at c_bands before calling an iterative solver
           449 MiB given to the printing process from OS
           280 MiB allocation reported by mallinfo(arena+hblkhd)
        450603 MiB available memory on the node where the printing process lives
------------------
     ethr =  4.00E-05,  avg # of iterations =  3.0

     negative rho (up, down):  6.397E-02 7.115E-02

     total cpu time spent up to now is    71945.0 secs

     total energy              =   -5522.41328540 Ry
     estimated scf accuracy    <      15.28722873 Ry

     total magnetization       =     8.33 Bohr mag/cell
     absolute magnetization    =    10.06 Bohr mag/cell

     iteration #179     ecut=    60.00 Ry     beta= 0.50
     CG style diagonalization

---- Real-time Memory Report at c_bands before calling an iterative solver
           449 MiB given to the printing process from OS
           280 MiB allocation reported by mallinfo(arena+hblkhd)
        450605 MiB available memory on the node where the printing process lives
------------------
     ethr =  4.00E-05,  avg # of iterations =  3.0

     negative rho (up, down):  4.022E-02 4.721E-02

     total cpu time spent up to now is    72220.5 secs

     total energy              =   -5522.04868934 Ry
     estimated scf accuracy    <      15.29762848 Ry

     total magnetization       =     8.40 Bohr mag/cell
     absolute magnetization    =    10.13 Bohr mag/cell

     iteration #180     ecut=    60.00 Ry     beta= 0.50
     CG style diagonalization

---- Real-time Memory Report at c_bands before calling an iterative solver
           449 MiB given to the printing process from OS
           280 MiB allocation reported by mallinfo(arena+hblkhd)
        450609 MiB available memory on the node where the printing process lives
------------------
     ethr =  4.00E-05,  avg # of iterations =  3.1

     negative rho (up, down):  6.133E-02 7.346E-02

     total cpu time spent up to now is    72506.8 secs

     total energy              =   -5522.99235291 Ry
     estimated scf accuracy    <      14.73114108 Ry

     total magnetization       =     8.43 Bohr mag/cell
     absolute magnetization    =    10.20 Bohr mag/cell

     iteration #181     ecut=    60.00 Ry     beta= 0.50
     CG style diagonalization

---- Real-time Memory Report at c_bands before calling an iterative solver
           449 MiB given to the printing process from OS
           280 MiB allocation reported by mallinfo(arena+hblkhd)
        450617 MiB available memory on the node where the printing process lives
------------------
     c_bands:  1 eigenvalues not converged
     c_bands:  1 eigenvalues not converged
     ethr =  4.00E-05,  avg # of iterations =  3.1

     negative rho (up, down):  3.210E-02 3.949E-02

     total cpu time spent up to now is    72796.9 secs

     total energy              =   -5522.27643875 Ry
     estimated scf accuracy    <      16.25531678 Ry

     total magnetization       =     8.44 Bohr mag/cell
     absolute magnetization    =    10.24 Bohr mag/cell

     iteration #182     ecut=    60.00 Ry     beta= 0.50
     CG style diagonalization

---- Real-time Memory Report at c_bands before calling an iterative solver
           449 MiB given to the printing process from OS
           280 MiB allocation reported by mallinfo(arena+hblkhd)
        450611 MiB available memory on the node where the printing process lives
------------------
     ethr =  4.00E-05,  avg # of iterations =  3.1

     negative rho (up, down):  1.848E-02 2.011E-02

     total cpu time spent up to now is    73079.9 secs

     total energy              =   -5521.49355957 Ry
     estimated scf accuracy    <      15.16476390 Ry

     total magnetization       =     8.53 Bohr mag/cell
     absolute magnetization    =    10.38 Bohr mag/cell

     iteration #183     ecut=    60.00 Ry     beta= 0.50
     CG style diagonalization

---- Real-time Memory Report at c_bands before calling an iterative solver
           449 MiB given to the printing process from OS
           280 MiB allocation reported by mallinfo(arena+hblkhd)
        450615 MiB available memory on the node where the printing process lives
------------------
     ethr =  4.00E-05,  avg # of iterations =  3.1

     negative rho (up, down):  8.717E-02 6.880E-02

     total cpu time spent up to now is    73376.9 secs

     total energy              =   -5521.06297376 Ry
     estimated scf accuracy    <      13.76667266 Ry

     total magnetization       =     8.65 Bohr mag/cell
     absolute magnetization    =    10.59 Bohr mag/cell

     iteration #184     ecut=    60.00 Ry     beta= 0.50
     CG style diagonalization

---- Real-time Memory Report at c_bands before calling an iterative solver
           449 MiB given to the printing process from OS
           280 MiB allocation reported by mallinfo(arena+hblkhd)
        450617 MiB available memory on the node where the printing process lives
------------------
     c_bands:  1 eigenvalues not converged
     c_bands:  1 eigenvalues not converged
     ethr =  4.00E-05,  avg # of iterations =  3.2

     negative rho (up, down):  2.156E-02 1.792E-02

     total cpu time spent up to now is    73676.8 secs

     total energy              =   -5521.02062090 Ry
     estimated scf accuracy    <      13.31601780 Ry

     total magnetization       =     8.40 Bohr mag/cell
     absolute magnetization    =    10.26 Bohr mag/cell

     iteration #185     ecut=    60.00 Ry     beta= 0.50
     CG style diagonalization

---- Real-time Memory Report at c_bands before calling an iterative solver
           449 MiB given to the printing process from OS
           280 MiB allocation reported by mallinfo(arena+hblkhd)
        450618 MiB available memory on the node where the printing process lives
------------------
     ethr =  4.00E-05,  avg # of iterations =  3.1

     negative rho (up, down):  3.107E-02 3.376E-02

     total cpu time spent up to now is    73971.6 secs

     total energy              =   -5521.89535991 Ry
     estimated scf accuracy    <      12.08913313 Ry

     total magnetization       =     8.87 Bohr mag/cell
     absolute magnetization    =    10.91 Bohr mag/cell

     iteration #186     ecut=    60.00 Ry     beta= 0.50
     CG style diagonalization

---- Real-time Memory Report at c_bands before calling an iterative solver
           449 MiB given to the printing process from OS
           280 MiB allocation reported by mallinfo(arena+hblkhd)
        450573 MiB available memory on the node where the printing process lives
------------------
     ethr =  4.00E-05,  avg # of iterations =  3.2

     negative rho (up, down):  4.267E-02 4.964E-02

     total cpu time spent up to now is    74272.4 secs

     total energy              =   -5522.20300184 Ry
     estimated scf accuracy    <      14.12462945 Ry

     total magnetization       =     8.96 Bohr mag/cell
     absolute magnetization    =    11.17 Bohr mag/cell

     iteration #187     ecut=    60.00 Ry     beta= 0.50
     CG style diagonalization

---- Real-time Memory Report at c_bands before calling an iterative solver
           449 MiB given to the printing process from OS
           280 MiB allocation reported by mallinfo(arena+hblkhd)
        450585 MiB available memory on the node where the printing process lives
------------------
     ethr =  4.00E-05,  avg # of iterations =  3.1

     negative rho (up, down):  2.542E-02 3.452E-02

     total cpu time spent up to now is    74558.0 secs

     total energy              =   -5521.97127168 Ry
     estimated scf accuracy    <      14.49591413 Ry

     total magnetization       =     8.96 Bohr mag/cell
     absolute magnetization    =    11.15 Bohr mag/cell

     iteration #188     ecut=    60.00 Ry     beta= 0.50
     CG style diagonalization

---- Real-time Memory Report at c_bands before calling an iterative solver
           449 MiB given to the printing process from OS
           280 MiB allocation reported by mallinfo(arena+hblkhd)
        450589 MiB available memory on the node where the printing process lives
------------------
     ethr =  4.00E-05,  avg # of iterations =  3.1

     negative rho (up, down):  2.432E-01 2.545E-01

     total cpu time spent up to now is    74842.3 secs

     total energy              =   -5516.13105497 Ry
     estimated scf accuracy    <      14.23527215 Ry

     total magnetization       =     8.84 Bohr mag/cell
     absolute magnetization    =    10.95 Bohr mag/cell

     iteration #189     ecut=    60.00 Ry     beta= 0.50
     CG style diagonalization

---- Real-time Memory Report at c_bands before calling an iterative solver
           449 MiB given to the printing process from OS
           280 MiB allocation reported by mallinfo(arena+hblkhd)
        450590 MiB available memory on the node where the printing process lives
------------------
     c_bands:  3 eigenvalues not converged
     c_bands:  1 eigenvalues not converged
     c_bands:  4 eigenvalues not converged
     c_bands:  3 eigenvalues not converged
     c_bands:  1 eigenvalues not converged
     c_bands:  3 eigenvalues not converged
     c_bands:  1 eigenvalues not converged
     c_bands:  2 eigenvalues not converged
     c_bands:  1 eigenvalues not converged
     c_bands:  4 eigenvalues not converged
     c_bands:  5 eigenvalues not converged
     c_bands:  1 eigenvalues not converged
     c_bands:  2 eigenvalues not converged
     c_bands:  1 eigenvalues not converged
     c_bands:  5 eigenvalues not converged
     c_bands:  2 eigenvalues not converged
     ethr =  4.00E-05,  avg # of iterations = 15.4

     negative rho (up, down):  4.917E-02 5.830E-02

     total cpu time spent up to now is    76478.1 secs

     total energy              =   -5511.62408062 Ry
     estimated scf accuracy    <    1327.73173726 Ry

     total magnetization       =    19.80 Bohr mag/cell
     absolute magnetization    =    20.97 Bohr mag/cell

     iteration #190     ecut=    60.00 Ry     beta= 0.50
     CG style diagonalization

---- Real-time Memory Report at c_bands before calling an iterative solver
           449 MiB given to the printing process from OS
           280 MiB allocation reported by mallinfo(arena+hblkhd)
        450613 MiB available memory on the node where the printing process lives
------------------
     c_bands:  4 eigenvalues not converged
     ethr =  4.00E-05,  avg # of iterations =  9.1

     negative rho (up, down):  4.612E-02 4.870E-02

     total cpu time spent up to now is    77414.2 secs

     total energy              =   -5518.28654385 Ry
     estimated scf accuracy    <      40.57309247 Ry

     total magnetization       =    14.36 Bohr mag/cell
     absolute magnetization    =    15.85 Bohr mag/cell

     iteration #191     ecut=    60.00 Ry     beta= 0.50
     CG style diagonalization

---- Real-time Memory Report at c_bands before calling an iterative solver
           449 MiB given to the printing process from OS
           280 MiB allocation reported by mallinfo(arena+hblkhd)
        450610 MiB available memory on the node where the printing process lives
------------------
     c_bands:  2 eigenvalues not converged
     c_bands:  3 eigenvalues not converged
     c_bands:  4 eigenvalues not converged
     c_bands:  2 eigenvalues not converged
     c_bands:  4 eigenvalues not converged
     c_bands:  3 eigenvalues not converged
     c_bands:  4 eigenvalues not converged
     c_bands:  4 eigenvalues not converged
     c_bands:  5 eigenvalues not converged
     c_bands:  5 eigenvalues not converged
     c_bands:  2 eigenvalues not converged
     c_bands:  4 eigenvalues not converged
     c_bands:  4 eigenvalues not converged
     c_bands:  4 eigenvalues not converged
     c_bands:  4 eigenvalues not converged
     c_bands:  5 eigenvalues not converged
     c_bands:  5 eigenvalues not converged
     c_bands:  5 eigenvalues not converged
     c_bands:  5 eigenvalues not converged
     c_bands:  4 eigenvalues not converged
     c_bands:  2 eigenvalues not converged
     c_bands:  5 eigenvalues not converged
     c_bands:  1 eigenvalues not converged
     ethr =  4.00E-05,  avg # of iterations =  5.0

     negative rho (up, down):  4.803E-02 4.152E-02

     total cpu time spent up to now is    77925.4 secs

     total energy              =   -5521.06914170 Ry
     estimated scf accuracy    <      14.53708894 Ry

     total magnetization       =     8.63 Bohr mag/cell
     absolute magnetization    =    10.57 Bohr mag/cell

     iteration #192     ecut=    60.00 Ry     beta= 0.50
     CG style diagonalization

---- Real-time Memory Report at c_bands before calling an iterative solver
           449 MiB given to the printing process from OS
           280 MiB allocation reported by mallinfo(arena+hblkhd)
        450602 MiB available memory on the node where the printing process lives
------------------
     c_bands:  1 eigenvalues not converged
     ethr =  4.00E-05,  avg # of iterations =  3.2

     negative rho (up, down):  1.670E-02 1.573E-02

     total cpu time spent up to now is    78226.1 secs

     total energy              =   -5521.37233934 Ry
     estimated scf accuracy    <      10.28658321 Ry

     total magnetization       =     9.15 Bohr mag/cell
     absolute magnetization    =    11.10 Bohr mag/cell

     iteration #193     ecut=    60.00 Ry     beta= 0.50
     CG style diagonalization

---- Real-time Memory Report at c_bands before calling an iterative solver
           449 MiB given to the printing process from OS
           280 MiB allocation reported by mallinfo(arena+hblkhd)
        450604 MiB available memory on the node where the printing process lives
------------------
     ethr =  4.00E-05,  avg # of iterations =  3.1

     negative rho (up, down):  1.499E-02 1.490E-02

     total cpu time spent up to now is    78510.2 secs

     total energy              =   -5520.78905379 Ry
     estimated scf accuracy    <      13.93915984 Ry

     total magnetization       =     8.67 Bohr mag/cell
     absolute magnetization    =    10.65 Bohr mag/cell

     iteration #194     ecut=    60.00 Ry     beta= 0.50
     CG style diagonalization

---- Real-time Memory Report at c_bands before calling an iterative solver
           449 MiB given to the printing process from OS
           280 MiB allocation reported by mallinfo(arena+hblkhd)
        450610 MiB available memory on the node where the printing process lives
------------------
     c_bands:  1 eigenvalues not converged
     ethr =  4.00E-05,  avg # of iterations =  3.1

     negative rho (up, down):  6.790E-03 6.769E-03

     total cpu time spent up to now is    78801.8 secs

     total energy              =   -5520.71791901 Ry
     estimated scf accuracy    <      13.12184080 Ry

     total magnetization       =    13.40 Bohr mag/cell
     absolute magnetization    =    15.08 Bohr mag/cell

     iteration #195     ecut=    60.00 Ry     beta= 0.50
     CG style diagonalization

---- Real-time Memory Report at c_bands before calling an iterative solver
           449 MiB given to the printing process from OS
           280 MiB allocation reported by mallinfo(arena+hblkhd)
        450617 MiB available memory on the node where the printing process lives
------------------
     ethr =  4.00E-05,  avg # of iterations =  3.1

     negative rho (up, down):  9.741E-03 9.646E-03

     total cpu time spent up to now is    79093.6 secs

     total energy              =   -5520.82730310 Ry
     estimated scf accuracy    <      13.49571266 Ry

     total magnetization       =     8.73 Bohr mag/cell
     absolute magnetization    =    10.75 Bohr mag/cell

     iteration #196     ecut=    60.00 Ry     beta= 0.50
     CG style diagonalization

---- Real-time Memory Report at c_bands before calling an iterative solver
           449 MiB given to the printing process from OS
           280 MiB allocation reported by mallinfo(arena+hblkhd)
        450606 MiB available memory on the node where the printing process lives
------------------
     ethr =  4.00E-05,  avg # of iterations =  3.1

     negative rho (up, down):  7.830E-03 7.705E-03

     total cpu time spent up to now is    79382.4 secs

     total energy              =   -5520.46868007 Ry
     estimated scf accuracy    <      12.30433139 Ry

     total magnetization       =    13.52 Bohr mag/cell
     absolute magnetization    =    15.18 Bohr mag/cell

     iteration #197     ecut=    60.00 Ry     beta= 0.50
     CG style diagonalization

---- Real-time Memory Report at c_bands before calling an iterative solver
           449 MiB given to the printing process from OS
           280 MiB allocation reported by mallinfo(arena+hblkhd)
        450611 MiB available memory on the node where the printing process lives
------------------
     c_bands:  1 eigenvalues not converged
     c_bands:  1 eigenvalues not converged
     ethr =  4.00E-05,  avg # of iterations =  3.1

     negative rho (up, down):  9.128E-03 8.949E-03

     total cpu time spent up to now is    79674.7 secs

     total energy              =   -5521.37911289 Ry
     estimated scf accuracy    <      14.12858498 Ry

     total magnetization       =     8.65 Bohr mag/cell
     absolute magnetization    =    10.58 Bohr mag/cell

     iteration #198     ecut=    60.00 Ry     beta= 0.50
     CG style diagonalization

---- Real-time Memory Report at c_bands before calling an iterative solver
           449 MiB given to the printing process from OS
           280 MiB allocation reported by mallinfo(arena+hblkhd)
        450609 MiB available memory on the node where the printing process lives
------------------
     ethr =  4.00E-05,  avg # of iterations =  3.0

     negative rho (up, down):  8.024E-03 7.774E-03

     total cpu time spent up to now is    79951.4 secs

     total energy              =   -5521.02315553 Ry
     estimated scf accuracy    <      13.95426284 Ry

     total magnetization       =     8.65 Bohr mag/cell
     absolute magnetization    =    10.56 Bohr mag/cell

     iteration #199     ecut=    60.00 Ry     beta= 0.50
     CG style diagonalization

---- Real-time Memory Report at c_bands before calling an iterative solver
           449 MiB given to the printing process from OS
           280 MiB allocation reported by mallinfo(arena+hblkhd)
        450613 MiB available memory on the node where the printing process lives
------------------
     ethr =  4.00E-05,  avg # of iterations =  3.1

     negative rho (up, down):  9.208E-03 9.011E-03

     total cpu time spent up to now is    80235.8 secs

     total energy              =   -5521.12199290 Ry
     estimated scf accuracy    <       6.71188633 Ry

     total magnetization       =     9.37 Bohr mag/cell
     absolute magnetization    =    11.30 Bohr mag/cell

     iteration #200     ecut=    60.00 Ry     beta= 0.50
     CG style diagonalization

---- Real-time Memory Report at c_bands before calling an iterative solver
           449 MiB given to the printing process from OS
           280 MiB allocation reported by mallinfo(arena+hblkhd)
        450608 MiB available memory on the node where the printing process lives
------------------
     ethr =  4.00E-05,  avg # of iterations =  3.0

     negative rho (up, down):  8.181E-03 7.934E-03

     total cpu time spent up to now is    80512.6 secs

     total energy              =   -5521.05723909 Ry
     estimated scf accuracy    <      13.63870795 Ry

     total magnetization       =     8.66 Bohr mag/cell
     absolute magnetization    =    10.55 Bohr mag/cell

     iteration #201     ecut=    60.00 Ry     beta= 0.50
     CG style diagonalization

---- Real-time Memory Report at c_bands before calling an iterative solver
           449 MiB given to the printing process from OS
           280 MiB allocation reported by mallinfo(arena+hblkhd)
        450615 MiB available memory on the node where the printing process lives
------------------
     ethr =  4.00E-05,  avg # of iterations =  3.0

     negative rho (up, down):  8.610E-03 8.385E-03

     total cpu time spent up to now is    80788.9 secs

     total energy              =   -5521.00623341 Ry
     estimated scf accuracy    <      12.39767587 Ry

     total magnetization       =     8.75 Bohr mag/cell
     absolute magnetization    =    10.64 Bohr mag/cell

     iteration #202     ecut=    60.00 Ry     beta= 0.50
     CG style diagonalization

---- Real-time Memory Report at c_bands before calling an iterative solver
           449 MiB given to the printing process from OS
           280 MiB allocation reported by mallinfo(arena+hblkhd)
        450620 MiB available memory on the node where the printing process lives
------------------
     ethr =  4.00E-05,  avg # of iterations =  3.0

     negative rho (up, down):  8.046E-03 7.726E-03

     total cpu time spent up to now is    81064.9 secs

     total energy              =   -5521.01117331 Ry
     estimated scf accuracy    <       0.75440835 Ry

     total magnetization       =    10.67 Bohr mag/cell
     absolute magnetization    =    12.43 Bohr mag/cell

     iteration #203     ecut=    60.00 Ry     beta= 0.50
     CG style diagonalization

---- Real-time Memory Report at c_bands before calling an iterative solver
           449 MiB given to the printing process from OS
           280 MiB allocation reported by mallinfo(arena+hblkhd)
        450619 MiB available memory on the node where the printing process lives
------------------
     ethr =  4.00E-05,  avg # of iterations =  3.0

     negative rho (up, down):  7.478E-03 7.163E-03

     total cpu time spent up to now is    81342.3 secs

     total energy              =   -5520.99405127 Ry
     estimated scf accuracy    <       7.34558141 Ry

     total magnetization       =    12.62 Bohr mag/cell
     absolute magnetization    =    14.92 Bohr mag/cell

     iteration #204     ecut=    60.00 Ry     beta= 0.50
     CG style diagonalization

---- Real-time Memory Report at c_bands before calling an iterative solver
           449 MiB given to the printing process from OS
           280 MiB allocation reported by mallinfo(arena+hblkhd)
        450594 MiB available memory on the node where the printing process lives
------------------
     ethr =  4.00E-05,  avg # of iterations =  3.0

     negative rho (up, down):  6.448E-03 6.162E-03

     total cpu time spent up to now is    81618.4 secs

     total energy              =   -5521.03601750 Ry
     estimated scf accuracy    <       1.07481749 Ry

     total magnetization       =     9.58 Bohr mag/cell
     absolute magnetization    =    13.12 Bohr mag/cell

     iteration #205     ecut=    60.00 Ry     beta= 0.50
     CG style diagonalization

---- Real-time Memory Report at c_bands before calling an iterative solver
           449 MiB given to the printing process from OS
           280 MiB allocation reported by mallinfo(arena+hblkhd)
        450594 MiB available memory on the node where the printing process lives
------------------
     ethr =  4.00E-05,  avg # of iterations =  3.0

     negative rho (up, down):  6.181E-03 5.842E-03

     total cpu time spent up to now is    81893.8 secs

     total energy              =   -5520.95806223 Ry
     estimated scf accuracy    <      13.08105587 Ry

     total magnetization       =     8.68 Bohr mag/cell
     absolute magnetization    =    10.58 Bohr mag/cell

     iteration #206     ecut=    60.00 Ry     beta= 0.50
     CG style diagonalization

---- Real-time Memory Report at c_bands before calling an iterative solver
           449 MiB given to the printing process from OS
           280 MiB allocation reported by mallinfo(arena+hblkhd)
        450600 MiB available memory on the node where the printing process lives
------------------
     ethr =  4.00E-05,  avg # of iterations =  3.0

     negative rho (up, down):  6.069E-03 5.733E-03

     total cpu time spent up to now is    82168.9 secs

     total energy              =   -5521.03450130 Ry
     estimated scf accuracy    <       3.04948667 Ry

     total magnetization       =    11.37 Bohr mag/cell
     absolute magnetization    =    14.94 Bohr mag/cell

     iteration #207     ecut=    60.00 Ry     beta= 0.50
     CG style diagonalization

---- Real-time Memory Report at c_bands before calling an iterative solver
           449 MiB given to the printing process from OS
           280 MiB allocation reported by mallinfo(arena+hblkhd)
        450604 MiB available memory on the node where the printing process lives
------------------
     ethr =  4.00E-05,  avg # of iterations =  3.0

     negative rho (up, down):  3.707E-03 3.359E-03

     total cpu time spent up to now is    82444.9 secs

     total energy              =   -5520.97664005 Ry
     estimated scf accuracy    <       6.63375042 Ry

     total magnetization       =    12.32 Bohr mag/cell
     absolute magnetization    =    15.11 Bohr mag/cell

     iteration #208     ecut=    60.00 Ry     beta= 0.50
     CG style diagonalization

---- Real-time Memory Report at c_bands before calling an iterative solver
           449 MiB given to the printing process from OS
           280 MiB allocation reported by mallinfo(arena+hblkhd)
        450598 MiB available memory on the node where the printing process lives
------------------
     ethr =  4.00E-05,  avg # of iterations =  3.0

     negative rho (up, down):  3.613E-03 3.356E-03

     total cpu time spent up to now is    82721.6 secs

     total energy              =   -5521.13698955 Ry
     estimated scf accuracy    <       2.82327844 Ry

     total magnetization       =     9.57 Bohr mag/cell
     absolute magnetization    =    12.65 Bohr mag/cell

     iteration #209     ecut=    60.00 Ry     beta= 0.50
     CG style diagonalization

---- Real-time Memory Report at c_bands before calling an iterative solver
           449 MiB given to the printing process from OS
           280 MiB allocation reported by mallinfo(arena+hblkhd)
        450611 MiB available memory on the node where the printing process lives
------------------
     ethr =  4.00E-05,  avg # of iterations =  3.0

     negative rho (up, down):  2.353E-03 2.101E-03

     total cpu time spent up to now is    83003.0 secs

     total energy              =   -5521.24787547 Ry
     estimated scf accuracy    <      13.71262995 Ry

     total magnetization       =     8.68 Bohr mag/cell
     absolute magnetization    =    10.60 Bohr mag/cell

     iteration #210     ecut=    60.00 Ry     beta= 0.50
     CG style diagonalization

---- Real-time Memory Report at c_bands before calling an iterative solver
           449 MiB given to the printing process from OS
           280 MiB allocation reported by mallinfo(arena+hblkhd)
        450612 MiB available memory on the node where the printing process lives
------------------
     ethr =  4.00E-05,  avg # of iterations =  3.0

     negative rho (up, down):  1.971E-02 1.980E-02

     total cpu time spent up to now is    83278.7 secs

     total energy              =   -5522.55635343 Ry
     estimated scf accuracy    <      13.63955099 Ry

     total magnetization       =     8.69 Bohr mag/cell
     absolute magnetization    =    10.62 Bohr mag/cell

     iteration #211     ecut=    60.00 Ry     beta= 0.50
     CG style diagonalization

---- Real-time Memory Report at c_bands before calling an iterative solver
           449 MiB given to the printing process from OS
           280 MiB allocation reported by mallinfo(arena+hblkhd)
        450610 MiB available memory on the node where the printing process lives
------------------
     c_bands:  1 eigenvalues not converged
     c_bands:  1 eigenvalues not converged
     ethr =  4.00E-05,  avg # of iterations =  3.2

     negative rho (up, down):  1.802E-02 1.882E-02

     total cpu time spent up to now is    83583.0 secs

     total energy              =   -5522.89614680 Ry
     estimated scf accuracy    <      15.42760258 Ry

     total magnetization       =     8.77 Bohr mag/cell
     absolute magnetization    =    10.79 Bohr mag/cell

     iteration #212     ecut=    60.00 Ry     beta= 0.50
     CG style diagonalization

---- Real-time Memory Report at c_bands before calling an iterative solver
           449 MiB given to the printing process from OS
           280 MiB allocation reported by mallinfo(arena+hblkhd)
        450612 MiB available memory on the node where the printing process lives
------------------
     ethr =  4.00E-05,  avg # of iterations =  3.1

     negative rho (up, down):  1.580E-02 1.662E-02

     total cpu time spent up to now is    83869.0 secs

     total energy              =   -5523.07110630 Ry
     estimated scf accuracy    <      15.90182088 Ry

     total magnetization       =     8.78 Bohr mag/cell
     absolute magnetization    =    10.80 Bohr mag/cell

     iteration #213     ecut=    60.00 Ry     beta= 0.50
     CG style diagonalization

---- Real-time Memory Report at c_bands before calling an iterative solver
           449 MiB given to the printing process from OS
           280 MiB allocation reported by mallinfo(arena+hblkhd)
        450613 MiB available memory on the node where the printing process lives
------------------
     ethr =  4.00E-05,  avg # of iterations =  3.0

     negative rho (up, down):  1.269E-02 1.304E-02

     total cpu time spent up to now is    84151.0 secs

     total energy              =   -5523.11624747 Ry
     estimated scf accuracy    <      16.11931597 Ry

     total magnetization       =     8.78 Bohr mag/cell
     absolute magnetization    =    10.78 Bohr mag/cell

     iteration #214     ecut=    60.00 Ry     beta= 0.50
     CG style diagonalization

---- Real-time Memory Report at c_bands before calling an iterative solver
           449 MiB given to the printing process from OS
           280 MiB allocation reported by mallinfo(arena+hblkhd)
        450614 MiB available memory on the node where the printing process lives
------------------
     ethr =  4.00E-05,  avg # of iterations =  3.0

     negative rho (up, down):  1.154E-02 1.147E-02

     total cpu time spent up to now is    84431.1 secs

     total energy              =   -5523.35670322 Ry
     estimated scf accuracy    <      16.19104095 Ry

     total magnetization       =     8.76 Bohr mag/cell
     absolute magnetization    =    10.73 Bohr mag/cell

     iteration #215     ecut=    60.00 Ry     beta= 0.50
     CG style diagonalization

---- Real-time Memory Report at c_bands before calling an iterative solver
           449 MiB given to the printing process from OS
           280 MiB allocation reported by mallinfo(arena+hblkhd)
        450615 MiB available memory on the node where the printing process lives
------------------
     c_bands:  1 eigenvalues not converged
     c_bands:  1 eigenvalues not converged
     c_bands:  1 eigenvalues not converged
     c_bands:  1 eigenvalues not converged
     c_bands:  1 eigenvalues not converged
     c_bands:  1 eigenvalues not converged
     c_bands:  1 eigenvalues not converged
     c_bands:  1 eigenvalues not converged
     ethr =  4.00E-05,  avg # of iterations =  3.1

     negative rho (up, down):  1.108E-02 1.075E-02

     total cpu time spent up to now is    84721.2 secs

     total energy              =   -5523.42917234 Ry
     estimated scf accuracy    <      16.48270003 Ry

     total magnetization       =     8.75 Bohr mag/cell
     absolute magnetization    =    10.70 Bohr mag/cell

     iteration #216     ecut=    60.00 Ry     beta= 0.50
     CG style diagonalization

---- Real-time Memory Report at c_bands before calling an iterative solver
           449 MiB given to the printing process from OS
           280 MiB allocation reported by mallinfo(arena+hblkhd)
        450621 MiB available memory on the node where the printing process lives
------------------
     c_bands:  1 eigenvalues not converged
     c_bands:  1 eigenvalues not converged
     c_bands:  2 eigenvalues not converged
     ethr =  4.00E-05,  avg # of iterations =  3.1

     negative rho (up, down):  9.036E-03 8.730E-03

     total cpu time spent up to now is    85007.6 secs

     total energy              =   -5523.38094235 Ry
     estimated scf accuracy    <      16.67279174 Ry

     total magnetization       =     8.75 Bohr mag/cell
     absolute magnetization    =    10.70 Bohr mag/cell

     iteration #217     ecut=    60.00 Ry     beta= 0.50
     CG style diagonalization

---- Real-time Memory Report at c_bands before calling an iterative solver
           449 MiB given to the printing process from OS
           280 MiB allocation reported by mallinfo(arena+hblkhd)
        450593 MiB available memory on the node where the printing process lives
------------------
     c_bands:  1 eigenvalues not converged
     ethr =  4.00E-05,  avg # of iterations =  3.0

     negative rho (up, down):  7.023E-03 6.831E-03

     total cpu time spent up to now is    85285.1 secs

     total energy              =   -5523.36468690 Ry
     estimated scf accuracy    <      16.61337753 Ry

     total magnetization       =     8.75 Bohr mag/cell
     absolute magnetization    =    10.70 Bohr mag/cell

     iteration #218     ecut=    60.00 Ry     beta= 0.50
     CG style diagonalization

---- Real-time Memory Report at c_bands before calling an iterative solver
           449 MiB given to the printing process from OS
           280 MiB allocation reported by mallinfo(arena+hblkhd)
        450605 MiB available memory on the node where the printing process lives
------------------
     ethr =  4.00E-05,  avg # of iterations =  3.0

     negative rho (up, down):  5.356E-03 5.216E-03

     total cpu time spent up to now is    85560.7 secs

     total energy              =   -5523.32022268 Ry
     estimated scf accuracy    <      16.60175192 Ry

     total magnetization       =     8.75 Bohr mag/cell
     absolute magnetization    =    10.69 Bohr mag/cell

     iteration #219     ecut=    60.00 Ry     beta= 0.50
     CG style diagonalization

---- Real-time Memory Report at c_bands before calling an iterative solver
           449 MiB given to the printing process from OS
           280 MiB allocation reported by mallinfo(arena+hblkhd)
        450602 MiB available memory on the node where the printing process lives
------------------
     ethr =  4.00E-05,  avg # of iterations =  3.0

     negative rho (up, down):  4.473E-03 4.384E-03

     total cpu time spent up to now is    85837.2 secs

     total energy              =   -5523.28313958 Ry
     estimated scf accuracy    <      16.52141535 Ry

     total magnetization       =     8.76 Bohr mag/cell
     absolute magnetization    =    10.70 Bohr mag/cell

     iteration #220     ecut=    60.00 Ry     beta= 0.50
     CG style diagonalization

---- Real-time Memory Report at c_bands before calling an iterative solver
           449 MiB given to the printing process from OS
           280 MiB allocation reported by mallinfo(arena+hblkhd)
        450601 MiB available memory on the node where the printing process lives
------------------
     c_bands:  1 eigenvalues not converged
     ethr =  4.00E-05,  avg # of iterations =  3.0

     negative rho (up, down):  4.517E-03 4.399E-03

     total cpu time spent up to now is    86114.7 secs

     total energy              =   -5523.25847450 Ry
     estimated scf accuracy    <      16.44805980 Ry

     total magnetization       =     8.76 Bohr mag/cell
     absolute magnetization    =    10.70 Bohr mag/cell

     iteration #221     ecut=    60.00 Ry     beta= 0.50
     CG style diagonalization

---- Real-time Memory Report at c_bands before calling an iterative solver
           449 MiB given to the printing process from OS
           280 MiB allocation reported by mallinfo(arena+hblkhd)
        450607 MiB available memory on the node where the printing process lives
------------------
     ethr =  4.00E-05,  avg # of iterations =  3.0

     negative rho (up, down):  4.044E-03 3.950E-03

     total cpu time spent up to now is    86389.9 secs

     total energy              =   -5523.26037064 Ry
     estimated scf accuracy    <      16.41103492 Ry

     total magnetization       =     8.75 Bohr mag/cell
     absolute magnetization    =    10.71 Bohr mag/cell

     iteration #222     ecut=    60.00 Ry     beta= 0.50
     CG style diagonalization

---- Real-time Memory Report at c_bands before calling an iterative solver
           449 MiB given to the printing process from OS
           280 MiB allocation reported by mallinfo(arena+hblkhd)
        450612 MiB available memory on the node where the printing process lives
------------------
     ethr =  4.00E-05,  avg # of iterations =  3.0

     negative rho (up, down):  3.625E-03 3.591E-03

     total cpu time spent up to now is    86665.5 secs

     total energy              =   -5523.25312754 Ry
     estimated scf accuracy    <      16.41333467 Ry

     total magnetization       =     8.75 Bohr mag/cell
     absolute magnetization    =    10.70 Bohr mag/cell

     iteration #223     ecut=    60.00 Ry     beta= 0.50
     CG style diagonalization

---- Real-time Memory Report at c_bands before calling an iterative solver
           449 MiB given to the printing process from OS
           280 MiB allocation reported by mallinfo(arena+hblkhd)
        450607 MiB available memory on the node where the printing process lives
------------------
     ethr =  4.00E-05,  avg # of iterations =  3.0

     negative rho (up, down):  5.420E-03 5.431E-03

     total cpu time spent up to now is    86940.7 secs

     total energy              =   -5523.19762790 Ry
     estimated scf accuracy    <      16.39601057 Ry

     total magnetization       =     8.75 Bohr mag/cell
     absolute magnetization    =    10.70 Bohr mag/cell

     iteration #224     ecut=    60.00 Ry     beta= 0.50
     CG style diagonalization

---- Real-time Memory Report at c_bands before calling an iterative solver
           449 MiB given to the printing process from OS
           280 MiB allocation reported by mallinfo(arena+hblkhd)
        450605 MiB available memory on the node where the printing process lives
------------------
     ethr =  4.00E-05,  avg # of iterations =  3.0

     negative rho (up, down):  3.398E-03 3.372E-03

     total cpu time spent up to now is    87218.4 secs

     total energy              =   -5523.19603592 Ry
     estimated scf accuracy    <      16.32373543 Ry

     total magnetization       =     8.75 Bohr mag/cell
     absolute magnetization    =    10.70 Bohr mag/cell

     iteration #225     ecut=    60.00 Ry     beta= 0.50
     CG style diagonalization

---- Real-time Memory Report at c_bands before calling an iterative solver
           449 MiB given to the printing process from OS
           280 MiB allocation reported by mallinfo(arena+hblkhd)
        450609 MiB available memory on the node where the printing process lives
------------------
     ethr =  4.00E-05,  avg # of iterations =  3.0

     negative rho (up, down):  2.958E-03 2.828E-03

     total cpu time spent up to now is    87494.8 secs

     total energy              =   -5523.20121256 Ry
     estimated scf accuracy    <      16.31011898 Ry

     total magnetization       =     8.75 Bohr mag/cell
     absolute magnetization    =    10.70 Bohr mag/cell

     iteration #226     ecut=    60.00 Ry     beta= 0.50
     CG style diagonalization

---- Real-time Memory Report at c_bands before calling an iterative solver
           449 MiB given to the printing process from OS
           280 MiB allocation reported by mallinfo(arena+hblkhd)
        450605 MiB available memory on the node where the printing process lives
------------------
     ethr =  4.00E-05,  avg # of iterations =  3.0

     negative rho (up, down):  4.362E-03 4.329E-03

     total cpu time spent up to now is    87770.8 secs

     total energy              =   -5523.20329011 Ry
     estimated scf accuracy    <      16.34794714 Ry

     total magnetization       =     8.75 Bohr mag/cell
     absolute magnetization    =    10.70 Bohr mag/cell

     iteration #227     ecut=    60.00 Ry     beta= 0.50
     CG style diagonalization

---- Real-time Memory Report at c_bands before calling an iterative solver
           449 MiB given to the printing process from OS
           280 MiB allocation reported by mallinfo(arena+hblkhd)
        450608 MiB available memory on the node where the printing process lives
------------------
     ethr =  4.00E-05,  avg # of iterations =  3.0

     negative rho (up, down):  6.736E-03 6.238E-03

     total cpu time spent up to now is    88046.7 secs

     total energy              =   -5523.32190371 Ry
     estimated scf accuracy    <      16.36207365 Ry

     total magnetization       =     8.75 Bohr mag/cell
     absolute magnetization    =    10.71 Bohr mag/cell

     iteration #228     ecut=    60.00 Ry     beta= 0.50
     CG style diagonalization

---- Real-time Memory Report at c_bands before calling an iterative solver
           449 MiB given to the printing process from OS
           280 MiB allocation reported by mallinfo(arena+hblkhd)
        450607 MiB available memory on the node where the printing process lives
------------------
     ethr =  4.00E-05,  avg # of iterations =  3.0

     negative rho (up, down):  7.620E-02 6.764E-02

     total cpu time spent up to now is    88324.5 secs

     total energy              =   -5521.60479552 Ry
     estimated scf accuracy    <      16.52919546 Ry

     total magnetization       =     8.76 Bohr mag/cell
     absolute magnetization    =    10.71 Bohr mag/cell

     iteration #229     ecut=    60.00 Ry     beta= 0.50
     CG style diagonalization

---- Real-time Memory Report at c_bands before calling an iterative solver
           449 MiB given to the printing process from OS
           280 MiB allocation reported by mallinfo(arena+hblkhd)
        450593 MiB available memory on the node where the printing process lives
------------------
     c_bands:  1 eigenvalues not converged
     c_bands:  1 eigenvalues not converged
     c_bands:  1 eigenvalues not converged
     c_bands:  2 eigenvalues not converged
     c_bands:  2 eigenvalues not converged
     c_bands:  2 eigenvalues not converged
     c_bands:  1 eigenvalues not converged
     c_bands:  2 eigenvalues not converged
     c_bands:  1 eigenvalues not converged
     c_bands:  1 eigenvalues not converged
     c_bands:  3 eigenvalues not converged
     c_bands:  2 eigenvalues not converged
     c_bands:  3 eigenvalues not converged
     c_bands:  1 eigenvalues not converged
     c_bands:  4 eigenvalues not converged
     c_bands:  3 eigenvalues not converged
     ethr =  4.00E-05,  avg # of iterations =  3.5

     negative rho (up, down):  4.754E-01 4.864E-01

     total cpu time spent up to now is    88679.3 secs

     total energy              =   -5510.93924126 Ry
     estimated scf accuracy    <      13.96315410 Ry

     total magnetization       =     8.85 Bohr mag/cell
     absolute magnetization    =    11.01 Bohr mag/cell

     iteration #230     ecut=    60.00 Ry     beta= 0.50
     CG style diagonalization

---- Real-time Memory Report at c_bands before calling an iterative solver
           449 MiB given to the printing process from OS
           280 MiB allocation reported by mallinfo(arena+hblkhd)
        450588 MiB available memory on the node where the printing process lives
------------------
     c_bands:  4 eigenvalues not converged
     c_bands:  3 eigenvalues not converged
     c_bands:  1 eigenvalues not converged
     c_bands:  1 eigenvalues not converged
     c_bands:  2 eigenvalues not converged
     c_bands:  5 eigenvalues not converged
     c_bands:  3 eigenvalues not converged
     c_bands:  1 eigenvalues not converged
     c_bands:  1 eigenvalues not converged
     c_bands:  2 eigenvalues not converged
     c_bands:  2 eigenvalues not converged
     c_bands:  1 eigenvalues not converged
     c_bands:  2 eigenvalues not converged
     c_bands:  3 eigenvalues not converged
     c_bands:  4 eigenvalues not converged
     c_bands:  1 eigenvalues not converged
     c_bands:  1 eigenvalues not converged
     c_bands:  3 eigenvalues not converged
     c_bands:  2 eigenvalues not converged
     c_bands:  2 eigenvalues not converged
     c_bands:  1 eigenvalues not converged
     c_bands:  3 eigenvalues not converged
     c_bands:  2 eigenvalues not converged
     c_bands:  2 eigenvalues not converged
     c_bands:  3 eigenvalues not converged
     c_bands:  1 eigenvalues not converged
     c_bands:  3 eigenvalues not converged
     c_bands:  2 eigenvalues not converged
     ethr =  4.00E-05,  avg # of iterations = 20.1

     negative rho (up, down):  4.186E-03 3.807E-03

     total cpu time spent up to now is    90954.8 secs

     total energy              =   -5378.50509063 Ry
     estimated scf accuracy    <   25156.77255917 Ry

     total magnetization       =     0.13 Bohr mag/cell
     absolute magnetization    =     1.38 Bohr mag/cell

     iteration #231     ecut=    60.00 Ry     beta= 0.50
     CG style diagonalization

---- Real-time Memory Report at c_bands before calling an iterative solver
           449 MiB given to the printing process from OS
           280 MiB allocation reported by mallinfo(arena+hblkhd)
        450611 MiB available memory on the node where the printing process lives
------------------
     c_bands:  1 eigenvalues not converged
     c_bands:  1 eigenvalues not converged
     c_bands:  2 eigenvalues not converged
     c_bands:  1 eigenvalues not converged
     c_bands:  1 eigenvalues not converged
     c_bands:  3 eigenvalues not converged
     c_bands:  5 eigenvalues not converged
     c_bands:  1 eigenvalues not converged
     c_bands:  4 eigenvalues not converged
     c_bands:  1 eigenvalues not converged
     c_bands:  1 eigenvalues not converged
     c_bands:  1 eigenvalues not converged
     ethr =  4.00E-05,  avg # of iterations = 19.5

     negative rho (up, down):  4.688E-02 4.737E-02

     total cpu time spent up to now is    93141.7 secs

     total energy              =   -5499.95875613 Ry
     estimated scf accuracy    <     595.06288293 Ry

     total magnetization       =    16.71 Bohr mag/cell
     absolute magnetization    =    17.63 Bohr mag/cell

     iteration #232     ecut=    60.00 Ry     beta= 0.50
     CG style diagonalization

---- Real-time Memory Report at c_bands before calling an iterative solver
           449 MiB given to the printing process from OS
           280 MiB allocation reported by mallinfo(arena+hblkhd)
        450585 MiB available memory on the node where the printing process lives
------------------
     c_bands:  5 eigenvalues not converged
     c_bands:  3 eigenvalues not converged
     c_bands:  5 eigenvalues not converged
     c_bands:  5 eigenvalues not converged
     c_bands:  5 eigenvalues not converged
     c_bands:  3 eigenvalues not converged
     ethr =  4.00E-05,  avg # of iterations =  8.0

     negative rho (up, down):  1.119E-02 1.089E-02

     total cpu time spent up to now is    93959.1 secs

     total energy              =   -5519.95605974 Ry
     estimated scf accuracy    <      17.77944749 Ry

     total magnetization       =    12.88 Bohr mag/cell
     absolute magnetization    =    14.41 Bohr mag/cell

     iteration #233     ecut=    60.00 Ry     beta= 0.50
     CG style diagonalization

---- Real-time Memory Report at c_bands before calling an iterative solver
           449 MiB given to the printing process from OS
           280 MiB allocation reported by mallinfo(arena+hblkhd)
        450597 MiB available memory on the node where the printing process lives
------------------
     c_bands:  1 eigenvalues not converged
     c_bands:  1 eigenvalues not converged
     ethr =  4.00E-05,  avg # of iterations =  3.2

     negative rho (up, down):  1.798E-02 1.776E-02

     total cpu time spent up to now is    94261.9 secs

     total energy              =   -5520.76130885 Ry
     estimated scf accuracy    <      15.11257482 Ry

     total magnetization       =     8.40 Bohr mag/cell
     absolute magnetization    =    10.20 Bohr mag/cell

     iteration #234     ecut=    60.00 Ry     beta= 0.50
     CG style diagonalization

---- Real-time Memory Report at c_bands before calling an iterative solver
           449 MiB given to the printing process from OS
           280 MiB allocation reported by mallinfo(arena+hblkhd)
        450601 MiB available memory on the node where the printing process lives
------------------
     ethr =  4.00E-05,  avg # of iterations =  3.1

     negative rho (up, down):  6.504E-03 6.426E-03

     total cpu time spent up to now is    94550.5 secs

     total energy              =   -5519.70702310 Ry
     estimated scf accuracy    <      13.67544491 Ry

     total magnetization       =    13.11 Bohr mag/cell
     absolute magnetization    =    14.53 Bohr mag/cell

     iteration #235     ecut=    60.00 Ry     beta= 0.50
     CG style diagonalization

---- Real-time Memory Report at c_bands before calling an iterative solver
           449 MiB given to the printing process from OS
           280 MiB allocation reported by mallinfo(arena+hblkhd)
        450603 MiB available memory on the node where the printing process lives
------------------
     ethr =  4.00E-05,  avg # of iterations =  3.1

     negative rho (up, down):  6.527E-03 6.453E-03

     total cpu time spent up to now is    94844.5 secs

     total energy              =   -5521.31902328 Ry
     estimated scf accuracy    <      14.95649718 Ry

     total magnetization       =     8.61 Bohr mag/cell
     absolute magnetization    =    10.42 Bohr mag/cell

     iteration #236     ecut=    60.00 Ry     beta= 0.50
     CG style diagonalization

---- Real-time Memory Report at c_bands before calling an iterative solver
           449 MiB given to the printing process from OS
           280 MiB allocation reported by mallinfo(arena+hblkhd)
        450603 MiB available memory on the node where the printing process lives
------------------
     ethr =  4.00E-05,  avg # of iterations =  3.1

     negative rho (up, down):  6.848E-03 6.768E-03

     total cpu time spent up to now is    95132.7 secs

     total energy              =   -5521.35788241 Ry
     estimated scf accuracy    <      13.84903150 Ry

     total magnetization       =     8.51 Bohr mag/cell
     absolute magnetization    =    10.26 Bohr mag/cell

     iteration #237     ecut=    60.00 Ry     beta= 0.50
     CG style diagonalization

---- Real-time Memory Report at c_bands before calling an iterative solver
           449 MiB given to the printing process from OS
           280 MiB allocation reported by mallinfo(arena+hblkhd)
        450609 MiB available memory on the node where the printing process lives
------------------
     ethr =  4.00E-05,  avg # of iterations =  3.0

     negative rho (up, down):  6.724E-03 6.657E-03

     total cpu time spent up to now is    95407.4 secs

     total energy              =   -5521.42748178 Ry
     estimated scf accuracy    <      13.89288823 Ry

     total magnetization       =     8.50 Bohr mag/cell
     absolute magnetization    =    10.26 Bohr mag/cell

     iteration #238     ecut=    60.00 Ry     beta= 0.50
     CG style diagonalization

---- Real-time Memory Report at c_bands before calling an iterative solver
           449 MiB given to the printing process from OS
           280 MiB allocation reported by mallinfo(arena+hblkhd)
        450619 MiB available memory on the node where the printing process lives
------------------
     ethr =  4.00E-05,  avg # of iterations =  3.0

     negative rho (up, down):  7.318E-03 7.256E-03

     total cpu time spent up to now is    95683.2 secs

     total energy              =   -5521.43782836 Ry
     estimated scf accuracy    <      14.00532462 Ry

     total magnetization       =     8.51 Bohr mag/cell
     absolute magnetization    =    10.27 Bohr mag/cell

     iteration #239     ecut=    60.00 Ry     beta= 0.50
     CG style diagonalization

---- Real-time Memory Report at c_bands before calling an iterative solver
           449 MiB given to the printing process from OS
           280 MiB allocation reported by mallinfo(arena+hblkhd)
        450584 MiB available memory on the node where the printing process lives
------------------
     ethr =  4.00E-05,  avg # of iterations =  3.0

     negative rho (up, down):  7.369E-03 7.309E-03

     total cpu time spent up to now is    95959.4 secs

     total energy              =   -5521.33368872 Ry
     estimated scf accuracy    <      14.01382213 Ry

     total magnetization       =     8.52 Bohr mag/cell
     absolute magnetization    =    10.29 Bohr mag/cell

     iteration #240     ecut=    60.00 Ry     beta= 0.50
     CG style diagonalization

---- Real-time Memory Report at c_bands before calling an iterative solver
           449 MiB given to the printing process from OS
           280 MiB allocation reported by mallinfo(arena+hblkhd)
        450589 MiB available memory on the node where the printing process lives
------------------
     ethr =  4.00E-05,  avg # of iterations =  3.0

     negative rho (up, down):  6.695E-03 6.636E-03

     total cpu time spent up to now is    96234.9 secs

     total energy              =   -5521.09873902 Ry
     estimated scf accuracy    <      13.86308861 Ry

     total magnetization       =     8.51 Bohr mag/cell
     absolute magnetization    =    10.28 Bohr mag/cell

     iteration #241     ecut=    60.00 Ry     beta= 0.50
     CG style diagonalization

---- Real-time Memory Report at c_bands before calling an iterative solver
           449 MiB given to the printing process from OS
           280 MiB allocation reported by mallinfo(arena+hblkhd)
        450607 MiB available memory on the node where the printing process lives
------------------
     ethr =  4.00E-05,  avg # of iterations =  3.0

     negative rho (up, down):  6.274E-03 6.222E-03

     total cpu time spent up to now is    96513.3 secs

     total energy              =   -5521.06419894 Ry
     estimated scf accuracy    <      13.20233214 Ry

     total magnetization       =     8.53 Bohr mag/cell
     absolute magnetization    =    10.30 Bohr mag/cell

     iteration #242     ecut=    60.00 Ry     beta= 0.50
     CG style diagonalization

---- Real-time Memory Report at c_bands before calling an iterative solver
           449 MiB given to the printing process from OS
           280 MiB allocation reported by mallinfo(arena+hblkhd)
        450597 MiB available memory on the node where the printing process lives
------------------
     ethr =  4.00E-05,  avg # of iterations =  3.0

     negative rho (up, down):  4.836E-03 4.816E-03

     total cpu time spent up to now is    96789.3 secs

     total energy              =   -5521.72815393 Ry
     estimated scf accuracy    <      10.49544670 Ry

     total magnetization       =     8.85 Bohr mag/cell
     absolute magnetization    =    10.60 Bohr mag/cell

     iteration #243     ecut=    60.00 Ry     beta= 0.50
     CG style diagonalization

---- Real-time Memory Report at c_bands before calling an iterative solver
           449 MiB given to the printing process from OS
           280 MiB allocation reported by mallinfo(arena+hblkhd)
        450601 MiB available memory on the node where the printing process lives
------------------
     ethr =  4.00E-05,  avg # of iterations =  3.1

     negative rho (up, down):  6.605E-03 6.573E-03

     total cpu time spent up to now is    97072.7 secs

     total energy              =   -5522.26891377 Ry
     estimated scf accuracy    <      14.42579208 Ry

     total magnetization       =     8.58 Bohr mag/cell
     absolute magnetization    =    10.39 Bohr mag/cell

     iteration #244     ecut=    60.00 Ry     beta= 0.50
     CG style diagonalization

---- Real-time Memory Report at c_bands before calling an iterative solver
           449 MiB given to the printing process from OS
           280 MiB allocation reported by mallinfo(arena+hblkhd)
        450595 MiB available memory on the node where the printing process lives
------------------
     ethr =  4.00E-05,  avg # of iterations =  3.1

     negative rho (up, down):  5.781E-03 5.752E-03

     total cpu time spent up to now is    97355.7 secs

     total energy              =   -5522.11794522 Ry
     estimated scf accuracy    <      15.21103809 Ry

     total magnetization       =     8.59 Bohr mag/cell
     absolute magnetization    =    10.39 Bohr mag/cell

     iteration #245     ecut=    60.00 Ry     beta= 0.50
     CG style diagonalization

---- Real-time Memory Report at c_bands before calling an iterative solver
           449 MiB given to the printing process from OS
           280 MiB allocation reported by mallinfo(arena+hblkhd)
        450607 MiB available memory on the node where the printing process lives
------------------
     ethr =  4.00E-05,  avg # of iterations =  3.0

     negative rho (up, down):  5.790E-03 5.772E-03

     total cpu time spent up to now is    97631.5 secs

     total energy              =   -5522.28606658 Ry
     estimated scf accuracy    <      14.91353038 Ry

     total magnetization       =     8.59 Bohr mag/cell
     absolute magnetization    =    10.40 Bohr mag/cell

     iteration #246     ecut=    60.00 Ry     beta= 0.50
     CG style diagonalization

---- Real-time Memory Report at c_bands before calling an iterative solver
           449 MiB given to the printing process from OS
           280 MiB allocation reported by mallinfo(arena+hblkhd)
        450611 MiB available memory on the node where the printing process lives
------------------
     ethr =  4.00E-05,  avg # of iterations =  3.0

     negative rho (up, down):  6.031E-03 6.016E-03

     total cpu time spent up to now is    97908.5 secs

     total energy              =   -5522.45784560 Ry
     estimated scf accuracy    <      15.14929860 Ry

     total magnetization       =     8.59 Bohr mag/cell
     absolute magnetization    =    10.41 Bohr mag/cell

     iteration #247     ecut=    60.00 Ry     beta= 0.50
     CG style diagonalization

---- Real-time Memory Report at c_bands before calling an iterative solver
           449 MiB given to the printing process from OS
           280 MiB allocation reported by mallinfo(arena+hblkhd)
        450608 MiB available memory on the node where the printing process lives
------------------
     ethr =  4.00E-05,  avg # of iterations =  3.0

     negative rho (up, down):  6.409E-03 6.388E-03

     total cpu time spent up to now is    98186.6 secs

     total energy              =   -5522.45650408 Ry
     estimated scf accuracy    <      15.38638997 Ry

     total magnetization       =     8.61 Bohr mag/cell
     absolute magnetization    =    10.44 Bohr mag/cell

     iteration #248     ecut=    60.00 Ry     beta= 0.50
     CG style diagonalization

---- Real-time Memory Report at c_bands before calling an iterative solver
           449 MiB given to the printing process from OS
           280 MiB allocation reported by mallinfo(arena+hblkhd)
        450608 MiB available memory on the node where the printing process lives
------------------
     ethr =  4.00E-05,  avg # of iterations =  3.0

     negative rho (up, down):  6.306E-03 6.284E-03

     total cpu time spent up to now is    98461.7 secs

     total energy              =   -5522.46096821 Ry
     estimated scf accuracy    <      15.37383131 Ry

     total magnetization       =     8.60 Bohr mag/cell
     absolute magnetization    =    10.43 Bohr mag/cell

     iteration #249     ecut=    60.00 Ry     beta= 0.50
     CG style diagonalization

---- Real-time Memory Report at c_bands before calling an iterative solver
           449 MiB given to the printing process from OS
           280 MiB allocation reported by mallinfo(arena+hblkhd)
        450611 MiB available memory on the node where the printing process lives
------------------
     ethr =  4.00E-05,  avg # of iterations =  3.0

     negative rho (up, down):  6.576E-03 6.550E-03

     total cpu time spent up to now is    98737.8 secs

     total energy              =   -5522.38441108 Ry
     estimated scf accuracy    <      15.37939454 Ry

     total magnetization       =     8.61 Bohr mag/cell
     absolute magnetization    =    10.44 Bohr mag/cell

     iteration #250     ecut=    60.00 Ry     beta= 0.50
     CG style diagonalization

---- Real-time Memory Report at c_bands before calling an iterative solver
           449 MiB given to the printing process from OS
           280 MiB allocation reported by mallinfo(arena+hblkhd)
        450603 MiB available memory on the node where the printing process lives
------------------
     ethr =  4.00E-05,  avg # of iterations =  3.0

     negative rho (up, down):  6.851E-03 6.824E-03

     total cpu time spent up to now is    99012.5 secs

     total energy              =   -5522.32735495 Ry
     estimated scf accuracy    <      15.27877041 Ry

     total magnetization       =     8.59 Bohr mag/cell
     absolute magnetization    =    10.42 Bohr mag/cell

     iteration #251     ecut=    60.00 Ry     beta= 0.50
     CG style diagonalization

---- Real-time Memory Report at c_bands before calling an iterative solver
           449 MiB given to the printing process from OS
           280 MiB allocation reported by mallinfo(arena+hblkhd)
        450602 MiB available memory on the node where the printing process lives
------------------
     ethr =  4.00E-05,  avg # of iterations =  3.0

     negative rho (up, down):  1.109E-02 1.111E-02

     total cpu time spent up to now is    99290.8 secs

     total energy              =   -5523.54487166 Ry
     estimated scf accuracy    <      15.20560934 Ry

     total magnetization       =     8.59 Bohr mag/cell
     absolute magnetization    =    10.40 Bohr mag/cell

     iteration #252     ecut=    60.00 Ry     beta= 0.50
     CG style diagonalization

---- Real-time Memory Report at c_bands before calling an iterative solver
           449 MiB given to the printing process from OS
           280 MiB allocation reported by mallinfo(arena+hblkhd)
        450587 MiB available memory on the node where the printing process lives
------------------
     c_bands:  1 eigenvalues not converged
     c_bands:  1 eigenvalues not converged
     c_bands:  1 eigenvalues not converged
     c_bands:  2 eigenvalues not converged
     c_bands:  2 eigenvalues not converged
     c_bands:  2 eigenvalues not converged
     c_bands:  2 eigenvalues not converged
     c_bands:  2 eigenvalues not converged
     c_bands:  2 eigenvalues not converged
     c_bands:  1 eigenvalues not converged
     c_bands:  1 eigenvalues not converged
     c_bands:  2 eigenvalues not converged
     c_bands:  2 eigenvalues not converged
     c_bands:  1 eigenvalues not converged
     c_bands:  2 eigenvalues not converged
     c_bands:  2 eigenvalues not converged
     c_bands:  2 eigenvalues not converged
     c_bands:  1 eigenvalues not converged
     c_bands:  1 eigenvalues not converged
     ethr =  4.00E-05,  avg # of iterations =  3.3

     negative rho (up, down):  1.437E-02 1.494E-02

     total cpu time spent up to now is    99606.3 secs

     total energy              =   -5523.67256172 Ry
     estimated scf accuracy    <      16.93798632 Ry

     total magnetization       =     8.68 Bohr mag/cell
     absolute magnetization    =    10.55 Bohr mag/cell

     iteration #253     ecut=    60.00 Ry     beta= 0.50
     CG style diagonalization

---- Real-time Memory Report at c_bands before calling an iterative solver
           449 MiB given to the printing process from OS
           280 MiB allocation reported by mallinfo(arena+hblkhd)
        450587 MiB available memory on the node where the printing process lives
------------------
     c_bands:  1 eigenvalues not converged
     c_bands:  1 eigenvalues not converged
     c_bands:  1 eigenvalues not converged
     c_bands:  2 eigenvalues not converged
     ethr =  4.00E-05,  avg # of iterations =  3.1

     negative rho (up, down):  1.310E-02 1.360E-02

     total cpu time spent up to now is    99901.2 secs

     total energy              =   -5523.66309153 Ry
     estimated scf accuracy    <      17.12551513 Ry

     total magnetization       =     8.78 Bohr mag/cell
     absolute magnetization    =    10.70 Bohr mag/cell

     iteration #254     ecut=    60.00 Ry     beta= 0.50
     CG style diagonalization

---- Real-time Memory Report at c_bands before calling an iterative solver
           449 MiB given to the printing process from OS
           280 MiB allocation reported by mallinfo(arena+hblkhd)
        450595 MiB available memory on the node where the printing process lives
------------------
     ethr =  4.00E-05,  avg # of iterations =  3.0

     negative rho (up, down):  1.364E-02 1.383E-02

     total cpu time spent up to now is   100178.4 secs

     total energy              =   -5523.61663457 Ry
     estimated scf accuracy    <      17.17296801 Ry

     total magnetization       =     8.78 Bohr mag/cell
     absolute magnetization    =    10.71 Bohr mag/cell

     iteration #255     ecut=    60.00 Ry     beta= 0.50
     CG style diagonalization

---- Real-time Memory Report at c_bands before calling an iterative solver
           449 MiB given to the printing process from OS
           280 MiB allocation reported by mallinfo(arena+hblkhd)
        450605 MiB available memory on the node where the printing process lives
------------------
     ethr =  4.00E-05,  avg # of iterations =  3.0

     negative rho (up, down):  2.242E-02 2.319E-02

     total cpu time spent up to now is   100455.2 secs

     total energy              =   -5523.48219862 Ry
     estimated scf accuracy    <      17.03983872 Ry

     total magnetization       =     8.79 Bohr mag/cell
     absolute magnetization    =    10.74 Bohr mag/cell

     iteration #256     ecut=    60.00 Ry     beta= 0.50
     CG style diagonalization

---- Real-time Memory Report at c_bands before calling an iterative solver
           449 MiB given to the printing process from OS
           280 MiB allocation reported by mallinfo(arena+hblkhd)
        450608 MiB available memory on the node where the printing process lives
------------------
     ethr =  4.00E-05,  avg # of iterations =  3.1

     negative rho (up, down):  2.369E-02 2.488E-02

     total cpu time spent up to now is   100738.8 secs

     total energy              =   -5523.43336448 Ry
     estimated scf accuracy    <      17.14200734 Ry

     total magnetization       =     8.80 Bohr mag/cell
     absolute magnetization    =    10.76 Bohr mag/cell

     iteration #257     ecut=    60.00 Ry     beta= 0.50
     CG style diagonalization

---- Real-time Memory Report at c_bands before calling an iterative solver
           449 MiB given to the printing process from OS
           280 MiB allocation reported by mallinfo(arena+hblkhd)
        450610 MiB available memory on the node where the printing process lives
------------------
     c_bands:  1 eigenvalues not converged
     ethr =  4.00E-05,  avg # of iterations =  3.0

     negative rho (up, down):  2.436E-02 2.535E-02

     total cpu time spent up to now is   101015.0 secs

     total energy              =   -5523.18728663 Ry
     estimated scf accuracy    <      17.08120811 Ry

     total magnetization       =     8.81 Bohr mag/cell
     absolute magnetization    =    10.76 Bohr mag/cell

     iteration #258     ecut=    60.00 Ry     beta= 0.50
     CG style diagonalization

---- Real-time Memory Report at c_bands before calling an iterative solver
           449 MiB given to the printing process from OS
           280 MiB allocation reported by mallinfo(arena+hblkhd)
        450615 MiB available memory on the node where the printing process lives
------------------
     c_bands:  1 eigenvalues not converged
     ethr =  4.00E-05,  avg # of iterations =  3.1

     negative rho (up, down):  2.480E-02 2.523E-02

     total cpu time spent up to now is   101303.5 secs

     total energy              =   -5523.18491725 Ry
     estimated scf accuracy    <      16.65720983 Ry

     total magnetization       =     8.81 Bohr mag/cell
     absolute magnetization    =    10.78 Bohr mag/cell

     iteration #259     ecut=    60.00 Ry     beta= 0.50
     CG style diagonalization

---- Real-time Memory Report at c_bands before calling an iterative solver
           449 MiB given to the printing process from OS
           280 MiB allocation reported by mallinfo(arena+hblkhd)
        450610 MiB available memory on the node where the printing process lives
------------------
     ethr =  4.00E-05,  avg # of iterations =  3.0

     negative rho (up, down):  2.405E-02 2.472E-02

     total cpu time spent up to now is   101581.0 secs

     total energy              =   -5523.22868048 Ry
     estimated scf accuracy    <      16.67798242 Ry

     total magnetization       =     8.81 Bohr mag/cell
     absolute magnetization    =    10.78 Bohr mag/cell

     iteration #260     ecut=    60.00 Ry     beta= 0.50
     CG style diagonalization

---- Real-time Memory Report at c_bands before calling an iterative solver
           449 MiB given to the printing process from OS
           280 MiB allocation reported by mallinfo(arena+hblkhd)
        450611 MiB available memory on the node where the printing process lives
------------------
     ethr =  4.00E-05,  avg # of iterations =  3.0

     negative rho (up, down):  2.045E-02 2.174E-02

     total cpu time spent up to now is   101856.3 secs

     total energy              =   -5523.37513127 Ry
     estimated scf accuracy    <      16.77832136 Ry

     total magnetization       =     8.81 Bohr mag/cell
     absolute magnetization    =    10.78 Bohr mag/cell

     iteration #261     ecut=    60.00 Ry     beta= 0.50
     CG style diagonalization

---- Real-time Memory Report at c_bands before calling an iterative solver
           449 MiB given to the printing process from OS
           280 MiB allocation reported by mallinfo(arena+hblkhd)
        450607 MiB available memory on the node where the printing process lives
------------------
     ethr =  4.00E-05,  avg # of iterations =  3.0

     negative rho (up, down):  1.938E-02 2.077E-02

     total cpu time spent up to now is   102135.0 secs

     total energy              =   -5523.35826352 Ry
     estimated scf accuracy    <      16.87775662 Ry

     total magnetization       =     8.80 Bohr mag/cell
     absolute magnetization    =    10.77 Bohr mag/cell

     iteration #262     ecut=    60.00 Ry     beta= 0.50
     CG style diagonalization

---- Real-time Memory Report at c_bands before calling an iterative solver
           449 MiB given to the printing process from OS
           280 MiB allocation reported by mallinfo(arena+hblkhd)
        450610 MiB available memory on the node where the printing process lives
------------------
     ethr =  4.00E-05,  avg # of iterations =  3.0

     negative rho (up, down):  2.705E-02 2.674E-02

     total cpu time spent up to now is   102411.3 secs

     total energy              =   -5523.12004888 Ry
     estimated scf accuracy    <      16.80302543 Ry

     total magnetization       =     8.80 Bohr mag/cell
     absolute magnetization    =    10.76 Bohr mag/cell

     iteration #263     ecut=    60.00 Ry     beta= 0.50
     CG style diagonalization

---- Real-time Memory Report at c_bands before calling an iterative solver
           449 MiB given to the printing process from OS
           280 MiB allocation reported by mallinfo(arena+hblkhd)
        450600 MiB available memory on the node where the printing process lives
------------------
     c_bands:  1 eigenvalues not converged
     ethr =  4.00E-05,  avg # of iterations =  3.1

     negative rho (up, down):  6.962E-01 6.968E-01

     total cpu time spent up to now is   102698.9 secs

     total energy              =   -5511.09747488 Ry
     estimated scf accuracy    <      16.33770450 Ry

     total magnetization       =     8.78 Bohr mag/cell
     absolute magnetization    =    10.73 Bohr mag/cell

     iteration #264     ecut=    60.00 Ry     beta= 0.50
     CG style diagonalization

---- Real-time Memory Report at c_bands before calling an iterative solver
           449 MiB given to the printing process from OS
           280 MiB allocation reported by mallinfo(arena+hblkhd)
        450597 MiB available memory on the node where the printing process lives
------------------
     c_bands:  4 eigenvalues not converged
     c_bands:  3 eigenvalues not converged
     c_bands:  2 eigenvalues not converged
     c_bands:  2 eigenvalues not converged
     c_bands:  5 eigenvalues not converged
     c_bands:  2 eigenvalues not converged
     c_bands:  3 eigenvalues not converged
     c_bands:  3 eigenvalues not converged
     c_bands:  1 eigenvalues not converged
     c_bands:  4 eigenvalues not converged
     c_bands:  2 eigenvalues not converged
     c_bands:  2 eigenvalues not converged
     c_bands:  1 eigenvalues not converged
     c_bands:  1 eigenvalues not converged
     c_bands:  2 eigenvalues not converged
     c_bands:  1 eigenvalues not converged
     c_bands:  4 eigenvalues not converged
     c_bands:  2 eigenvalues not converged
     c_bands:  1 eigenvalues not converged
     c_bands:  2 eigenvalues not converged
     c_bands:  1 eigenvalues not converged
     c_bands:  1 eigenvalues not converged
     c_bands:  4 eigenvalues not converged
     c_bands:  4 eigenvalues not converged
     ethr =  4.00E-05,  avg # of iterations = 20.4

     negative rho (up, down):  1.200E-03 4.509E-04

     total cpu time spent up to now is   104993.9 secs

     total energy              =   -5429.82605576 Ry
     estimated scf accuracy    <   24583.31930089 Ry

     total magnetization       =    -0.08 Bohr mag/cell
     absolute magnetization    =     0.71 Bohr mag/cell

     iteration #265     ecut=    60.00 Ry     beta= 0.50
     CG style diagonalization

---- Real-time Memory Report at c_bands before calling an iterative solver
           449 MiB given to the printing process from OS
           280 MiB allocation reported by mallinfo(arena+hblkhd)
        450603 MiB available memory on the node where the printing process lives
------------------
     c_bands:  1 eigenvalues not converged
     c_bands:  4 eigenvalues not converged
     c_bands:  2 eigenvalues not converged
     c_bands:  1 eigenvalues not converged
     c_bands:  4 eigenvalues not converged
     c_bands:  4 eigenvalues not converged
     c_bands:  5 eigenvalues not converged
     c_bands:  1 eigenvalues not converged
     c_bands:  2 eigenvalues not converged
     c_bands:  4 eigenvalues not converged
     c_bands:  2 eigenvalues not converged
     c_bands:  1 eigenvalues not converged
     c_bands:  2 eigenvalues not converged
     c_bands:  1 eigenvalues not converged
     c_bands:  3 eigenvalues not converged
     c_bands:  5 eigenvalues not converged
     c_bands:  4 eigenvalues not converged
     c_bands:  3 eigenvalues not converged
     c_bands:  5 eigenvalues not converged
     c_bands:  3 eigenvalues not converged
     c_bands:  1 eigenvalues not converged
     ethr =  4.00E-05,  avg # of iterations = 21.4

     negative rho (up, down):  1.089E-03 9.640E-04

     total cpu time spent up to now is   107372.9 secs

     total energy              =   -5516.51937977 Ry
     estimated scf accuracy    <    1376.93590217 Ry

     total magnetization       =    14.53 Bohr mag/cell
     absolute magnetization    =    15.14 Bohr mag/cell

     iteration #266     ecut=    60.00 Ry     beta= 0.50
     CG style diagonalization

---- Real-time Memory Report at c_bands before calling an iterative solver
           449 MiB given to the printing process from OS
           280 MiB allocation reported by mallinfo(arena+hblkhd)
        450599 MiB available memory on the node where the printing process lives
------------------
     c_bands:  1 eigenvalues not converged
     c_bands:  5 eigenvalues not converged
     c_bands:  1 eigenvalues not converged
     ethr =  4.00E-05,  avg # of iterations =  8.8

     negative rho (up, down):  1.217E-03 1.091E-03

     total cpu time spent up to now is   108281.2 secs

     total energy              =   -5528.68819408 Ry
     estimated scf accuracy    <      72.76082365 Ry

     total magnetization       =    15.74 Bohr mag/cell
     absolute magnetization    =    16.79 Bohr mag/cell

     iteration #267     ecut=    60.00 Ry     beta= 0.50
     CG style diagonalization

---- Real-time Memory Report at c_bands before calling an iterative solver
           449 MiB given to the printing process from OS
           280 MiB allocation reported by mallinfo(arena+hblkhd)
        450603 MiB available memory on the node where the printing process lives
------------------
     ethr =  4.00E-05,  avg # of iterations =  3.1

     negative rho (up, down):  2.363E-03 2.167E-03

     total cpu time spent up to now is   108572.1 secs

     total energy              =   -5527.40555679 Ry
     estimated scf accuracy    <      60.72751790 Ry

     total magnetization       =    15.25 Bohr mag/cell
     absolute magnetization    =    16.38 Bohr mag/cell

     iteration #268     ecut=    60.00 Ry     beta= 0.50
     CG style diagonalization

---- Real-time Memory Report at c_bands before calling an iterative solver
           449 MiB given to the printing process from OS
           280 MiB allocation reported by mallinfo(arena+hblkhd)
        450605 MiB available memory on the node where the printing process lives
------------------
     c_bands:  1 eigenvalues not converged
     c_bands:  2 eigenvalues not converged
     ethr =  4.00E-05,  avg # of iterations =  3.3

     negative rho (up, down):  4.157E-03 4.047E-03

     total cpu time spent up to now is   108881.1 secs

     total energy              =   -5526.17258045 Ry
     estimated scf accuracy    <      53.21865228 Ry

     total magnetization       =    15.25 Bohr mag/cell
     absolute magnetization    =    16.42 Bohr mag/cell

     iteration #269     ecut=    60.00 Ry     beta= 0.50
     CG style diagonalization

---- Real-time Memory Report at c_bands before calling an iterative solver
           449 MiB given to the printing process from OS
           280 MiB allocation reported by mallinfo(arena+hblkhd)
        450582 MiB available memory on the node where the printing process lives
------------------
     c_bands:  2 eigenvalues not converged
     c_bands:  2 eigenvalues not converged
     c_bands:  1 eigenvalues not converged
     c_bands:  1 eigenvalues not converged
     c_bands:  1 eigenvalues not converged
     c_bands:  2 eigenvalues not converged
     c_bands:  2 eigenvalues not converged
     c_bands:  1 eigenvalues not converged
     c_bands:  2 eigenvalues not converged
     c_bands:  1 eigenvalues not converged
     c_bands:  1 eigenvalues not converged
     c_bands:  3 eigenvalues not converged
     c_bands:  1 eigenvalues not converged
     c_bands:  1 eigenvalues not converged
     c_bands:  1 eigenvalues not converged
     c_bands:  1 eigenvalues not converged
     c_bands:  1 eigenvalues not converged
     c_bands:  2 eigenvalues not converged
     c_bands:  1 eigenvalues not converged
     c_bands:  1 eigenvalues not converged
     c_bands:  1 eigenvalues not converged
     ethr =  4.00E-05,  avg # of iterations =  3.4

     negative rho (up, down):  4.405E-03 4.357E-03

     total cpu time spent up to now is   109204.7 secs

     total energy              =   -5525.18487033 Ry
     estimated scf accuracy    <      29.79547182 Ry

     total magnetization       =    13.75 Bohr mag/cell
     absolute magnetization    =    15.00 Bohr mag/cell

     iteration #270     ecut=    60.00 Ry     beta= 0.50
     CG style diagonalization

---- Real-time Memory Report at c_bands before calling an iterative solver
           449 MiB given to the printing process from OS
           280 MiB allocation reported by mallinfo(arena+hblkhd)
        450577 MiB available memory on the node where the printing process lives
------------------
     c_bands:  1 eigenvalues not converged
     c_bands:  1 eigenvalues not converged
     c_bands:  1 eigenvalues not converged
     c_bands:  1 eigenvalues not converged
     c_bands:  1 eigenvalues not converged
     c_bands:  1 eigenvalues not converged
     c_bands:  2 eigenvalues not converged
     c_bands:  2 eigenvalues not converged
     c_bands:  1 eigenvalues not converged
     c_bands:  1 eigenvalues not converged
     c_bands:  1 eigenvalues not converged
     c_bands:  1 eigenvalues not converged
     c_bands:  2 eigenvalues not converged
     c_bands:  1 eigenvalues not converged
     ethr =  4.00E-05,  avg # of iterations =  3.3

     negative rho (up, down):  4.985E-03 4.955E-03

     total cpu time spent up to now is   109537.9 secs

     total energy              =   -5523.93966280 Ry
     estimated scf accuracy    <      21.64458928 Ry

     total magnetization       =    13.26 Bohr mag/cell
     absolute magnetization    =    14.58 Bohr mag/cell

     iteration #271     ecut=    60.00 Ry     beta= 0.50
     CG style diagonalization

---- Real-time Memory Report at c_bands before calling an iterative solver
           449 MiB given to the printing process from OS
           280 MiB allocation reported by mallinfo(arena+hblkhd)
        450579 MiB available memory on the node where the printing process lives
------------------
     c_bands:  1 eigenvalues not converged
     c_bands:  1 eigenvalues not converged
     c_bands:  1 eigenvalues not converged
     c_bands:  1 eigenvalues not converged
     c_bands:  1 eigenvalues not converged
     c_bands:  3 eigenvalues not converged
     c_bands:  1 eigenvalues not converged
     c_bands:  2 eigenvalues not converged
     c_bands:  2 eigenvalues not converged
     c_bands:  1 eigenvalues not converged
     c_bands:  3 eigenvalues not converged
     c_bands:  1 eigenvalues not converged
     c_bands:  1 eigenvalues not converged
     c_bands:  2 eigenvalues not converged
     c_bands:  1 eigenvalues not converged
     c_bands:  1 eigenvalues not converged
     c_bands:  3 eigenvalues not converged
     c_bands:  2 eigenvalues not converged
     c_bands:  1 eigenvalues not converged
     c_bands:  1 eigenvalues not converged
     ethr =  4.00E-05,  avg # of iterations =  3.4

     negative rho (up, down):  5.136E-03 5.099E-03

     total cpu time spent up to now is   109872.2 secs

     total energy              =   -5521.29441215 Ry
     estimated scf accuracy    <      18.35255596 Ry

     total magnetization       =    13.14 Bohr mag/cell
     absolute magnetization    =    14.49 Bohr mag/cell

     iteration #272     ecut=    60.00 Ry     beta= 0.50
     CG style diagonalization

---- Real-time Memory Report at c_bands before calling an iterative solver
           449 MiB given to the printing process from OS
           280 MiB allocation reported by mallinfo(arena+hblkhd)
        450585 MiB available memory on the node where the printing process lives
------------------
     c_bands:  1 eigenvalues not converged
     c_bands:  1 eigenvalues not converged
     c_bands:  1 eigenvalues not converged
     c_bands:  2 eigenvalues not converged
     c_bands:  1 eigenvalues not converged
     c_bands:  2 eigenvalues not converged
     c_bands:  2 eigenvalues not converged
     c_bands:  3 eigenvalues not converged
     c_bands:  4 eigenvalues not converged
     c_bands:  3 eigenvalues not converged
     c_bands:  3 eigenvalues not converged
     c_bands:  2 eigenvalues not converged
     c_bands:  1 eigenvalues not converged
     c_bands:  1 eigenvalues not converged
     c_bands:  2 eigenvalues not converged
     c_bands:  1 eigenvalues not converged
     c_bands:  2 eigenvalues not converged
     c_bands:  3 eigenvalues not converged
     c_bands:  2 eigenvalues not converged
     c_bands:  3 eigenvalues not converged
     c_bands:  3 eigenvalues not converged
     c_bands:  3 eigenvalues not converged
     c_bands:  4 eigenvalues not converged
     ethr =  4.00E-05,  avg # of iterations =  3.6

     negative rho (up, down):  7.217E-03 7.173E-03

     total cpu time spent up to now is   110224.9 secs

     total energy              =   -5520.24474509 Ry
     estimated scf accuracy    <      12.89542066 Ry

     total magnetization       =    13.35 Bohr mag/cell
     absolute magnetization    =    14.84 Bohr mag/cell

     iteration #273     ecut=    60.00 Ry     beta= 0.50
     CG style diagonalization

---- Real-time Memory Report at c_bands before calling an iterative solver
           449 MiB given to the printing process from OS
           280 MiB allocation reported by mallinfo(arena+hblkhd)
        450574 MiB available memory on the node where the printing process lives
------------------
     c_bands:  1 eigenvalues not converged
     c_bands:  2 eigenvalues not converged
     c_bands:  1 eigenvalues not converged
     c_bands:  1 eigenvalues not converged
     c_bands:  1 eigenvalues not converged
     c_bands:  1 eigenvalues not converged
     c_bands:  1 eigenvalues not converged
     c_bands:  1 eigenvalues not converged
     c_bands:  1 eigenvalues not converged
     c_bands:  3 eigenvalues not converged
     c_bands:  2 eigenvalues not converged
     c_bands:  1 eigenvalues not converged
     c_bands:  1 eigenvalues not converged
     c_bands:  1 eigenvalues not converged
     c_bands:  1 eigenvalues not converged
     c_bands:  2 eigenvalues not converged
     c_bands:  1 eigenvalues not converged
     c_bands:  1 eigenvalues not converged
     c_bands:  1 eigenvalues not converged
     c_bands:  3 eigenvalues not converged
     c_bands:  2 eigenvalues not converged
     ethr =  4.00E-05,  avg # of iterations =  3.3

     negative rho (up, down):  3.372E-03 3.338E-03

     total cpu time spent up to now is   110546.1 secs

     total energy              =   -5520.67455668 Ry
     estimated scf accuracy    <      14.35025304 Ry

     total magnetization       =     8.57 Bohr mag/cell
     absolute magnetization    =    10.36 Bohr mag/cell

     iteration #274     ecut=    60.00 Ry     beta= 0.50
     CG style diagonalization

---- Real-time Memory Report at c_bands before calling an iterative solver
           449 MiB given to the printing process from OS
           280 MiB allocation reported by mallinfo(arena+hblkhd)
        450586 MiB available memory on the node where the printing process lives
------------------
     c_bands:  1 eigenvalues not converged
     ethr =  4.00E-05,  avg # of iterations =  3.2

     negative rho (up, down):  3.080E-03 3.036E-03

     total cpu time spent up to now is   110848.5 secs

     total energy              =   -5521.01815402 Ry
     estimated scf accuracy    <      12.84730051 Ry

     total magnetization       =    13.33 Bohr mag/cell
     absolute magnetization    =    14.81 Bohr mag/cell

     iteration #275     ecut=    60.00 Ry     beta= 0.50
     CG style diagonalization

---- Real-time Memory Report at c_bands before calling an iterative solver
           449 MiB given to the printing process from OS
           280 MiB allocation reported by mallinfo(arena+hblkhd)
        450601 MiB available memory on the node where the printing process lives
------------------
     ethr =  4.00E-05,  avg # of iterations =  3.1

     negative rho (up, down):  3.508E-03 3.467E-03

     total cpu time spent up to now is   111132.1 secs

     total energy              =   -5520.99710749 Ry
     estimated scf accuracy    <       0.31089877 Ry

     total magnetization       =    11.10 Bohr mag/cell
     absolute magnetization    =    12.91 Bohr mag/cell

     iteration #276     ecut=    60.00 Ry     beta= 0.50
     CG style diagonalization

---- Real-time Memory Report at c_bands before calling an iterative solver
           449 MiB given to the printing process from OS
           280 MiB allocation reported by mallinfo(arena+hblkhd)
        450602 MiB available memory on the node where the printing process lives
------------------
     ethr =  4.00E-05,  avg # of iterations =  3.1

     negative rho (up, down):  2.597E-03 2.573E-03

     total cpu time spent up to now is   111414.6 secs

     total energy              =   -5520.90643887 Ry
     estimated scf accuracy    <      13.70752691 Ry

     total magnetization       =     8.51 Bohr mag/cell
     absolute magnetization    =    10.29 Bohr mag/cell

     iteration #277     ecut=    60.00 Ry     beta= 0.50
     CG style diagonalization

---- Real-time Memory Report at c_bands before calling an iterative solver
           449 MiB given to the printing process from OS
           280 MiB allocation reported by mallinfo(arena+hblkhd)
        450603 MiB available memory on the node where the printing process lives
------------------
     ethr =  4.00E-05,  avg # of iterations =  3.1

     negative rho (up, down):  1.846E-03 1.830E-03

     total cpu time spent up to now is   111696.1 secs

     total energy              =   -5521.03040133 Ry
     estimated scf accuracy    <      12.28172111 Ry

     total magnetization       =    13.33 Bohr mag/cell
     absolute magnetization    =    14.83 Bohr mag/cell

     iteration #278     ecut=    60.00 Ry     beta= 0.50
     CG style diagonalization

---- Real-time Memory Report at c_bands before calling an iterative solver
           449 MiB given to the printing process from OS
           280 MiB allocation reported by mallinfo(arena+hblkhd)
        450613 MiB available memory on the node where the printing process lives
------------------
     ethr =  4.00E-05,  avg # of iterations =  3.0

     negative rho (up, down):  2.147E-03 2.127E-03

     total cpu time spent up to now is   111971.3 secs

     total energy              =   -5521.04177871 Ry
     estimated scf accuracy    <       1.31450965 Ry

     total magnetization       =    11.55 Bohr mag/cell
     absolute magnetization    =    13.34 Bohr mag/cell

     iteration #279     ecut=    60.00 Ry     beta= 0.50
     CG style diagonalization

---- Real-time Memory Report at c_bands before calling an iterative solver
           449 MiB given to the printing process from OS
           280 MiB allocation reported by mallinfo(arena+hblkhd)
        450606 MiB available memory on the node where the printing process lives
------------------
     ethr =  4.00E-05,  avg # of iterations =  3.0

     negative rho (up, down):  1.825E-03 1.807E-03

     total cpu time spent up to now is   112247.0 secs

     total energy              =   -5521.03726552 Ry
     estimated scf accuracy    <       0.13607445 Ry

     total magnetization       =    10.72 Bohr mag/cell
     absolute magnetization    =    12.67 Bohr mag/cell

     iteration #280     ecut=    60.00 Ry     beta= 0.50
     CG style diagonalization

---- Real-time Memory Report at c_bands before calling an iterative solver
           449 MiB given to the printing process from OS
           280 MiB allocation reported by mallinfo(arena+hblkhd)
        450616 MiB available memory on the node where the printing process lives
------------------
     ethr =  4.00E-05,  avg # of iterations =  3.0

     negative rho (up, down):  1.089E-03 1.081E-03

     total cpu time spent up to now is   112523.0 secs

     total energy              =   -5520.94990372 Ry
     estimated scf accuracy    <      13.24771818 Ry

     total magnetization       =     8.51 Bohr mag/cell
     absolute magnetization    =    10.27 Bohr mag/cell

     iteration #281     ecut=    60.00 Ry     beta= 0.50
     CG style diagonalization

---- Real-time Memory Report at c_bands before calling an iterative solver
           449 MiB given to the printing process from OS
           280 MiB allocation reported by mallinfo(arena+hblkhd)
        450614 MiB available memory on the node where the printing process lives
------------------
     ethr =  4.00E-05,  avg # of iterations =  3.0

     negative rho (up, down):  1.107E-03 1.097E-03

     total cpu time spent up to now is   112800.2 secs

     total energy              =   -5521.04810321 Ry
     estimated scf accuracy    <      11.80664021 Ry

     total magnetization       =    13.29 Bohr mag/cell
     absolute magnetization    =    14.78 Bohr mag/cell

     iteration #282     ecut=    60.00 Ry     beta= 0.50
     CG style diagonalization

---- Real-time Memory Report at c_bands before calling an iterative solver
           449 MiB given to the printing process from OS
           280 MiB allocation reported by mallinfo(arena+hblkhd)
        450616 MiB available memory on the node where the printing process lives
------------------
     ethr =  4.00E-05,  avg # of iterations =  3.0

     negative rho (up, down):  1.076E-03 1.068E-03

     total cpu time spent up to now is   113076.4 secs

     total energy              =   -5521.03399696 Ry
     estimated scf accuracy    <       2.72926745 Ry

     total magnetization       =    11.97 Bohr mag/cell
     absolute magnetization    =    13.63 Bohr mag/cell

     iteration #283     ecut=    60.00 Ry     beta= 0.50
     CG style diagonalization

---- Real-time Memory Report at c_bands before calling an iterative solver
           449 MiB given to the printing process from OS
           280 MiB allocation reported by mallinfo(arena+hblkhd)
        450602 MiB available memory on the node where the printing process lives
------------------
     ethr =  4.00E-05,  avg # of iterations =  3.0

     negative rho (up, down):  1.034E-03 1.026E-03

     total cpu time spent up to now is   113351.2 secs

     total energy              =   -5521.10831205 Ry
     estimated scf accuracy    <       3.54748300 Ry

     total magnetization       =     9.67 Bohr mag/cell
     absolute magnetization    =    11.48 Bohr mag/cell

     iteration #284     ecut=    60.00 Ry     beta= 0.50
     CG style diagonalization

---- Real-time Memory Report at c_bands before calling an iterative solver
           449 MiB given to the printing process from OS
           280 MiB allocation reported by mallinfo(arena+hblkhd)
        450601 MiB available memory on the node where the printing process lives
------------------
     ethr =  4.00E-05,  avg # of iterations =  3.0

     negative rho (up, down):  6.846E-04 6.805E-04

     total cpu time spent up to now is   113629.8 secs

     total energy              =   -5521.17536391 Ry
     estimated scf accuracy    <      13.61374204 Ry

     total magnetization       =     8.46 Bohr mag/cell
     absolute magnetization    =    10.21 Bohr mag/cell

     iteration #285     ecut=    60.00 Ry     beta= 0.50
     CG style diagonalization

---- Real-time Memory Report at c_bands before calling an iterative solver
           449 MiB given to the printing process from OS
           280 MiB allocation reported by mallinfo(arena+hblkhd)
        450574 MiB available memory on the node where the printing process lives
------------------
     ethr =  4.00E-05,  avg # of iterations =  3.0

     negative rho (up, down):  3.112E-03 3.143E-03

     total cpu time spent up to now is   113906.6 secs

     total energy              =   -5522.65683946 Ry
     estimated scf accuracy    <      13.65210628 Ry

     total magnetization       =     8.46 Bohr mag/cell
     absolute magnetization    =    10.22 Bohr mag/cell

     iteration #286     ecut=    60.00 Ry     beta= 0.50
     CG style diagonalization

---- Real-time Memory Report at c_bands before calling an iterative solver
           449 MiB given to the printing process from OS
           280 MiB allocation reported by mallinfo(arena+hblkhd)
        450550 MiB available memory on the node where the printing process lives
------------------
     c_bands:  1 eigenvalues not converged
     c_bands:  1 eigenvalues not converged
     ethr =  4.00E-05,  avg # of iterations =  3.2

     negative rho (up, down):  8.572E-03 8.554E-03

     total cpu time spent up to now is   114210.5 secs

     total energy              =   -5523.38852210 Ry
     estimated scf accuracy    <      15.87745256 Ry

     total magnetization       =     8.55 Bohr mag/cell
     absolute magnetization    =    10.35 Bohr mag/cell

     iteration #287     ecut=    60.00 Ry     beta= 0.50
     CG style diagonalization

---- Real-time Memory Report at c_bands before calling an iterative solver
           449 MiB given to the printing process from OS
           280 MiB allocation reported by mallinfo(arena+hblkhd)
        450571 MiB available memory on the node where the printing process lives
------------------
     c_bands:  2 eigenvalues not converged
     c_bands:  1 eigenvalues not converged
     c_bands:  2 eigenvalues not converged
     c_bands:  1 eigenvalues not converged
     c_bands:  2 eigenvalues not converged
     c_bands:  1 eigenvalues not converged
     c_bands:  1 eigenvalues not converged
     c_bands:  1 eigenvalues not converged
     c_bands:  2 eigenvalues not converged
     c_bands:  1 eigenvalues not converged
     c_bands:  1 eigenvalues not converged
     c_bands:  1 eigenvalues not converged
     c_bands:  2 eigenvalues not converged
     c_bands:  1 eigenvalues not converged
     c_bands:  1 eigenvalues not converged
     c_bands:  1 eigenvalues not converged
     c_bands:  1 eigenvalues not converged
     ethr =  4.00E-05,  avg # of iterations =  3.2

     negative rho (up, down):  5.909E-03 5.814E-03

     total cpu time spent up to now is   114519.2 secs

     total energy              =   -5523.29830506 Ry
     estimated scf accuracy    <      16.83815529 Ry

     total magnetization       =     8.72 Bohr mag/cell
     absolute magnetization    =    10.62 Bohr mag/cell

     iteration #288     ecut=    60.00 Ry     beta= 0.50
     CG style diagonalization

---- Real-time Memory Report at c_bands before calling an iterative solver
           449 MiB given to the printing process from OS
           280 MiB allocation reported by mallinfo(arena+hblkhd)
        450567 MiB available memory on the node where the printing process lives
------------------
     ethr =  4.00E-05,  avg # of iterations =  3.0

     negative rho (up, down):  6.798E-03 6.730E-03

     total cpu time spent up to now is   114798.4 secs

     total energy              =   -5523.37057734 Ry
     estimated scf accuracy    <      16.59480729 Ry

     total magnetization       =     8.72 Bohr mag/cell
     absolute magnetization    =    10.65 Bohr mag/cell

     iteration #289     ecut=    60.00 Ry     beta= 0.50
     CG style diagonalization

---- Real-time Memory Report at c_bands before calling an iterative solver
           449 MiB given to the printing process from OS
           280 MiB allocation reported by mallinfo(arena+hblkhd)
        450565 MiB available memory on the node where the printing process lives
------------------
     ethr =  4.00E-05,  avg # of iterations =  3.0

     negative rho (up, down):  7.153E-03 7.091E-03

     total cpu time spent up to now is   115074.7 secs

     total energy              =   -5523.45858544 Ry
     estimated scf accuracy    <      16.71822241 Ry

     total magnetization       =     8.72 Bohr mag/cell
     absolute magnetization    =    10.65 Bohr mag/cell

     iteration #290     ecut=    60.00 Ry     beta= 0.50
     CG style diagonalization

---- Real-time Memory Report at c_bands before calling an iterative solver
           449 MiB given to the printing process from OS
           280 MiB allocation reported by mallinfo(arena+hblkhd)
        450564 MiB available memory on the node where the printing process lives
------------------
     c_bands:  1 eigenvalues not converged
     ethr =  4.00E-05,  avg # of iterations =  3.0

     negative rho (up, down):  7.406E-03 7.362E-03

     total cpu time spent up to now is   115353.1 secs

     total energy              =   -5523.53569471 Ry
     estimated scf accuracy    <      16.73361017 Ry

     total magnetization       =     8.73 Bohr mag/cell
     absolute magnetization    =    10.68 Bohr mag/cell

     iteration #291     ecut=    60.00 Ry     beta= 0.50
     CG style diagonalization

---- Real-time Memory Report at c_bands before calling an iterative solver
           449 MiB given to the printing process from OS
           280 MiB allocation reported by mallinfo(arena+hblkhd)
        450567 MiB available memory on the node where the printing process lives
------------------
     c_bands:  1 eigenvalues not converged
     c_bands:  1 eigenvalues not converged
     c_bands:  1 eigenvalues not converged
     c_bands:  1 eigenvalues not converged
     c_bands:  1 eigenvalues not converged
     c_bands:  1 eigenvalues not converged
     ethr =  4.00E-05,  avg # of iterations =  3.1

     negative rho (up, down):  6.038E-03 5.972E-03

     total cpu time spent up to now is   115634.9 secs

     total energy              =   -5523.61502901 Ry
     estimated scf accuracy    <      16.82556604 Ry

     total magnetization       =     8.74 Bohr mag/cell
     absolute magnetization    =    10.69 Bohr mag/cell

     iteration #292     ecut=    60.00 Ry     beta= 0.50
     CG style diagonalization

---- Real-time Memory Report at c_bands before calling an iterative solver
           449 MiB given to the printing process from OS
           280 MiB allocation reported by mallinfo(arena+hblkhd)
        450570 MiB available memory on the node where the printing process lives
------------------
     ethr =  4.00E-05,  avg # of iterations =  3.0

     negative rho (up, down):  6.735E-03 6.722E-03

     total cpu time spent up to now is   115916.2 secs

     total energy              =   -5523.64635500 Ry
     estimated scf accuracy    <      16.91083033 Ry

     total magnetization       =     8.75 Bohr mag/cell
     absolute magnetization    =    10.70 Bohr mag/cell

     iteration #293     ecut=    60.00 Ry     beta= 0.50
     CG style diagonalization

---- Real-time Memory Report at c_bands before calling an iterative solver
           449 MiB given to the printing process from OS
           280 MiB allocation reported by mallinfo(arena+hblkhd)
        450571 MiB available memory on the node where the printing process lives
------------------
     c_bands:  1 eigenvalues not converged
     c_bands:  1 eigenvalues not converged
     c_bands:  1 eigenvalues not converged
     c_bands:  1 eigenvalues not converged
     ethr =  4.00E-05,  avg # of iterations =  3.0

     negative rho (up, down):  8.288E-03 8.489E-03

     total cpu time spent up to now is   116195.4 secs

     total energy              =   -5523.57929490 Ry
     estimated scf accuracy    <      17.02992267 Ry

     total magnetization       =     8.76 Bohr mag/cell
     absolute magnetization    =    10.72 Bohr mag/cell

     iteration #294     ecut=    60.00 Ry     beta= 0.50
     CG style diagonalization

---- Real-time Memory Report at c_bands before calling an iterative solver
           449 MiB given to the printing process from OS
           280 MiB allocation reported by mallinfo(arena+hblkhd)
        450573 MiB available memory on the node where the printing process lives
------------------
     ethr =  4.00E-05,  avg # of iterations =  3.0

     negative rho (up, down):  7.148E-03 7.168E-03

     total cpu time spent up to now is   116471.9 secs

     total energy              =   -5523.65271229 Ry
     estimated scf accuracy    <      16.80825587 Ry

     total magnetization       =     8.77 Bohr mag/cell
     absolute magnetization    =    10.74 Bohr mag/cell

     iteration #295     ecut=    60.00 Ry     beta= 0.50
     CG style diagonalization

---- Real-time Memory Report at c_bands before calling an iterative solver
           449 MiB given to the printing process from OS
           280 MiB allocation reported by mallinfo(arena+hblkhd)
        450574 MiB available memory on the node where the printing process lives
------------------
     ethr =  4.00E-05,  avg # of iterations =  3.0

     negative rho (up, down):  6.765E-03 6.736E-03

     total cpu time spent up to now is   116749.3 secs

     total energy              =   -5523.66740862 Ry
     estimated scf accuracy    <      17.05669199 Ry

     total magnetization       =     8.77 Bohr mag/cell
     absolute magnetization    =    10.72 Bohr mag/cell

     iteration #296     ecut=    60.00 Ry     beta= 0.50
     CG style diagonalization

---- Real-time Memory Report at c_bands before calling an iterative solver
           449 MiB given to the printing process from OS
           280 MiB allocation reported by mallinfo(arena+hblkhd)
        450576 MiB available memory on the node where the printing process lives
------------------
     ethr =  4.00E-05,  avg # of iterations =  3.0

     negative rho (up, down):  5.966E-03 5.900E-03

     total cpu time spent up to now is   117025.3 secs

     total energy              =   -5523.79730298 Ry
     estimated scf accuracy    <      17.26504828 Ry

     total magnetization       =     8.76 Bohr mag/cell
     absolute magnetization    =    10.70 Bohr mag/cell

     iteration #297     ecut=    60.00 Ry     beta= 0.50
     CG style diagonalization

---- Real-time Memory Report at c_bands before calling an iterative solver
           449 MiB given to the printing process from OS
           280 MiB allocation reported by mallinfo(arena+hblkhd)
        450556 MiB available memory on the node where the printing process lives
------------------
     c_bands:  1 eigenvalues not converged
     ethr =  4.00E-05,  avg # of iterations =  3.1

     negative rho (up, down):  6.305E-03 6.246E-03

     total cpu time spent up to now is   117310.1 secs

     total energy              =   -5523.78209891 Ry
     estimated scf accuracy    <      35.76748990 Ry

     total magnetization       =     7.81 Bohr mag/cell
     absolute magnetization    =     9.85 Bohr mag/cell

     iteration #298     ecut=    60.00 Ry     beta= 0.50
     CG style diagonalization

---- Real-time Memory Report at c_bands before calling an iterative solver
           449 MiB given to the printing process from OS
           280 MiB allocation reported by mallinfo(arena+hblkhd)
        450552 MiB available memory on the node where the printing process lives
------------------
     ethr =  4.00E-05,  avg # of iterations =  3.0

     negative rho (up, down):  5.298E-03 5.261E-03

     total cpu time spent up to now is   117587.9 secs

     total energy              =   -5523.69988085 Ry
     estimated scf accuracy    <      30.70800532 Ry

     total magnetization       =     8.30 Bohr mag/cell
     absolute magnetization    =    10.31 Bohr mag/cell

     iteration #299     ecut=    60.00 Ry     beta= 0.50
     CG style diagonalization

---- Real-time Memory Report at c_bands before calling an iterative solver
           449 MiB given to the printing process from OS
           280 MiB allocation reported by mallinfo(arena+hblkhd)
        450572 MiB available memory on the node where the printing process lives
------------------
     ethr =  4.00E-05,  avg # of iterations =  3.0

     negative rho (up, down):  5.445E-03 5.439E-03

     total cpu time spent up to now is   117862.5 secs

     total energy              =   -5523.71162491 Ry
     estimated scf accuracy    <      18.86097385 Ry

     total magnetization       =     8.75 Bohr mag/cell
     absolute magnetization    =    10.69 Bohr mag/cell

     iteration #300     ecut=    60.00 Ry     beta= 0.50
     CG style diagonalization

---- Real-time Memory Report at c_bands before calling an iterative solver
           449 MiB given to the printing process from OS
           280 MiB allocation reported by mallinfo(arena+hblkhd)
        450585 MiB available memory on the node where the printing process lives
------------------
     ethr =  4.00E-05,  avg # of iterations =  3.0

     negative rho (up, down):  5.333E-03 5.312E-03

     total cpu time spent up to now is   118137.6 secs

     total energy              =   -5523.74105028 Ry
     estimated scf accuracy    <      19.94626881 Ry

     total magnetization       =     8.78 Bohr mag/cell
     absolute magnetization    =    10.74 Bohr mag/cell

     iteration #301     ecut=    60.00 Ry     beta= 0.50
     CG style diagonalization

---- Real-time Memory Report at c_bands before calling an iterative solver
           449 MiB given to the printing process from OS
           280 MiB allocation reported by mallinfo(arena+hblkhd)
        450590 MiB available memory on the node where the printing process lives
------------------
     ethr =  4.00E-05,  avg # of iterations =  3.0

     negative rho (up, down):  5.406E-03 5.374E-03

     total cpu time spent up to now is   118412.6 secs

     total energy              =   -5523.74447359 Ry
     estimated scf accuracy    <      24.04432136 Ry

     total magnetization       =     8.79 Bohr mag/cell
     absolute magnetization    =    10.77 Bohr mag/cell

     iteration #302     ecut=    60.00 Ry     beta= 0.50
     CG style diagonalization

---- Real-time Memory Report at c_bands before calling an iterative solver
           449 MiB given to the printing process from OS
           280 MiB allocation reported by mallinfo(arena+hblkhd)
        450599 MiB available memory on the node where the printing process lives
------------------
     ethr =  4.00E-05,  avg # of iterations =  3.0

     negative rho (up, down):  6.895E-03 6.836E-03

     total cpu time spent up to now is   118688.8 secs

     total energy              =   -5523.75113474 Ry
     estimated scf accuracy    <      24.13904690 Ry

     total magnetization       =     8.77 Bohr mag/cell
     absolute magnetization    =    10.75 Bohr mag/cell

     iteration #303     ecut=    60.00 Ry     beta= 0.50
     CG style diagonalization

---- Real-time Memory Report at c_bands before calling an iterative solver
           449 MiB given to the printing process from OS
           280 MiB allocation reported by mallinfo(arena+hblkhd)
        450595 MiB available memory on the node where the printing process lives
------------------
     ethr =  4.00E-05,  avg # of iterations =  3.0

     negative rho (up, down):  1.039E-02 1.040E-02

     total cpu time spent up to now is   118963.5 secs

     total energy              =   -5523.89788920 Ry
     estimated scf accuracy    <      25.62547060 Ry

     total magnetization       =     8.80 Bohr mag/cell
     absolute magnetization    =    10.78 Bohr mag/cell

     iteration #304     ecut=    60.00 Ry     beta= 0.50
     CG style diagonalization

---- Real-time Memory Report at c_bands before calling an iterative solver
           449 MiB given to the printing process from OS
           280 MiB allocation reported by mallinfo(arena+hblkhd)
        450592 MiB available memory on the node where the printing process lives
------------------
     c_bands:  1 eigenvalues not converged
     ethr =  4.00E-05,  avg # of iterations =  3.0

     negative rho (up, down):  6.058E-02 6.504E-02

     total cpu time spent up to now is   119246.2 secs

     total energy              =   -5521.80091933 Ry
     estimated scf accuracy    <      42.51532383 Ry

     total magnetization       =     7.05 Bohr mag/cell
     absolute magnetization    =     9.14 Bohr mag/cell

     iteration #305     ecut=    60.00 Ry     beta= 0.50
     CG style diagonalization

---- Real-time Memory Report at c_bands before calling an iterative solver
           449 MiB given to the printing process from OS
           280 MiB allocation reported by mallinfo(arena+hblkhd)
        450596 MiB available memory on the node where the printing process lives
------------------
     c_bands:  1 eigenvalues not converged
     c_bands:  1 eigenvalues not converged
     c_bands:  1 eigenvalues not converged
     c_bands:  1 eigenvalues not converged
     c_bands:  3 eigenvalues not converged
     c_bands:  1 eigenvalues not converged
     c_bands:  2 eigenvalues not converged
     c_bands:  1 eigenvalues not converged
     c_bands:  1 eigenvalues not converged
     c_bands:  1 eigenvalues not converged
     c_bands:  2 eigenvalues not converged
     c_bands:  1 eigenvalues not converged
     c_bands:  1 eigenvalues not converged
     c_bands:  2 eigenvalues not converged
     c_bands:  1 eigenvalues not converged
     c_bands:  1 eigenvalues not converged
     c_bands:  1 eigenvalues not converged
     c_bands:  1 eigenvalues not converged
     c_bands:  2 eigenvalues not converged
     ethr =  4.00E-05,  avg # of iterations =  3.4

     negative rho (up, down):  4.015E-02 4.077E-02

     total cpu time spent up to now is   119573.0 secs

     total energy              =   -5522.10022594 Ry
     estimated scf accuracy    <      15.62906124 Ry

     total magnetization       =     8.84 Bohr mag/cell
     absolute magnetization    =    10.96 Bohr mag/cell

     iteration #306     ecut=    60.00 Ry     beta= 0.50
     CG style diagonalization

---- Real-time Memory Report at c_bands before calling an iterative solver
           449 MiB given to the printing process from OS
           280 MiB allocation reported by mallinfo(arena+hblkhd)
        450607 MiB available memory on the node where the printing process lives
------------------
     c_bands:  1 eigenvalues not converged
     c_bands:  1 eigenvalues not converged
     ethr =  4.00E-05,  avg # of iterations =  3.1

     negative rho (up, down):  3.483E-02 3.687E-02

     total cpu time spent up to now is   119864.1 secs

     total energy              =   -5522.07407756 Ry
     estimated scf accuracy    <      14.96415963 Ry

     total magnetization       =     8.86 Bohr mag/cell
     absolute magnetization    =    10.94 Bohr mag/cell

     iteration #307     ecut=    60.00 Ry     beta= 0.50
     CG style diagonalization

---- Real-time Memory Report at c_bands before calling an iterative solver
           449 MiB given to the printing process from OS
           280 MiB allocation reported by mallinfo(arena+hblkhd)
        450610 MiB available memory on the node where the printing process lives
------------------
     ethr =  4.00E-05,  avg # of iterations =  3.0

     negative rho (up, down):  2.797E-02 2.878E-02

     total cpu time spent up to now is   120142.3 secs

     total energy              =   -5522.18082886 Ry
     estimated scf accuracy    <      14.77494870 Ry

     total magnetization       =     8.83 Bohr mag/cell
     absolute magnetization    =    10.90 Bohr mag/cell

     iteration #308     ecut=    60.00 Ry     beta= 0.50
     CG style diagonalization

---- Real-time Memory Report at c_bands before calling an iterative solver
           449 MiB given to the printing process from OS
           280 MiB allocation reported by mallinfo(arena+hblkhd)
        450615 MiB available memory on the node where the printing process lives
------------------
     ethr =  4.00E-05,  avg # of iterations =  3.0

     negative rho (up, down):  2.210E-02 2.198E-02

     total cpu time spent up to now is   120421.3 secs

     total energy              =   -5521.79456230 Ry
     estimated scf accuracy    <      15.01387652 Ry

     total magnetization       =     8.84 Bohr mag/cell
     absolute magnetization    =    10.90 Bohr mag/cell

     iteration #309     ecut=    60.00 Ry     beta= 0.50
     CG style diagonalization

---- Real-time Memory Report at c_bands before calling an iterative solver
           449 MiB given to the printing process from OS
           280 MiB allocation reported by mallinfo(arena+hblkhd)
        450611 MiB available memory on the node where the printing process lives
------------------
     ethr =  4.00E-05,  avg # of iterations =  3.1

     negative rho (up, down):  2.225E-02 2.199E-02

     total cpu time spent up to now is   120702.4 secs

     total energy              =   -5521.60915246 Ry
     estimated scf accuracy    <      14.58208198 Ry

     total magnetization       =     8.84 Bohr mag/cell
     absolute magnetization    =    10.89 Bohr mag/cell

     iteration #310     ecut=    60.00 Ry     beta= 0.50
     CG style diagonalization

---- Real-time Memory Report at c_bands before calling an iterative solver
           449 MiB given to the printing process from OS
           280 MiB allocation reported by mallinfo(arena+hblkhd)
        450608 MiB available memory on the node where the printing process lives
------------------
     c_bands:  1 eigenvalues not converged
     ethr =  4.00E-05,  avg # of iterations =  3.0

     negative rho (up, down):  2.212E-02 2.210E-02

     total cpu time spent up to now is   120983.8 secs

     total energy              =   -5521.71117265 Ry
     estimated scf accuracy    <      14.27003653 Ry

     total magnetization       =     8.84 Bohr mag/cell
     absolute magnetization    =    10.91 Bohr mag/cell

     iteration #311     ecut=    60.00 Ry     beta= 0.50
     CG style diagonalization

---- Real-time Memory Report at c_bands before calling an iterative solver
           449 MiB given to the printing process from OS
           280 MiB allocation reported by mallinfo(arena+hblkhd)
        450608 MiB available memory on the node where the printing process lives
------------------
     ethr =  4.00E-05,  avg # of iterations =  3.0

     negative rho (up, down):  2.539E-02 2.586E-02

     total cpu time spent up to now is   121260.9 secs

     total energy              =   -5521.75976008 Ry
     estimated scf accuracy    <      14.42278751 Ry

     total magnetization       =     8.84 Bohr mag/cell
     absolute magnetization    =    10.89 Bohr mag/cell

     iteration #312     ecut=    60.00 Ry     beta= 0.50
     CG style diagonalization

---- Real-time Memory Report at c_bands before calling an iterative solver
           449 MiB given to the printing process from OS
           280 MiB allocation reported by mallinfo(arena+hblkhd)
        450599 MiB available memory on the node where the printing process lives
------------------
     ethr =  4.00E-05,  avg # of iterations =  3.0

     negative rho (up, down):  2.608E-02 2.637E-02

     total cpu time spent up to now is   121536.4 secs

     total energy              =   -5521.68001779 Ry
     estimated scf accuracy    <      14.39134981 Ry

     total magnetization       =     8.83 Bohr mag/cell
     absolute magnetization    =    10.90 Bohr mag/cell

     iteration #313     ecut=    60.00 Ry     beta= 0.50
     CG style diagonalization

---- Real-time Memory Report at c_bands before calling an iterative solver
           449 MiB given to the printing process from OS
           280 MiB allocation reported by mallinfo(arena+hblkhd)
        450602 MiB available memory on the node where the printing process lives
------------------
     ethr =  4.00E-05,  avg # of iterations =  3.0

     negative rho (up, down):  2.504E-02 2.524E-02

     total cpu time spent up to now is   121811.9 secs

     total energy              =   -5521.80917297 Ry
     estimated scf accuracy    <      14.28340737 Ry

     total magnetization       =     8.84 Bohr mag/cell
     absolute magnetization    =    10.92 Bohr mag/cell

     iteration #314     ecut=    60.00 Ry     beta= 0.50
     CG style diagonalization

---- Real-time Memory Report at c_bands before calling an iterative solver
           449 MiB given to the printing process from OS
           280 MiB allocation reported by mallinfo(arena+hblkhd)
        450603 MiB available memory on the node where the printing process lives
------------------
     ethr =  4.00E-05,  avg # of iterations =  3.0

     negative rho (up, down):  2.480E-02 2.491E-02

     total cpu time spent up to now is   122087.9 secs

     total energy              =   -5521.76987866 Ry
     estimated scf accuracy    <      14.49279528 Ry

     total magnetization       =     8.84 Bohr mag/cell
     absolute magnetization    =    10.91 Bohr mag/cell

     iteration #315     ecut=    60.00 Ry     beta= 0.50
     CG style diagonalization

---- Real-time Memory Report at c_bands before calling an iterative solver
           449 MiB given to the printing process from OS
           280 MiB allocation reported by mallinfo(arena+hblkhd)
        450616 MiB available memory on the node where the printing process lives
------------------
     ethr =  4.00E-05,  avg # of iterations =  3.0

     negative rho (up, down):  2.919E-02 2.939E-02

     total cpu time spent up to now is   122363.5 secs

     total energy              =   -5521.68822901 Ry
     estimated scf accuracy    <      14.41842738 Ry

     total magnetization       =     8.84 Bohr mag/cell
     absolute magnetization    =    10.91 Bohr mag/cell

     iteration #316     ecut=    60.00 Ry     beta= 0.50
     CG style diagonalization

---- Real-time Memory Report at c_bands before calling an iterative solver
           449 MiB given to the printing process from OS
           280 MiB allocation reported by mallinfo(arena+hblkhd)
        450615 MiB available memory on the node where the printing process lives
------------------
     c_bands:  1 eigenvalues not converged
     ethr =  4.00E-05,  avg # of iterations =  3.0

     negative rho (up, down):  1.854E-02 1.872E-02

     total cpu time spent up to now is   122639.4 secs

     total energy              =   -5521.71289679 Ry
     estimated scf accuracy    <      14.33266984 Ry

     total magnetization       =     8.85 Bohr mag/cell
     absolute magnetization    =    10.93 Bohr mag/cell

     iteration #317     ecut=    60.00 Ry     beta= 0.50
     CG style diagonalization

---- Real-time Memory Report at c_bands before calling an iterative solver
           449 MiB given to the printing process from OS
           280 MiB allocation reported by mallinfo(arena+hblkhd)
        450617 MiB available memory on the node where the printing process lives
------------------
     ethr =  4.00E-05,  avg # of iterations =  3.0

     negative rho (up, down):  2.125E-02 2.192E-02

     total cpu time spent up to now is   122915.3 secs

     total energy              =   -5521.99250546 Ry
     estimated scf accuracy    <      14.36162969 Ry

     total magnetization       =     8.85 Bohr mag/cell
     absolute magnetization    =    10.92 Bohr mag/cell

     iteration #318     ecut=    60.00 Ry     beta= 0.50
     CG style diagonalization

---- Real-time Memory Report at c_bands before calling an iterative solver
           449 MiB given to the printing process from OS
           280 MiB allocation reported by mallinfo(arena+hblkhd)
        450616 MiB available memory on the node where the printing process lives
------------------
     ethr =  4.00E-05,  avg # of iterations =  3.0

     negative rho (up, down):  2.090E-02 2.121E-02

     total cpu time spent up to now is   123200.0 secs

     total energy              =   -5522.63229696 Ry
     estimated scf accuracy    <      14.71174181 Ry

     total magnetization       =     8.85 Bohr mag/cell
     absolute magnetization    =    10.91 Bohr mag/cell

     iteration #319     ecut=    60.00 Ry     beta= 0.50
     CG style diagonalization

---- Real-time Memory Report at c_bands before calling an iterative solver
           449 MiB given to the printing process from OS
           280 MiB allocation reported by mallinfo(arena+hblkhd)
        450616 MiB available memory on the node where the printing process lives
------------------
     ethr =  4.00E-05,  avg # of iterations =  3.1

     negative rho (up, down):  2.401E-02 2.465E-02

     total cpu time spent up to now is   123492.0 secs

     total energy              =   -5522.13905900 Ry
     estimated scf accuracy    <      16.00716183 Ry

     total magnetization       =     8.81 Bohr mag/cell
     absolute magnetization    =    10.83 Bohr mag/cell

     iteration #320     ecut=    60.00 Ry     beta= 0.50
     CG style diagonalization

---- Real-time Memory Report at c_bands before calling an iterative solver
           449 MiB given to the printing process from OS
           280 MiB allocation reported by mallinfo(arena+hblkhd)
        450609 MiB available memory on the node where the printing process lives
------------------
     ethr =  4.00E-05,  avg # of iterations =  3.1

     negative rho (up, down):  3.130E-02 3.095E-02

     total cpu time spent up to now is   123779.9 secs

     total energy              =   -5522.24888868 Ry
     estimated scf accuracy    <      14.95181554 Ry

     total magnetization       =     8.81 Bohr mag/cell
     absolute magnetization    =    10.85 Bohr mag/cell

     iteration #321     ecut=    60.00 Ry     beta= 0.50
     CG style diagonalization

---- Real-time Memory Report at c_bands before calling an iterative solver
           449 MiB given to the printing process from OS
           280 MiB allocation reported by mallinfo(arena+hblkhd)
        450596 MiB available memory on the node where the printing process lives
------------------
     ethr =  4.00E-05,  avg # of iterations =  3.0

     negative rho (up, down):  2.002E-02 2.113E-02

     total cpu time spent up to now is   124060.6 secs

     total energy              =   -5521.40579425 Ry
     estimated scf accuracy    <      15.22035250 Ry

     total magnetization       =     8.81 Bohr mag/cell
     absolute magnetization    =    10.86 Bohr mag/cell

     iteration #322     ecut=    60.00 Ry     beta= 0.50
     CG style diagonalization

---- Real-time Memory Report at c_bands before calling an iterative solver
           449 MiB given to the printing process from OS
           280 MiB allocation reported by mallinfo(arena+hblkhd)
        450584 MiB available memory on the node where the printing process lives
------------------
     c_bands:  1 eigenvalues not converged
     c_bands:  1 eigenvalues not converged
     c_bands:  1 eigenvalues not converged
     c_bands:  2 eigenvalues not converged
     ethr =  4.00E-05,  avg # of iterations =  3.2

     negative rho (up, down):  2.244E-02 2.343E-02

     total cpu time spent up to now is   124364.5 secs

     total energy              =   -5521.39779634 Ry
     estimated scf accuracy    <      13.77004555 Ry

     total magnetization       =     8.88 Bohr mag/cell
     absolute magnetization    =    10.96 Bohr mag/cell

     iteration #323     ecut=    60.00 Ry     beta= 0.50
     CG style diagonalization

---- Real-time Memory Report at c_bands before calling an iterative solver
           449 MiB given to the printing process from OS
           280 MiB allocation reported by mallinfo(arena+hblkhd)
        450565 MiB available memory on the node where the printing process lives
------------------
     ethr =  4.00E-05,  avg # of iterations =  3.0

     negative rho (up, down):  2.680E-02 2.574E-02

     total cpu time spent up to now is   124642.5 secs

     total energy              =   -5518.52327441 Ry
     estimated scf accuracy    <      13.71707926 Ry

     total magnetization       =     8.86 Bohr mag/cell
     absolute magnetization    =    10.94 Bohr mag/cell

     iteration #324     ecut=    60.00 Ry     beta= 0.50
     CG style diagonalization

---- Real-time Memory Report at c_bands before calling an iterative solver
           449 MiB given to the printing process from OS
           280 MiB allocation reported by mallinfo(arena+hblkhd)
        450590 MiB available memory on the node where the printing process lives
------------------
     c_bands:  3 eigenvalues not converged
     c_bands:  1 eigenvalues not converged
     c_bands:  1 eigenvalues not converged
     c_bands:  1 eigenvalues not converged
     c_bands:  1 eigenvalues not converged
     ethr =  4.00E-05,  avg # of iterations =  8.1

     negative rho (up, down):  3.148E-02 2.936E-02

     total cpu time spent up to now is   125459.7 secs

     total energy              =   -5527.81994587 Ry
     estimated scf accuracy    <      47.78027470 Ry

     total magnetization       =    16.77 Bohr mag/cell
     absolute magnetization    =    18.42 Bohr mag/cell

     iteration #325     ecut=    60.00 Ry     beta= 0.50
     CG style diagonalization

---- Real-time Memory Report at c_bands before calling an iterative solver
           449 MiB given to the printing process from OS
           280 MiB allocation reported by mallinfo(arena+hblkhd)
        450600 MiB available memory on the node where the printing process lives
------------------
     c_bands:  2 eigenvalues not converged
     c_bands:  2 eigenvalues not converged
     c_bands:  1 eigenvalues not converged
     c_bands:  1 eigenvalues not converged
     c_bands:  3 eigenvalues not converged
     c_bands:  1 eigenvalues not converged
     c_bands:  1 eigenvalues not converged
     c_bands:  3 eigenvalues not converged
     c_bands:  2 eigenvalues not converged
     c_bands:  3 eigenvalues not converged
     c_bands:  2 eigenvalues not converged
     c_bands:  2 eigenvalues not converged
     c_bands:  1 eigenvalues not converged
     c_bands:  2 eigenvalues not converged
     c_bands:  1 eigenvalues not converged
     c_bands:  1 eigenvalues not converged
     c_bands:  3 eigenvalues not converged
     ethr =  4.00E-05,  avg # of iterations =  7.9

     negative rho (up, down):  3.369E-02 3.076E-02

     total cpu time spent up to now is   126270.6 secs

     total energy              =   -5528.98065558 Ry
     estimated scf accuracy    <     357.52435221 Ry

     total magnetization       =    23.11 Bohr mag/cell
     absolute magnetization    =    24.18 Bohr mag/cell

     iteration #326     ecut=    60.00 Ry     beta= 0.50
     CG style diagonalization

---- Real-time Memory Report at c_bands before calling an iterative solver
           449 MiB given to the printing process from OS
           280 MiB allocation reported by mallinfo(arena+hblkhd)
        450607 MiB available memory on the node where the printing process lives
------------------
     c_bands:  1 eigenvalues not converged
     c_bands:  1 eigenvalues not converged
     c_bands:  1 eigenvalues not converged
     c_bands:  1 eigenvalues not converged
     c_bands:  1 eigenvalues not converged
     ethr =  4.00E-05,  avg # of iterations =  3.3

     negative rho (up, down):  8.693E-02 9.850E-02

     total cpu time spent up to now is   126590.2 secs

     total energy              =   -5535.32124064 Ry
     estimated scf accuracy    <     299.42986875 Ry

     total magnetization       =    23.02 Bohr mag/cell
     absolute magnetization    =    24.17 Bohr mag/cell

     iteration #327     ecut=    60.00 Ry     beta= 0.50
     CG style diagonalization

---- Real-time Memory Report at c_bands before calling an iterative solver
           449 MiB given to the printing process from OS
           280 MiB allocation reported by mallinfo(arena+hblkhd)
        450611 MiB available memory on the node where the printing process lives
------------------
     c_bands:  1 eigenvalues not converged
     c_bands:  2 eigenvalues not converged
     c_bands:  5 eigenvalues not converged
     c_bands:  4 eigenvalues not converged
     c_bands:  1 eigenvalues not converged
     c_bands:  3 eigenvalues not converged
     c_bands:  1 eigenvalues not converged
     c_bands:  1 eigenvalues not converged
     c_bands:  2 eigenvalues not converged
     c_bands:  4 eigenvalues not converged
     c_bands:  1 eigenvalues not converged
     c_bands:  1 eigenvalues not converged
     c_bands:  1 eigenvalues not converged
     c_bands:  1 eigenvalues not converged
     c_bands:  1 eigenvalues not converged
     c_bands:  2 eigenvalues not converged
     c_bands:  1 eigenvalues not converged
     c_bands:  1 eigenvalues not converged
     c_bands:  1 eigenvalues not converged
     c_bands:  4 eigenvalues not converged
     c_bands:  5 eigenvalues not converged
     c_bands:  1 eigenvalues not converged
     c_bands:  3 eigenvalues not converged
     c_bands:  1 eigenvalues not converged
     c_bands:  1 eigenvalues not converged
     ethr =  4.00E-05,  avg # of iterations = 10.0

     negative rho (up, down):  8.929E-02 1.034E-01

     total cpu time spent up to now is   127619.4 secs

     total energy              =   -5517.11329420 Ry
     estimated scf accuracy    <    1530.14097014 Ry

     total magnetization       =    22.22 Bohr mag/cell
     absolute magnetization    =    23.12 Bohr mag/cell

     iteration #328     ecut=    60.00 Ry     beta= 0.50
     CG style diagonalization

---- Real-time Memory Report at c_bands before calling an iterative solver
           449 MiB given to the printing process from OS
           280 MiB allocation reported by mallinfo(arena+hblkhd)
        450598 MiB available memory on the node where the printing process lives
------------------
     c_bands:  1 eigenvalues not converged
     c_bands:  2 eigenvalues not converged
     c_bands:  1 eigenvalues not converged
     ethr =  4.00E-05,  avg # of iterations =  8.7

     negative rho (up, down):  9.708E-02 1.179E-01

     total cpu time spent up to now is   128513.2 secs

     total energy              =   -5525.87482720 Ry
     estimated scf accuracy    <     147.15677966 Ry

     total magnetization       =    21.24 Bohr mag/cell
     absolute magnetization    =    22.75 Bohr mag/cell

     iteration #329     ecut=    60.00 Ry     beta= 0.50
     CG style diagonalization

---- Real-time Memory Report at c_bands before calling an iterative solver
           449 MiB given to the printing process from OS
           280 MiB allocation reported by mallinfo(arena+hblkhd)
        450592 MiB available memory on the node where the printing process lives
------------------
     c_bands:  1 eigenvalues not converged
     c_bands:  1 eigenvalues not converged
     ethr =  4.00E-05,  avg # of iterations =  3.2

     negative rho (up, down):  7.366E-02 8.621E-02

     total cpu time spent up to now is   128815.3 secs

     total energy              =   -5524.37983029 Ry
     estimated scf accuracy    <     201.33497341 Ry

     total magnetization       =    22.91 Bohr mag/cell
     absolute magnetization    =    24.28 Bohr mag/cell

     iteration #330     ecut=    60.00 Ry     beta= 0.50
     CG style diagonalization

---- Real-time Memory Report at c_bands before calling an iterative solver
           449 MiB given to the printing process from OS
           280 MiB allocation reported by mallinfo(arena+hblkhd)
        450597 MiB available memory on the node where the printing process lives
------------------
     c_bands:  1 eigenvalues not converged
     c_bands:  1 eigenvalues not converged
     c_bands:  1 eigenvalues not converged
     c_bands:  1 eigenvalues not converged
     c_bands:  1 eigenvalues not converged
     c_bands:  1 eigenvalues not converged
     c_bands:  1 eigenvalues not converged
     c_bands:  1 eigenvalues not converged
     ethr =  4.00E-05,  avg # of iterations =  3.3

     negative rho (up, down):  9.106E-02 1.021E-01

     total cpu time spent up to now is   129131.2 secs

     total energy              =   -5524.34776669 Ry
     estimated scf accuracy    <     106.51432489 Ry

     total magnetization       =    19.55 Bohr mag/cell
     absolute magnetization    =    21.20 Bohr mag/cell

     iteration #331     ecut=    60.00 Ry     beta= 0.50
     CG style diagonalization

---- Real-time Memory Report at c_bands before calling an iterative solver
           449 MiB given to the printing process from OS
           280 MiB allocation reported by mallinfo(arena+hblkhd)
        450607 MiB available memory on the node where the printing process lives
------------------
     ethr =  4.00E-05,  avg # of iterations =  3.1

     negative rho (up, down):  1.606E-01 1.134E-01

     total cpu time spent up to now is   129417.3 secs

     total energy              =   -5519.25358613 Ry
     estimated scf accuracy    <      98.36401094 Ry

     total magnetization       =    19.26 Bohr mag/cell
     absolute magnetization    =    20.92 Bohr mag/cell

     iteration #332     ecut=    60.00 Ry     beta= 0.50
     CG style diagonalization

---- Real-time Memory Report at c_bands before calling an iterative solver
           449 MiB given to the printing process from OS
           280 MiB allocation reported by mallinfo(arena+hblkhd)
        450593 MiB available memory on the node where the printing process lives
------------------
     c_bands:  5 eigenvalues not converged
     c_bands:  3 eigenvalues not converged
     c_bands:  1 eigenvalues not converged
     c_bands:  4 eigenvalues not converged
     c_bands:  4 eigenvalues not converged
     c_bands:  5 eigenvalues not converged
     c_bands:  3 eigenvalues not converged
     c_bands:  1 eigenvalues not converged
     c_bands:  3 eigenvalues not converged
     c_bands:  5 eigenvalues not converged
     c_bands:  5 eigenvalues not converged
     c_bands:  1 eigenvalues not converged
     c_bands:  5 eigenvalues not converged
     c_bands:  2 eigenvalues not converged
     c_bands:  2 eigenvalues not converged
     ethr =  4.00E-05,  avg # of iterations =  6.1

     negative rho (up, down):  1.765E-01 1.322E-01

     total cpu time spent up to now is   130025.6 secs

     total energy              =   -5520.19577363 Ry
     estimated scf accuracy    <      11.47011329 Ry

     total magnetization       =    13.81 Bohr mag/cell
     absolute magnetization    =    15.72 Bohr mag/cell

     iteration #333     ecut=    60.00 Ry     beta= 0.50
     CG style diagonalization

---- Real-time Memory Report at c_bands before calling an iterative solver
           449 MiB given to the printing process from OS
           280 MiB allocation reported by mallinfo(arena+hblkhd)
        450599 MiB available memory on the node where the printing process lives
------------------
     c_bands:  1 eigenvalues not converged
     c_bands:  1 eigenvalues not converged
     c_bands:  1 eigenvalues not converged
     c_bands:  2 eigenvalues not converged
     c_bands:  1 eigenvalues not converged
     c_bands:  1 eigenvalues not converged
     c_bands:  3 eigenvalues not converged
     c_bands:  2 eigenvalues not converged
     c_bands:  2 eigenvalues not converged
     c_bands:  2 eigenvalues not converged
     c_bands:  5 eigenvalues not converged
     c_bands:  1 eigenvalues not converged
     c_bands:  2 eigenvalues not converged
     c_bands:  1 eigenvalues not converged
     c_bands:  2 eigenvalues not converged
     c_bands:  1 eigenvalues not converged
     c_bands:  1 eigenvalues not converged
     c_bands:  2 eigenvalues not converged
     c_bands:  5 eigenvalues not converged
     c_bands:  2 eigenvalues not converged
     c_bands:  1 eigenvalues not converged
     ethr =  4.00E-05,  avg # of iterations =  3.7

     negative rho (up, down):  2.721E-01 2.181E-01

     total cpu time spent up to now is   130386.6 secs

     total energy              =   -5521.53659314 Ry
     estimated scf accuracy    <      14.65056315 Ry

     total magnetization       =     8.89 Bohr mag/cell
     absolute magnetization    =    11.08 Bohr mag/cell

     iteration #334     ecut=    60.00 Ry     beta= 0.50
     CG style diagonalization

---- Real-time Memory Report at c_bands before calling an iterative solver
           449 MiB given to the printing process from OS
           280 MiB allocation reported by mallinfo(arena+hblkhd)
        450604 MiB available memory on the node where the printing process lives
------------------
     c_bands:  2 eigenvalues not converged
     c_bands:  1 eigenvalues not converged
     c_bands:  4 eigenvalues not converged
     c_bands:  2 eigenvalues not converged
     c_bands:  1 eigenvalues not converged
     c_bands:  1 eigenvalues not converged
     c_bands:  2 eigenvalues not converged
     c_bands:  1 eigenvalues not converged
     c_bands:  1 eigenvalues not converged
     c_bands:  1 eigenvalues not converged
     ethr =  4.00E-05,  avg # of iterations =  3.4

     negative rho (up, down):  2.976E-01 2.392E-01

     total cpu time spent up to now is   130716.3 secs

     total energy              =   -5521.86811526 Ry
     estimated scf accuracy    <      13.42095888 Ry

     total magnetization       =     8.95 Bohr mag/cell
     absolute magnetization    =    11.24 Bohr mag/cell

     iteration #335     ecut=    60.00 Ry     beta= 0.50
     CG style diagonalization

---- Real-time Memory Report at c_bands before calling an iterative solver
           449 MiB given to the printing process from OS
           280 MiB allocation reported by mallinfo(arena+hblkhd)
        450602 MiB available memory on the node where the printing process lives
------------------
     c_bands:  1 eigenvalues not converged
     ethr =  4.00E-05,  avg # of iterations =  3.1

     negative rho (up, down):  2.524E-01 2.004E-01

     total cpu time spent up to now is   131006.0 secs

     total energy              =   -5521.66875484 Ry
     estimated scf accuracy    <      13.90684655 Ry

     total magnetization       =     8.92 Bohr mag/cell
     absolute magnetization    =    11.20 Bohr mag/cell

     iteration #336     ecut=    60.00 Ry     beta= 0.50
     CG style diagonalization

---- Real-time Memory Report at c_bands before calling an iterative solver
           449 MiB given to the printing process from OS
           280 MiB allocation reported by mallinfo(arena+hblkhd)
        450604 MiB available memory on the node where the printing process lives
------------------
     ethr =  4.00E-05,  avg # of iterations =  3.1

     negative rho (up, down):  1.901E-01 1.408E-01

     total cpu time spent up to now is   131291.0 secs

     total energy              =   -5522.00200489 Ry
     estimated scf accuracy    <      13.57899325 Ry

     total magnetization       =     8.95 Bohr mag/cell
     absolute magnetization    =    11.24 Bohr mag/cell

     iteration #337     ecut=    60.00 Ry     beta= 0.50
     CG style diagonalization

---- Real-time Memory Report at c_bands before calling an iterative solver
           449 MiB given to the printing process from OS
           280 MiB allocation reported by mallinfo(arena+hblkhd)
        450600 MiB available memory on the node where the printing process lives
------------------
     c_bands:  1 eigenvalues not converged
     c_bands:  2 eigenvalues not converged
     c_bands:  1 eigenvalues not converged
     c_bands:  2 eigenvalues not converged
     c_bands:  1 eigenvalues not converged
     ethr =  4.00E-05,  avg # of iterations =  3.3

     negative rho (up, down):  1.661E-01 1.235E-01

     total cpu time spent up to now is   131603.6 secs

     total energy              =   -5521.63232685 Ry
     estimated scf accuracy    <      14.35252541 Ry

     total magnetization       =     8.92 Bohr mag/cell
     absolute magnetization    =    11.19 Bohr mag/cell

     iteration #338     ecut=    60.00 Ry     beta= 0.50
     CG style diagonalization

---- Real-time Memory Report at c_bands before calling an iterative solver
           449 MiB given to the printing process from OS
           280 MiB allocation reported by mallinfo(arena+hblkhd)
        450566 MiB available memory on the node where the printing process lives
------------------
     ethr =  4.00E-05,  avg # of iterations =  3.1

     negative rho (up, down):  1.142E-01 9.060E-02

     total cpu time spent up to now is   131891.3 secs

     total energy              =   -5521.23759301 Ry
     estimated scf accuracy    <      13.86693066 Ry

     total magnetization       =     8.96 Bohr mag/cell
     absolute magnetization    =    11.26 Bohr mag/cell

     iteration #339     ecut=    60.00 Ry     beta= 0.50
     CG style diagonalization

---- Real-time Memory Report at c_bands before calling an iterative solver
           449 MiB given to the printing process from OS
           280 MiB allocation reported by mallinfo(arena+hblkhd)
        450583 MiB available memory on the node where the printing process lives
------------------
     ethr =  4.00E-05,  avg # of iterations =  3.1

     negative rho (up, down):  1.498E-01 1.146E-01

     total cpu time spent up to now is   132178.8 secs

     total energy              =   -5521.73612955 Ry
     estimated scf accuracy    <      13.43081374 Ry

     total magnetization       =     9.03 Bohr mag/cell
     absolute magnetization    =    11.35 Bohr mag/cell

     iteration #340     ecut=    60.00 Ry     beta= 0.50
     CG style diagonalization

---- Real-time Memory Report at c_bands before calling an iterative solver
           449 MiB given to the printing process from OS
           280 MiB allocation reported by mallinfo(arena+hblkhd)
        450590 MiB available memory on the node where the printing process lives
------------------
     ethr =  4.00E-05,  avg # of iterations =  3.1

     negative rho (up, down):  7.125E-02 6.089E-02

     total cpu time spent up to now is   132466.7 secs

     total energy              =   -5520.84023994 Ry
     estimated scf accuracy    <      14.18510114 Ry

     total magnetization       =     8.97 Bohr mag/cell
     absolute magnetization    =    11.26 Bohr mag/cell

     iteration #341     ecut=    60.00 Ry     beta= 0.50
     CG style diagonalization

---- Real-time Memory Report at c_bands before calling an iterative solver
           449 MiB given to the printing process from OS
           280 MiB allocation reported by mallinfo(arena+hblkhd)
        450595 MiB available memory on the node where the printing process lives
------------------
     ethr =  4.00E-05,  avg # of iterations =  3.2

     negative rho (up, down):  2.153E-01 1.888E-01

     total cpu time spent up to now is   132769.3 secs

     total energy              =   -5519.73223924 Ry
     estimated scf accuracy    <      11.03523195 Ry

     total magnetization       =    13.97 Bohr mag/cell
     absolute magnetization    =    15.96 Bohr mag/cell

     iteration #342     ecut=    60.00 Ry     beta= 0.50
     CG style diagonalization

---- Real-time Memory Report at c_bands before calling an iterative solver
           449 MiB given to the printing process from OS
           280 MiB allocation reported by mallinfo(arena+hblkhd)
        450600 MiB available memory on the node where the printing process lives
------------------
     c_bands:  1 eigenvalues not converged
     c_bands:  1 eigenvalues not converged
     c_bands:  1 eigenvalues not converged
     c_bands:  1 eigenvalues not converged
     c_bands:  2 eigenvalues not converged
     c_bands:  1 eigenvalues not converged
     c_bands:  1 eigenvalues not converged
     c_bands:  1 eigenvalues not converged
     c_bands:  1 eigenvalues not converged
     c_bands:  1 eigenvalues not converged
     ethr =  4.00E-05,  avg # of iterations =  3.4

     negative rho (up, down):  1.460E-01 1.541E-01

     total cpu time spent up to now is   133097.5 secs

     total energy              =   -5522.67337386 Ry
     estimated scf accuracy    <      15.38853702 Ry

     total magnetization       =     8.98 Bohr mag/cell
     absolute magnetization    =    11.26 Bohr mag/cell

     iteration #343     ecut=    60.00 Ry     beta= 0.50
     CG style diagonalization

---- Real-time Memory Report at c_bands before calling an iterative solver
           449 MiB given to the printing process from OS
           280 MiB allocation reported by mallinfo(arena+hblkhd)
        450592 MiB available memory on the node where the printing process lives
------------------
     c_bands:  1 eigenvalues not converged
     c_bands:  1 eigenvalues not converged
     c_bands:  1 eigenvalues not converged
     c_bands:  1 eigenvalues not converged
     c_bands:  1 eigenvalues not converged
     c_bands:  1 eigenvalues not converged
     ethr =  4.00E-05,  avg # of iterations =  3.2

     negative rho (up, down):  1.326E-01 1.469E-01

     total cpu time spent up to now is   133398.0 secs

     total energy              =   -5522.70852391 Ry
     estimated scf accuracy    <      15.52174305 Ry

     total magnetization       =     9.16 Bohr mag/cell
     absolute magnetization    =    11.48 Bohr mag/cell

     iteration #344     ecut=    60.00 Ry     beta= 0.50
     CG style diagonalization

---- Real-time Memory Report at c_bands before calling an iterative solver
           449 MiB given to the printing process from OS
           280 MiB allocation reported by mallinfo(arena+hblkhd)
        450607 MiB available memory on the node where the printing process lives
------------------
     ethr =  4.00E-05,  avg # of iterations =  3.0

     negative rho (up, down):  1.008E-01 1.248E-01

     total cpu time spent up to now is   133677.3 secs

     total energy              =   -5522.96772637 Ry
     estimated scf accuracy    <      15.43986566 Ry

     total magnetization       =     9.25 Bohr mag/cell
     absolute magnetization    =    11.62 Bohr mag/cell

     iteration #345     ecut=    60.00 Ry     beta= 0.50
     CG style diagonalization

---- Real-time Memory Report at c_bands before calling an iterative solver
           449 MiB given to the printing process from OS
           280 MiB allocation reported by mallinfo(arena+hblkhd)
        450609 MiB available memory on the node where the printing process lives
------------------
     c_bands:  1 eigenvalues not converged
     c_bands:  1 eigenvalues not converged
     c_bands:  1 eigenvalues not converged
     c_bands:  1 eigenvalues not converged
     c_bands:  1 eigenvalues not converged
     c_bands:  1 eigenvalues not converged
     c_bands:  2 eigenvalues not converged
     c_bands:  1 eigenvalues not converged
     ethr =  4.00E-05,  avg # of iterations =  3.2

     negative rho (up, down):  1.028E-01 1.282E-01

     total cpu time spent up to now is   133980.1 secs

     total energy              =   -5523.29311669 Ry
     estimated scf accuracy    <      15.90084873 Ry

     total magnetization       =     9.46 Bohr mag/cell
     absolute magnetization    =    11.91 Bohr mag/cell

     iteration #346     ecut=    60.00 Ry     beta= 0.50
     CG style diagonalization

---- Real-time Memory Report at c_bands before calling an iterative solver
           449 MiB given to the printing process from OS
           280 MiB allocation reported by mallinfo(arena+hblkhd)
        450608 MiB available memory on the node where the printing process lives
------------------
     c_bands:  1 eigenvalues not converged
     c_bands:  1 eigenvalues not converged
     c_bands:  1 eigenvalues not converged
     c_bands:  1 eigenvalues not converged
     c_bands:  2 eigenvalues not converged
     c_bands:  1 eigenvalues not converged
     c_bands:  1 eigenvalues not converged
     c_bands:  1 eigenvalues not converged
     c_bands:  1 eigenvalues not converged
     c_bands:  1 eigenvalues not converged
     ethr =  4.00E-05,  avg # of iterations =  3.2

     negative rho (up, down):  1.105E-01 1.256E-01

     total cpu time spent up to now is   134282.9 secs

     total energy              =   -5522.47405785 Ry
     estimated scf accuracy    <      16.46589570 Ry

     total magnetization       =     9.54 Bohr mag/cell
     absolute magnetization    =    12.03 Bohr mag/cell

     iteration #347     ecut=    60.00 Ry     beta= 0.50
     CG style diagonalization

---- Real-time Memory Report at c_bands before calling an iterative solver
           449 MiB given to the printing process from OS
           280 MiB allocation reported by mallinfo(arena+hblkhd)
        450610 MiB available memory on the node where the printing process lives
------------------
     c_bands:  1 eigenvalues not converged
     c_bands:  1 eigenvalues not converged
     c_bands:  2 eigenvalues not converged
     c_bands:  1 eigenvalues not converged
     c_bands:  2 eigenvalues not converged
     c_bands:  1 eigenvalues not converged
     c_bands:  1 eigenvalues not converged
     c_bands:  1 eigenvalues not converged
     ethr =  4.00E-05,  avg # of iterations =  3.3

     negative rho (up, down):  3.754E-02 3.645E-02

     total cpu time spent up to now is   134605.0 secs

     total energy              =   -5520.61458084 Ry
     estimated scf accuracy    <      15.02974854 Ry

     total magnetization       =     9.11 Bohr mag/cell
     absolute magnetization    =    11.44 Bohr mag/cell

     iteration #348     ecut=    60.00 Ry     beta= 0.50
     CG style diagonalization

---- Real-time Memory Report at c_bands before calling an iterative solver
           449 MiB given to the printing process from OS
           280 MiB allocation reported by mallinfo(arena+hblkhd)
        450614 MiB available memory on the node where the printing process lives
------------------
     c_bands:  1 eigenvalues not converged
     c_bands:  1 eigenvalues not converged
     c_bands:  1 eigenvalues not converged
     c_bands:  2 eigenvalues not converged
     c_bands:  1 eigenvalues not converged
     c_bands:  1 eigenvalues not converged
     c_bands:  1 eigenvalues not converged
     c_bands:  2 eigenvalues not converged
     c_bands:  2 eigenvalues not converged
     c_bands:  2 eigenvalues not converged
     c_bands:  1 eigenvalues not converged
     c_bands:  1 eigenvalues not converged
     c_bands:  1 eigenvalues not converged
     c_bands:  2 eigenvalues not converged
     c_bands:  3 eigenvalues not converged
     c_bands:  4 eigenvalues not converged
     c_bands:  2 eigenvalues not converged
     c_bands:  4 eigenvalues not converged
     c_bands:  5 eigenvalues not converged
     ethr =  4.00E-05,  avg # of iterations =  3.8

     negative rho (up, down):  4.140E-02 4.034E-02

     total cpu time spent up to now is   134983.6 secs

     total energy              =   -5520.81494500 Ry
     estimated scf accuracy    <      11.83076208 Ry

     total magnetization       =    13.76 Bohr mag/cell
     absolute magnetization    =    15.59 Bohr mag/cell

     iteration #349     ecut=    60.00 Ry     beta= 0.50
     CG style diagonalization

---- Real-time Memory Report at c_bands before calling an iterative solver
           449 MiB given to the printing process from OS
           280 MiB allocation reported by mallinfo(arena+hblkhd)
        450610 MiB available memory on the node where the printing process lives
------------------
     c_bands:  1 eigenvalues not converged
     ethr =  4.00E-05,  avg # of iterations =  3.1

     negative rho (up, down):  3.579E-02 3.449E-02

     total cpu time spent up to now is   135278.5 secs

     total energy              =   -5521.01528999 Ry
     estimated scf accuracy    <      13.30627759 Ry

     total magnetization       =     8.84 Bohr mag/cell
     absolute magnetization    =    10.96 Bohr mag/cell

     iteration #350     ecut=    60.00 Ry     beta= 0.50
     CG style diagonalization

---- Real-time Memory Report at c_bands before calling an iterative solver
           449 MiB given to the printing process from OS
           280 MiB allocation reported by mallinfo(arena+hblkhd)
        450574 MiB available memory on the node where the printing process lives
------------------
     ethr =  4.00E-05,  avg # of iterations =  3.1

     negative rho (up, down):  3.708E-02 3.518E-02

     total cpu time spent up to now is   135563.9 secs

     total energy              =   -5520.92427667 Ry
     estimated scf accuracy    <      10.84848248 Ry

     total magnetization       =     9.12 Bohr mag/cell
     absolute magnetization    =    11.18 Bohr mag/cell

     iteration #351     ecut=    60.00 Ry     beta= 0.50
     CG style diagonalization

---- Real-time Memory Report at c_bands before calling an iterative solver
           449 MiB given to the printing process from OS
           280 MiB allocation reported by mallinfo(arena+hblkhd)
        450576 MiB available memory on the node where the printing process lives
------------------
     ethr =  4.00E-05,  avg # of iterations =  3.0

     negative rho (up, down):  9.072E-02 7.951E-02

     total cpu time spent up to now is   135841.9 secs

     total energy              =   -5519.92485873 Ry
     estimated scf accuracy    <       6.83177104 Ry

     total magnetization       =    13.23 Bohr mag/cell
     absolute magnetization    =    15.05 Bohr mag/cell

     iteration #352     ecut=    60.00 Ry     beta= 0.50
     CG style diagonalization

---- Real-time Memory Report at c_bands before calling an iterative solver
           449 MiB given to the printing process from OS
           280 MiB allocation reported by mallinfo(arena+hblkhd)
        450590 MiB available memory on the node where the printing process lives
------------------
     c_bands:  1 eigenvalues not converged
     c_bands:  1 eigenvalues not converged
     c_bands:  1 eigenvalues not converged
     c_bands:  1 eigenvalues not converged
     c_bands:  1 eigenvalues not converged
     c_bands:  1 eigenvalues not converged
     c_bands:  1 eigenvalues not converged
     c_bands:  2 eigenvalues not converged
     c_bands:  1 eigenvalues not converged
     c_bands:  1 eigenvalues not converged
     ethr =  4.00E-05,  avg # of iterations =  3.3

     negative rho (up, down):  3.081E-02 2.847E-02

     total cpu time spent up to now is   136164.2 secs

     total energy              =   -5520.27177704 Ry
     estimated scf accuracy    <      15.54973769 Ry

     total magnetization       =     8.75 Bohr mag/cell
     absolute magnetization    =    10.75 Bohr mag/cell

     iteration #353     ecut=    60.00 Ry     beta= 0.50
     CG style diagonalization

---- Real-time Memory Report at c_bands before calling an iterative solver
           449 MiB given to the printing process from OS
           280 MiB allocation reported by mallinfo(arena+hblkhd)
        450588 MiB available memory on the node where the printing process lives
------------------
     c_bands:  1 eigenvalues not converged
     c_bands:  1 eigenvalues not converged
     c_bands:  1 eigenvalues not converged
     c_bands:  2 eigenvalues not converged
     c_bands:  2 eigenvalues not converged
     c_bands:  2 eigenvalues not converged
     c_bands:  3 eigenvalues not converged
     c_bands:  2 eigenvalues not converged
     c_bands:  2 eigenvalues not converged
     c_bands:  1 eigenvalues not converged
     c_bands:  2 eigenvalues not converged
     c_bands:  1 eigenvalues not converged
     c_bands:  2 eigenvalues not converged
     c_bands:  1 eigenvalues not converged
     c_bands:  4 eigenvalues not converged
     c_bands:  2 eigenvalues not converged
     ethr =  4.00E-05,  avg # of iterations =  3.7

     negative rho (up, down):  2.696E-02 2.671E-02

     total cpu time spent up to now is   136529.5 secs

     total energy              =   -5521.73324272 Ry
     estimated scf accuracy    <      12.38057657 Ry

     total magnetization       =    13.70 Bohr mag/cell
     absolute magnetization    =    15.44 Bohr mag/cell

     iteration #354     ecut=    60.00 Ry     beta= 0.50
     CG style diagonalization

---- Real-time Memory Report at c_bands before calling an iterative solver
           449 MiB given to the printing process from OS
           280 MiB allocation reported by mallinfo(arena+hblkhd)
        450582 MiB available memory on the node where the printing process lives
------------------
     c_bands:  1 eigenvalues not converged
     c_bands:  1 eigenvalues not converged
     c_bands:  1 eigenvalues not converged
     c_bands:  1 eigenvalues not converged
     c_bands:  2 eigenvalues not converged
     c_bands:  1 eigenvalues not converged
     c_bands:  1 eigenvalues not converged
     ethr =  4.00E-05,  avg # of iterations =  3.2

     negative rho (up, down):  1.494E-02 1.186E-02

     total cpu time spent up to now is   136832.7 secs

     total energy              =   -5521.33520876 Ry
     estimated scf accuracy    <      12.76216911 Ry

     total magnetization       =    13.76 Bohr mag/cell
     absolute magnetization    =    15.53 Bohr mag/cell

     iteration #355     ecut=    60.00 Ry     beta= 0.50
     CG style diagonalization

---- Real-time Memory Report at c_bands before calling an iterative solver
           449 MiB given to the printing process from OS
           280 MiB allocation reported by mallinfo(arena+hblkhd)
        450590 MiB available memory on the node where the printing process lives
------------------
     c_bands:  1 eigenvalues not converged
     c_bands:  1 eigenvalues not converged
     ethr =  4.00E-05,  avg # of iterations =  3.2

     negative rho (up, down):  9.935E-03 8.956E-03

     total cpu time spent up to now is   137133.4 secs

     total energy              =   -5521.56619915 Ry
     estimated scf accuracy    <      11.86984052 Ry

     total magnetization       =    13.72 Bohr mag/cell
     absolute magnetization    =    15.47 Bohr mag/cell

     iteration #356     ecut=    60.00 Ry     beta= 0.50
     CG style diagonalization

---- Real-time Memory Report at c_bands before calling an iterative solver
           449 MiB given to the printing process from OS
           280 MiB allocation reported by mallinfo(arena+hblkhd)
        450592 MiB available memory on the node where the printing process lives
------------------
     c_bands:  1 eigenvalues not converged
     c_bands:  1 eigenvalues not converged
     ethr =  4.00E-05,  avg # of iterations =  3.1

     negative rho (up, down):  6.755E-03 5.854E-03

     total cpu time spent up to now is   137424.5 secs

     total energy              =   -5521.72190126 Ry
     estimated scf accuracy    <      12.52925961 Ry

     total magnetization       =    13.72 Bohr mag/cell
     absolute magnetization    =    15.50 Bohr mag/cell

     iteration #357     ecut=    60.00 Ry     beta= 0.50
     CG style diagonalization

---- Real-time Memory Report at c_bands before calling an iterative solver
           449 MiB given to the printing process from OS
           280 MiB allocation reported by mallinfo(arena+hblkhd)
        450596 MiB available memory on the node where the printing process lives
------------------
     c_bands:  1 eigenvalues not converged
     ethr =  4.00E-05,  avg # of iterations =  3.1

     negative rho (up, down):  6.456E-03 5.504E-03

     total cpu time spent up to now is   137717.1 secs

     total energy              =   -5521.76252455 Ry
     estimated scf accuracy    <      12.85418387 Ry

     total magnetization       =    13.74 Bohr mag/cell
     absolute magnetization    =    15.53 Bohr mag/cell

     iteration #358     ecut=    60.00 Ry     beta= 0.50
     CG style diagonalization

---- Real-time Memory Report at c_bands before calling an iterative solver
           449 MiB given to the printing process from OS
           280 MiB allocation reported by mallinfo(arena+hblkhd)
        450595 MiB available memory on the node where the printing process lives
------------------
     ethr =  4.00E-05,  avg # of iterations =  3.0

     negative rho (up, down):  7.217E-03 5.613E-03

     total cpu time spent up to now is   137994.4 secs

     total energy              =   -5521.77448922 Ry
     estimated scf accuracy    <      12.94795787 Ry

     total magnetization       =    13.74 Bohr mag/cell
     absolute magnetization    =    15.53 Bohr mag/cell

     iteration #359     ecut=    60.00 Ry     beta= 0.50
     CG style diagonalization

---- Real-time Memory Report at c_bands before calling an iterative solver
           449 MiB given to the printing process from OS
           280 MiB allocation reported by mallinfo(arena+hblkhd)
        450596 MiB available memory on the node where the printing process lives
------------------
     ethr =  4.00E-05,  avg # of iterations =  3.0

     negative rho (up, down):  5.632E-03 4.873E-03

     total cpu time spent up to now is   138272.1 secs

     total energy              =   -5521.67874004 Ry
     estimated scf accuracy    <      13.00992608 Ry

     total magnetization       =    13.74 Bohr mag/cell
     absolute magnetization    =    15.54 Bohr mag/cell

     iteration #360     ecut=    60.00 Ry     beta= 0.50
     CG style diagonalization

---- Real-time Memory Report at c_bands before calling an iterative solver
           449 MiB given to the printing process from OS
           280 MiB allocation reported by mallinfo(arena+hblkhd)
        450598 MiB available memory on the node where the printing process lives
------------------
     ethr =  4.00E-05,  avg # of iterations =  3.0

     negative rho (up, down):  6.270E-03 5.465E-03

     total cpu time spent up to now is   138547.7 secs

     total energy              =   -5521.66734833 Ry
     estimated scf accuracy    <      12.73197905 Ry

     total magnetization       =    13.73 Bohr mag/cell
     absolute magnetization    =    15.51 Bohr mag/cell

     iteration #361     ecut=    60.00 Ry     beta= 0.50
     CG style diagonalization

---- Real-time Memory Report at c_bands before calling an iterative solver
           449 MiB given to the printing process from OS
           280 MiB allocation reported by mallinfo(arena+hblkhd)
        450602 MiB available memory on the node where the printing process lives
------------------
     ethr =  4.00E-05,  avg # of iterations =  3.0

     negative rho (up, down):  6.671E-03 5.785E-03

     total cpu time spent up to now is   138824.0 secs

     total energy              =   -5521.69152534 Ry
     estimated scf accuracy    <      12.69015309 Ry

     total magnetization       =    13.73 Bohr mag/cell
     absolute magnetization    =    15.51 Bohr mag/cell

     iteration #362     ecut=    60.00 Ry     beta= 0.50
     CG style diagonalization

---- Real-time Memory Report at c_bands before calling an iterative solver
           449 MiB given to the printing process from OS
           280 MiB allocation reported by mallinfo(arena+hblkhd)
        450590 MiB available memory on the node where the printing process lives
------------------
     ethr =  4.00E-05,  avg # of iterations =  3.0

     negative rho (up, down):  6.686E-03 6.028E-03

     total cpu time spent up to now is   139098.4 secs

     total energy              =   -5521.61662594 Ry
     estimated scf accuracy    <      12.74634189 Ry

     total magnetization       =    13.73 Bohr mag/cell
     absolute magnetization    =    15.51 Bohr mag/cell

     iteration #363     ecut=    60.00 Ry     beta= 0.50
     CG style diagonalization

---- Real-time Memory Report at c_bands before calling an iterative solver
           449 MiB given to the printing process from OS
           280 MiB allocation reported by mallinfo(arena+hblkhd)
        450588 MiB available memory on the node where the printing process lives
------------------
     ethr =  4.00E-05,  avg # of iterations =  3.0

     negative rho (up, down):  6.790E-03 6.094E-03

     total cpu time spent up to now is   139374.2 secs

     total energy              =   -5521.63032092 Ry
     estimated scf accuracy    <      12.55430124 Ry

     total magnetization       =    13.73 Bohr mag/cell
     absolute magnetization    =    15.51 Bohr mag/cell

     iteration #364     ecut=    60.00 Ry     beta= 0.50
     CG style diagonalization

---- Real-time Memory Report at c_bands before calling an iterative solver
           449 MiB given to the printing process from OS
           280 MiB allocation reported by mallinfo(arena+hblkhd)
        450585 MiB available memory on the node where the printing process lives
------------------
     ethr =  4.00E-05,  avg # of iterations =  3.0

     negative rho (up, down):  7.057E-03 6.401E-03

     total cpu time spent up to now is   139649.3 secs

     total energy              =   -5521.55059125 Ry
     estimated scf accuracy    <      12.58191774 Ry

     total magnetization       =    13.73 Bohr mag/cell
     absolute magnetization    =    15.51 Bohr mag/cell

     iteration #365     ecut=    60.00 Ry     beta= 0.50
     CG style diagonalization

---- Real-time Memory Report at c_bands before calling an iterative solver
           449 MiB given to the printing process from OS
           280 MiB allocation reported by mallinfo(arena+hblkhd)
        450587 MiB available memory on the node where the printing process lives
------------------
     ethr =  4.00E-05,  avg # of iterations =  3.0

     negative rho (up, down):  8.552E-03 7.933E-03

     total cpu time spent up to now is   139925.8 secs

     total energy              =   -5521.44267174 Ry
     estimated scf accuracy    <      12.41282249 Ry

     total magnetization       =    13.72 Bohr mag/cell
     absolute magnetization    =    15.50 Bohr mag/cell

     iteration #366     ecut=    60.00 Ry     beta= 0.50
     CG style diagonalization

---- Real-time Memory Report at c_bands before calling an iterative solver
           449 MiB given to the printing process from OS
           280 MiB allocation reported by mallinfo(arena+hblkhd)
        450593 MiB available memory on the node where the printing process lives
------------------
     ethr =  4.00E-05,  avg # of iterations =  3.1

     negative rho (up, down):  8.690E-03 8.290E-03

     total cpu time spent up to now is   140210.3 secs

     total energy              =   -5521.37948250 Ry
     estimated scf accuracy    <      12.12376832 Ry

     total magnetization       =    13.71 Bohr mag/cell
     absolute magnetization    =    15.49 Bohr mag/cell

     iteration #367     ecut=    60.00 Ry     beta= 0.50
     CG style diagonalization

---- Real-time Memory Report at c_bands before calling an iterative solver
           449 MiB given to the printing process from OS
           280 MiB allocation reported by mallinfo(arena+hblkhd)
        450599 MiB available memory on the node where the printing process lives
------------------
     ethr =  4.00E-05,  avg # of iterations =  3.0

     negative rho (up, down):  8.977E-03 7.947E-03

     total cpu time spent up to now is   140489.9 secs

     total energy              =   -5521.44177301 Ry
     estimated scf accuracy    <      11.95408181 Ry

     total magnetization       =    13.71 Bohr mag/cell
     absolute magnetization    =    15.48 Bohr mag/cell

     iteration #368     ecut=    60.00 Ry     beta= 0.50
     CG style diagonalization

---- Real-time Memory Report at c_bands before calling an iterative solver
           449 MiB given to the printing process from OS
           280 MiB allocation reported by mallinfo(arena+hblkhd)
        450595 MiB available memory on the node where the printing process lives
------------------
     ethr =  4.00E-05,  avg # of iterations =  3.0

     negative rho (up, down):  8.865E-03 7.970E-03

     total cpu time spent up to now is   140765.2 secs

     total energy              =   -5521.45122857 Ry
     estimated scf accuracy    <      12.07466178 Ry

     total magnetization       =    13.71 Bohr mag/cell
     absolute magnetization    =    15.48 Bohr mag/cell

     iteration #369     ecut=    60.00 Ry     beta= 0.50
     CG style diagonalization

---- Real-time Memory Report at c_bands before calling an iterative solver
           449 MiB given to the printing process from OS
           280 MiB allocation reported by mallinfo(arena+hblkhd)
        450599 MiB available memory on the node where the printing process lives
------------------
     ethr =  4.00E-05,  avg # of iterations =  3.0

     negative rho (up, down):  7.421E-03 7.446E-03

     total cpu time spent up to now is   141055.4 secs

     total energy              =   -5521.44988152 Ry
     estimated scf accuracy    <      12.09656768 Ry

     total magnetization       =    13.71 Bohr mag/cell
     absolute magnetization    =    15.49 Bohr mag/cell

     iteration #370     ecut=    60.00 Ry     beta= 0.50
     CG style diagonalization

---- Real-time Memory Report at c_bands before calling an iterative solver
           449 MiB given to the printing process from OS
           280 MiB allocation reported by mallinfo(arena+hblkhd)
        450585 MiB available memory on the node where the printing process lives
------------------
     ethr =  4.00E-05,  avg # of iterations =  3.0

     negative rho (up, down):  4.870E-03 4.016E-03

     total cpu time spent up to now is   141331.2 secs

     total energy              =   -5521.57181571 Ry
     estimated scf accuracy    <      12.13107314 Ry

     total magnetization       =    13.71 Bohr mag/cell
     absolute magnetization    =    15.48 Bohr mag/cell

     iteration #371     ecut=    60.00 Ry     beta= 0.50
     CG style diagonalization

---- Real-time Memory Report at c_bands before calling an iterative solver
           449 MiB given to the printing process from OS
           280 MiB allocation reported by mallinfo(arena+hblkhd)
        450594 MiB available memory on the node where the printing process lives
------------------
     ethr =  4.00E-05,  avg # of iterations =  3.0

     negative rho (up, down):  1.662E-02 2.130E-02

     total cpu time spent up to now is   141611.4 secs

     total energy              =   -5520.99062624 Ry
     estimated scf accuracy    <      12.42308677 Ry

     total magnetization       =    13.73 Bohr mag/cell
     absolute magnetization    =    15.49 Bohr mag/cell

     iteration #372     ecut=    60.00 Ry     beta= 0.50
     CG style diagonalization

---- Real-time Memory Report at c_bands before calling an iterative solver
           449 MiB given to the printing process from OS
           280 MiB allocation reported by mallinfo(arena+hblkhd)
        450589 MiB available memory on the node where the printing process lives
------------------
     ethr =  4.00E-05,  avg # of iterations =  3.2

     negative rho (up, down):  1.788E-02 2.162E-02

     total cpu time spent up to now is   141919.2 secs

     total energy              =   -5520.98713685 Ry
     estimated scf accuracy    <       5.21384779 Ry

     total magnetization       =    13.05 Bohr mag/cell
     absolute magnetization    =    15.00 Bohr mag/cell

     iteration #373     ecut=    60.00 Ry     beta= 0.50
     CG style diagonalization

---- Real-time Memory Report at c_bands before calling an iterative solver
           449 MiB given to the printing process from OS
           280 MiB allocation reported by mallinfo(arena+hblkhd)
        450595 MiB available memory on the node where the printing process lives
------------------
     c_bands:  1 eigenvalues not converged
     ethr =  4.00E-05,  avg # of iterations =  3.1

     negative rho (up, down):  1.363E-02 1.502E-02

     total cpu time spent up to now is   142210.6 secs

     total energy              =   -5521.05113708 Ry
     estimated scf accuracy    <       0.18981230 Ry

     total magnetization       =    11.98 Bohr mag/cell
     absolute magnetization    =    14.04 Bohr mag/cell

     iteration #374     ecut=    60.00 Ry     beta= 0.50
     CG style diagonalization

---- Real-time Memory Report at c_bands before calling an iterative solver
           449 MiB given to the printing process from OS
           280 MiB allocation reported by mallinfo(arena+hblkhd)
        450585 MiB available memory on the node where the printing process lives
------------------
     ethr =  4.00E-05,  avg # of iterations =  3.2

     negative rho (up, down):  9.560E-03 7.299E-03

     total cpu time spent up to now is   142517.6 secs

     total energy              =   -5521.49792002 Ry
     estimated scf accuracy    <      12.42664207 Ry

     total magnetization       =    13.70 Bohr mag/cell
     absolute magnetization    =    15.51 Bohr mag/cell

     iteration #375     ecut=    60.00 Ry     beta= 0.50
     CG style diagonalization

---- Real-time Memory Report at c_bands before calling an iterative solver
           449 MiB given to the printing process from OS
           280 MiB allocation reported by mallinfo(arena+hblkhd)
        450589 MiB available memory on the node where the printing process lives
------------------
     ethr =  4.00E-05,  avg # of iterations =  3.1

     negative rho (up, down):  9.760E-03 9.184E-03

     total cpu time spent up to now is   142805.7 secs

     total energy              =   -5521.27301066 Ry
     estimated scf accuracy    <      12.30519749 Ry

     total magnetization       =    13.72 Bohr mag/cell
     absolute magnetization    =    15.58 Bohr mag/cell

     iteration #376     ecut=    60.00 Ry     beta= 0.50
     CG style diagonalization

---- Real-time Memory Report at c_bands before calling an iterative solver
           449 MiB given to the printing process from OS
           280 MiB allocation reported by mallinfo(arena+hblkhd)
        450583 MiB available memory on the node where the printing process lives
------------------
     ethr =  4.00E-05,  avg # of iterations =  3.1

     negative rho (up, down):  1.184E-02 1.129E-02

     total cpu time spent up to now is   143095.2 secs

     total energy              =   -5521.18992660 Ry
     estimated scf accuracy    <      11.77519035 Ry

     total magnetization       =    13.71 Bohr mag/cell
     absolute magnetization    =    15.58 Bohr mag/cell

     iteration #377     ecut=    60.00 Ry     beta= 0.50
     CG style diagonalization

---- Real-time Memory Report at c_bands before calling an iterative solver
           449 MiB given to the printing process from OS
           280 MiB allocation reported by mallinfo(arena+hblkhd)
        450595 MiB available memory on the node where the printing process lives
------------------
     ethr =  4.00E-05,  avg # of iterations =  3.0

     negative rho (up, down):  9.772E-03 9.192E-03

     total cpu time spent up to now is   143377.2 secs

     total energy              =   -5521.23145341 Ry
     estimated scf accuracy    <      11.71234164 Ry

     total magnetization       =    13.69 Bohr mag/cell
     absolute magnetization    =    15.58 Bohr mag/cell

     iteration #378     ecut=    60.00 Ry     beta= 0.50
     CG style diagonalization

---- Real-time Memory Report at c_bands before calling an iterative solver
           449 MiB given to the printing process from OS
           280 MiB allocation reported by mallinfo(arena+hblkhd)
        450597 MiB available memory on the node where the printing process lives
------------------
     ethr =  4.00E-05,  avg # of iterations =  3.0

     negative rho (up, down):  9.468E-03 8.979E-03

     total cpu time spent up to now is   143654.0 secs

     total energy              =   -5521.23878494 Ry
     estimated scf accuracy    <      11.77866052 Ry

     total magnetization       =    13.70 Bohr mag/cell
     absolute magnetization    =    15.59 Bohr mag/cell

     iteration #379     ecut=    60.00 Ry     beta= 0.50
     CG style diagonalization

---- Real-time Memory Report at c_bands before calling an iterative solver
           449 MiB given to the printing process from OS
           280 MiB allocation reported by mallinfo(arena+hblkhd)
        450593 MiB available memory on the node where the printing process lives
------------------
     ethr =  4.00E-05,  avg # of iterations =  3.0

     negative rho (up, down):  1.081E-02 1.034E-02

     total cpu time spent up to now is   143928.8 secs

     total energy              =   -5521.24005623 Ry
     estimated scf accuracy    <      11.78930489 Ry

     total magnetization       =    13.70 Bohr mag/cell
     absolute magnetization    =    15.59 Bohr mag/cell

     iteration #380     ecut=    60.00 Ry     beta= 0.50
     CG style diagonalization

---- Real-time Memory Report at c_bands before calling an iterative solver
           449 MiB given to the printing process from OS
           280 MiB allocation reported by mallinfo(arena+hblkhd)
        450597 MiB available memory on the node where the printing process lives
------------------
     ethr =  4.00E-05,  avg # of iterations =  3.0

     negative rho (up, down):  1.094E-02 1.080E-02

     total cpu time spent up to now is   144204.2 secs

     total energy              =   -5521.18660840 Ry
     estimated scf accuracy    <      11.81603734 Ry

     total magnetization       =    13.71 Bohr mag/cell
     absolute magnetization    =    15.60 Bohr mag/cell

     iteration #381     ecut=    60.00 Ry     beta= 0.50
     CG style diagonalization

---- Real-time Memory Report at c_bands before calling an iterative solver
           449 MiB given to the printing process from OS
           280 MiB allocation reported by mallinfo(arena+hblkhd)
        450601 MiB available memory on the node where the printing process lives
------------------
     ethr =  4.00E-05,  avg # of iterations =  3.0

     negative rho (up, down):  1.118E-02 1.139E-02

     total cpu time spent up to now is   144479.6 secs

     total energy              =   -5521.13861592 Ry
     estimated scf accuracy    <      11.67552266 Ry

     total magnetization       =    13.71 Bohr mag/cell
     absolute magnetization    =    15.59 Bohr mag/cell

     iteration #382     ecut=    60.00 Ry     beta= 0.50
     CG style diagonalization

---- Real-time Memory Report at c_bands before calling an iterative solver
           449 MiB given to the printing process from OS
           280 MiB allocation reported by mallinfo(arena+hblkhd)
        450602 MiB available memory on the node where the printing process lives
------------------
     ethr =  4.00E-05,  avg # of iterations =  3.0

     negative rho (up, down):  1.185E-02 1.199E-02

     total cpu time spent up to now is   144755.3 secs

     total energy              =   -5521.15044004 Ry
     estimated scf accuracy    <      11.38430137 Ry

     total magnetization       =    13.71 Bohr mag/cell
     absolute magnetization    =    15.58 Bohr mag/cell

     iteration #383     ecut=    60.00 Ry     beta= 0.50
     CG style diagonalization

---- Real-time Memory Report at c_bands before calling an iterative solver
           449 MiB given to the printing process from OS
           280 MiB allocation reported by mallinfo(arena+hblkhd)
        450609 MiB available memory on the node where the printing process lives
------------------
     ethr =  4.00E-05,  avg # of iterations =  3.0

     negative rho (up, down):  1.160E-02 1.169E-02

     total cpu time spent up to now is   145030.2 secs

     total energy              =   -5521.19275367 Ry
     estimated scf accuracy    <      11.50333070 Ry

     total magnetization       =    13.71 Bohr mag/cell
     absolute magnetization    =    15.58 Bohr mag/cell

     iteration #384     ecut=    60.00 Ry     beta= 0.50
     CG style diagonalization

---- Real-time Memory Report at c_bands before calling an iterative solver
           449 MiB given to the printing process from OS
           280 MiB allocation reported by mallinfo(arena+hblkhd)
        450607 MiB available memory on the node where the printing process lives
------------------
     ethr =  4.00E-05,  avg # of iterations =  3.0

     negative rho (up, down):  1.176E-02 1.177E-02

     total cpu time spent up to now is   145305.0 secs

     total energy              =   -5521.20952556 Ry
     estimated scf accuracy    <      11.62990398 Ry

     total magnetization       =    13.70 Bohr mag/cell
     absolute magnetization    =    15.57 Bohr mag/cell

     iteration #385     ecut=    60.00 Ry     beta= 0.50
     CG style diagonalization

---- Real-time Memory Report at c_bands before calling an iterative solver
           449 MiB given to the printing process from OS
           280 MiB allocation reported by mallinfo(arena+hblkhd)
        450607 MiB available memory on the node where the printing process lives
------------------
     ethr =  4.00E-05,  avg # of iterations =  3.0

     negative rho (up, down):  9.905E-03 9.669E-03

     total cpu time spent up to now is   145581.1 secs

     total energy              =   -5521.09946892 Ry
     estimated scf accuracy    <      11.65172542 Ry

     total magnetization       =    13.70 Bohr mag/cell
     absolute magnetization    =    15.57 Bohr mag/cell

     iteration #386     ecut=    60.00 Ry     beta= 0.50
     CG style diagonalization

---- Real-time Memory Report at c_bands before calling an iterative solver
           449 MiB given to the printing process from OS
           280 MiB allocation reported by mallinfo(arena+hblkhd)
        450607 MiB available memory on the node where the printing process lives
------------------
     ethr =  4.00E-05,  avg # of iterations =  3.0

     negative rho (up, down):  1.355E-02 1.325E-02

     total cpu time spent up to now is   145859.3 secs

     total energy              =   -5521.11487141 Ry
     estimated scf accuracy    <       9.70170782 Ry

     total magnetization       =    13.72 Bohr mag/cell
     absolute magnetization    =    15.52 Bohr mag/cell

     iteration #387     ecut=    60.00 Ry     beta= 0.50
     CG style diagonalization

---- Real-time Memory Report at c_bands before calling an iterative solver
           449 MiB given to the printing process from OS
           280 MiB allocation reported by mallinfo(arena+hblkhd)
        450585 MiB available memory on the node where the printing process lives
------------------
     ethr =  4.00E-05,  avg # of iterations =  3.0

     negative rho (up, down):  1.750E-02 1.660E-02

     total cpu time spent up to now is   146137.7 secs

     total energy              =   -5521.06241038 Ry
     estimated scf accuracy    <      10.91292494 Ry

     total magnetization       =    13.69 Bohr mag/cell
     absolute magnetization    =    15.53 Bohr mag/cell

     iteration #388     ecut=    60.00 Ry     beta= 0.50
     CG style diagonalization

---- Real-time Memory Report at c_bands before calling an iterative solver
           449 MiB given to the printing process from OS
           280 MiB allocation reported by mallinfo(arena+hblkhd)
        450561 MiB available memory on the node where the printing process lives
------------------
     ethr =  4.00E-05,  avg # of iterations =  3.0

     negative rho (up, down):  1.675E-02 1.606E-02

     total cpu time spent up to now is   146416.3 secs

     total energy              =   -5520.98554729 Ry
     estimated scf accuracy    <       3.21310634 Ry

     total magnetization       =    13.90 Bohr mag/cell
     absolute magnetization    =    15.71 Bohr mag/cell

     iteration #389     ecut=    60.00 Ry     beta= 0.50
     CG style diagonalization

---- Real-time Memory Report at c_bands before calling an iterative solver
           449 MiB given to the printing process from OS
           280 MiB allocation reported by mallinfo(arena+hblkhd)
        450564 MiB available memory on the node where the printing process lives
------------------
     ethr =  4.00E-05,  avg # of iterations =  3.1

     negative rho (up, down):  1.435E-02 1.323E-02

     total cpu time spent up to now is   146703.2 secs

     total energy              =   -5520.96766445 Ry
     estimated scf accuracy    <       0.26919817 Ry

     total magnetization       =    12.26 Bohr mag/cell
     absolute magnetization    =    14.65 Bohr mag/cell

     iteration #390     ecut=    60.00 Ry     beta= 0.50
     CG style diagonalization

---- Real-time Memory Report at c_bands before calling an iterative solver
           449 MiB given to the printing process from OS
           280 MiB allocation reported by mallinfo(arena+hblkhd)
        450572 MiB available memory on the node where the printing process lives
------------------
     ethr =  4.00E-05,  avg # of iterations =  3.1

     negative rho (up, down):  1.421E-02 1.357E-02

     total cpu time spent up to now is   146990.6 secs

     total energy              =   -5521.10196020 Ry
     estimated scf accuracy    <      11.49592255 Ry

     total magnetization       =    13.69 Bohr mag/cell
     absolute magnetization    =    15.48 Bohr mag/cell

     iteration #391     ecut=    60.00 Ry     beta= 0.50
     CG style diagonalization

---- Real-time Memory Report at c_bands before calling an iterative solver
           449 MiB given to the printing process from OS
           280 MiB allocation reported by mallinfo(arena+hblkhd)
        450575 MiB available memory on the node where the printing process lives
------------------
     ethr =  4.00E-05,  avg # of iterations =  3.0

     negative rho (up, down):  1.068E-02 1.035E-02

     total cpu time spent up to now is   147270.2 secs

     total energy              =   -5521.03538664 Ry
     estimated scf accuracy    <      11.14141416 Ry

     total magnetization       =    13.69 Bohr mag/cell
     absolute magnetization    =    15.51 Bohr mag/cell

     iteration #392     ecut=    60.00 Ry     beta= 0.50
     CG style diagonalization

---- Real-time Memory Report at c_bands before calling an iterative solver
           449 MiB given to the printing process from OS
           280 MiB allocation reported by mallinfo(arena+hblkhd)
        450576 MiB available memory on the node where the printing process lives
------------------
     ethr =  4.00E-05,  avg # of iterations =  3.0

     negative rho (up, down):  9.964E-03 9.634E-03

     total cpu time spent up to now is   147547.1 secs

     total energy              =   -5521.04358338 Ry
     estimated scf accuracy    <       1.51188892 Ry

     total magnetization       =    14.01 Bohr mag/cell
     absolute magnetization    =    15.86 Bohr mag/cell

     iteration #393     ecut=    60.00 Ry     beta= 0.50
     CG style diagonalization

---- Real-time Memory Report at c_bands before calling an iterative solver
           449 MiB given to the printing process from OS
           280 MiB allocation reported by mallinfo(arena+hblkhd)
        450579 MiB available memory on the node where the printing process lives
------------------
     ethr =  4.00E-05,  avg # of iterations =  3.0

     negative rho (up, down):  1.062E-02 1.019E-02

     total cpu time spent up to now is   147824.3 secs

     total energy              =   -5521.07085393 Ry
     estimated scf accuracy    <       0.06033144 Ry

     total magnetization       =    12.71 Bohr mag/cell
     absolute magnetization    =    15.17 Bohr mag/cell

     iteration #394     ecut=    60.00 Ry     beta= 0.50
     CG style diagonalization

---- Real-time Memory Report at c_bands before calling an iterative solver
           449 MiB given to the printing process from OS
           280 MiB allocation reported by mallinfo(arena+hblkhd)
        450597 MiB available memory on the node where the printing process lives
------------------
     c_bands:  1 eigenvalues not converged
     ethr =  2.06E-05,  avg # of iterations =  3.2

     negative rho (up, down):  6.194E-03 5.738E-03

     total cpu time spent up to now is   148122.5 secs

     total energy              =   -5520.89040087 Ry
     estimated scf accuracy    <       5.58212900 Ry

     total magnetization       =     9.89 Bohr mag/cell
     absolute magnetization    =    12.44 Bohr mag/cell

     iteration #395     ecut=    60.00 Ry     beta= 0.50
     CG style diagonalization

---- Real-time Memory Report at c_bands before calling an iterative solver
           449 MiB given to the printing process from OS
           280 MiB allocation reported by mallinfo(arena+hblkhd)
        450599 MiB available memory on the node where the printing process lives
------------------
     ethr =  2.06E-05,  avg # of iterations =  3.2

     negative rho (up, down):  4.894E-03 4.398E-03

     total cpu time spent up to now is   148420.5 secs

     total energy              =   -5521.00863892 Ry
     estimated scf accuracy    <       9.49317124 Ry

     total magnetization       =    13.74 Bohr mag/cell
     absolute magnetization    =    15.52 Bohr mag/cell

     iteration #396     ecut=    60.00 Ry     beta= 0.50
     CG style diagonalization

---- Real-time Memory Report at c_bands before calling an iterative solver
           449 MiB given to the printing process from OS
           280 MiB allocation reported by mallinfo(arena+hblkhd)
        450602 MiB available memory on the node where the printing process lives
------------------
     ethr =  2.06E-05,  avg # of iterations =  3.0

     negative rho (up, down):  5.029E-03 4.451E-03

     total cpu time spent up to now is   148700.7 secs

     total energy              =   -5521.04975261 Ry
     estimated scf accuracy    <       0.52610424 Ry

     total magnetization       =    13.45 Bohr mag/cell
     absolute magnetization    =    15.47 Bohr mag/cell

     iteration #397     ecut=    60.00 Ry     beta= 0.50
     CG style diagonalization

---- Real-time Memory Report at c_bands before calling an iterative solver
           449 MiB given to the printing process from OS
           280 MiB allocation reported by mallinfo(arena+hblkhd)
        450603 MiB available memory on the node where the printing process lives
------------------
     ethr =  2.06E-05,  avg # of iterations =  3.0

     negative rho (up, down):  4.896E-03 4.336E-03

     total cpu time spent up to now is   148979.3 secs

     total energy              =   -5521.07045077 Ry
     estimated scf accuracy    <       5.40348112 Ry

     total magnetization       =    13.85 Bohr mag/cell
     absolute magnetization    =    15.64 Bohr mag/cell

     iteration #398     ecut=    60.00 Ry     beta= 0.50
     CG style diagonalization

---- Real-time Memory Report at c_bands before calling an iterative solver
           449 MiB given to the printing process from OS
           280 MiB allocation reported by mallinfo(arena+hblkhd)
        450606 MiB available memory on the node where the printing process lives
------------------
     ethr =  2.06E-05,  avg # of iterations =  3.0

     negative rho (up, down):  4.855E-03 4.328E-03

     total cpu time spent up to now is   149255.5 secs

     total energy              =   -5521.04112033 Ry
     estimated scf accuracy    <       7.00524426 Ry

     total magnetization       =    13.80 Bohr mag/cell
     absolute magnetization    =    15.58 Bohr mag/cell

     iteration #399     ecut=    60.00 Ry     beta= 0.50
     CG style diagonalization

---- Real-time Memory Report at c_bands before calling an iterative solver
           449 MiB given to the printing process from OS
           280 MiB allocation reported by mallinfo(arena+hblkhd)
        450599 MiB available memory on the node where the printing process lives
------------------
     ethr =  2.06E-05,  avg # of iterations =  3.0

     negative rho (up, down):  4.092E-03 3.591E-03

     total cpu time spent up to now is   149531.6 secs

     total energy              =   -5521.05401409 Ry
     estimated scf accuracy    <       1.86066634 Ry

     total magnetization       =    13.96 Bohr mag/cell
     absolute magnetization    =    15.79 Bohr mag/cell

     iteration #400     ecut=    60.00 Ry     beta= 0.50
     CG style diagonalization

---- Real-time Memory Report at c_bands before calling an iterative solver
           449 MiB given to the printing process from OS
           280 MiB allocation reported by mallinfo(arena+hblkhd)
        450561 MiB available memory on the node where the printing process lives
------------------
     ethr =  2.06E-05,  avg # of iterations =  3.0

     negative rho (up, down):  4.176E-03 3.675E-03

     total cpu time spent up to now is   149806.5 secs

     total energy              =   -5521.05323209 Ry
     estimated scf accuracy    <       3.82201760 Ry

     total magnetization       =    13.90 Bohr mag/cell
     absolute magnetization    =    15.71 Bohr mag/cell

     iteration #401     ecut=    60.00 Ry     beta= 0.50
     CG style diagonalization

---- Real-time Memory Report at c_bands before calling an iterative solver
           449 MiB given to the printing process from OS
           280 MiB allocation reported by mallinfo(arena+hblkhd)
        450571 MiB available memory on the node where the printing process lives
------------------
     ethr =  2.06E-05,  avg # of iterations =  3.0

     negative rho (up, down):  5.517E-03 5.106E-03

     total cpu time spent up to now is   150082.3 secs

     total energy              =   -5520.98626136 Ry
     estimated scf accuracy    <       3.19210701 Ry

     total magnetization       =    13.92 Bohr mag/cell
     absolute magnetization    =    15.73 Bohr mag/cell

     iteration #402     ecut=    60.00 Ry     beta= 0.50
     CG style diagonalization

---- Real-time Memory Report at c_bands before calling an iterative solver
           449 MiB given to the printing process from OS
           280 MiB allocation reported by mallinfo(arena+hblkhd)
        450566 MiB available memory on the node where the printing process lives
------------------
     ethr =  2.06E-05,  avg # of iterations =  3.0

     negative rho (up, down):  5.230E-03 4.838E-03

     total cpu time spent up to now is   150364.5 secs

     total energy              =   -5521.04884113 Ry
     estimated scf accuracy    <       0.04574888 Ry

     total magnetization       =    12.24 Bohr mag/cell
     absolute magnetization    =    14.97 Bohr mag/cell

     iteration #403     ecut=    60.00 Ry     beta= 0.50
     CG style diagonalization

---- Real-time Memory Report at c_bands before calling an iterative solver
           449 MiB given to the printing process from OS
           280 MiB allocation reported by mallinfo(arena+hblkhd)
        450546 MiB available memory on the node where the printing process lives
------------------
     ethr =  1.56E-05,  avg # of iterations =  3.0

     negative rho (up, down):  5.296E-03 4.886E-03

     total cpu time spent up to now is   150641.7 secs

     total energy              =   -5521.04762448 Ry
     estimated scf accuracy    <       0.06911385 Ry

     total magnetization       =    12.19 Bohr mag/cell
     absolute magnetization    =    14.90 Bohr mag/cell

     iteration #404     ecut=    60.00 Ry     beta= 0.50
     CG style diagonalization

---- Real-time Memory Report at c_bands before calling an iterative solver
           449 MiB given to the printing process from OS
           280 MiB allocation reported by mallinfo(arena+hblkhd)
        450574 MiB available memory on the node where the printing process lives
------------------
     ethr =  1.56E-05,  avg # of iterations =  3.0

     negative rho (up, down):  4.376E-03 4.111E-03

     total cpu time spent up to now is   150918.0 secs

     total energy              =   -5521.05569904 Ry
     estimated scf accuracy    <       0.08594693 Ry

     total magnetization       =    12.19 Bohr mag/cell
     absolute magnetization    =    14.86 Bohr mag/cell

     iteration #405     ecut=    60.00 Ry     beta= 0.50
     CG style diagonalization

---- Real-time Memory Report at c_bands before calling an iterative solver
           449 MiB given to the printing process from OS
           280 MiB allocation reported by mallinfo(arena+hblkhd)
        450583 MiB available memory on the node where the printing process lives
------------------
     ethr =  1.56E-05,  avg # of iterations =  3.0

     negative rho (up, down):  3.390E-03 3.132E-03

     total cpu time spent up to now is   151193.4 secs

     total energy              =   -5521.05425536 Ry
     estimated scf accuracy    <       0.06813725 Ry

     total magnetization       =    12.26 Bohr mag/cell
     absolute magnetization    =    14.92 Bohr mag/cell

     iteration #406     ecut=    60.00 Ry     beta= 0.50
     CG style diagonalization

---- Real-time Memory Report at c_bands before calling an iterative solver
           449 MiB given to the printing process from OS
           280 MiB allocation reported by mallinfo(arena+hblkhd)
        450585 MiB available memory on the node where the printing process lives
------------------
     ethr =  1.56E-05,  avg # of iterations =  3.0

     negative rho (up, down):  3.360E-03 3.081E-03

     total cpu time spent up to now is   151470.3 secs

     total energy              =   -5521.05602737 Ry
     estimated scf accuracy    <       0.03133171 Ry

     total magnetization       =    12.28 Bohr mag/cell
     absolute magnetization    =    15.02 Bohr mag/cell

     iteration #407     ecut=    60.00 Ry     beta= 0.50
     CG style diagonalization

---- Real-time Memory Report at c_bands before calling an iterative solver
           449 MiB given to the printing process from OS
           280 MiB allocation reported by mallinfo(arena+hblkhd)
        450584 MiB available memory on the node where the printing process lives
------------------
     c_bands:  1 eigenvalues not converged
     ethr =  1.07E-05,  avg # of iterations =  3.0

     negative rho (up, down):  4.168E-03 3.859E-03

     total cpu time spent up to now is   151746.2 secs

     total energy              =   -5521.05282278 Ry
     estimated scf accuracy    <       0.03291143 Ry

     total magnetization       =    12.27 Bohr mag/cell
     absolute magnetization    =    15.01 Bohr mag/cell

     iteration #408     ecut=    60.00 Ry     beta= 0.50
     CG style diagonalization

---- Real-time Memory Report at c_bands before calling an iterative solver
           449 MiB given to the printing process from OS
           280 MiB allocation reported by mallinfo(arena+hblkhd)
        450581 MiB available memory on the node where the printing process lives
------------------
     ethr =  1.07E-05,  avg # of iterations =  3.0

     negative rho (up, down):  4.149E-03 3.845E-03

     total cpu time spent up to now is   152021.5 secs

     total energy              =   -5521.05283275 Ry
     estimated scf accuracy    <       0.03086731 Ry

     total magnetization       =    12.29 Bohr mag/cell
     absolute magnetization    =    15.02 Bohr mag/cell

     iteration #409     ecut=    60.00 Ry     beta= 0.50
     CG style diagonalization

---- Real-time Memory Report at c_bands before calling an iterative solver
           449 MiB given to the printing process from OS
           280 MiB allocation reported by mallinfo(arena+hblkhd)
        450589 MiB available memory on the node where the printing process lives
------------------
     ethr =  1.05E-05,  avg # of iterations =  3.0

     negative rho (up, down):  3.955E-03 3.629E-03

     total cpu time spent up to now is   152296.4 secs

     total energy              =   -5521.05377401 Ry
     estimated scf accuracy    <       0.03048160 Ry

     total magnetization       =    12.29 Bohr mag/cell
     absolute magnetization    =    15.02 Bohr mag/cell

     iteration #410     ecut=    60.00 Ry     beta= 0.50
     CG style diagonalization

---- Real-time Memory Report at c_bands before calling an iterative solver
           449 MiB given to the printing process from OS
           280 MiB allocation reported by mallinfo(arena+hblkhd)
        450591 MiB available memory on the node where the printing process lives
------------------
     ethr =  1.04E-05,  avg # of iterations =  3.0

     negative rho (up, down):  3.652E-03 3.391E-03

     total cpu time spent up to now is   152571.4 secs

     total energy              =   -5521.05518553 Ry
     estimated scf accuracy    <       0.03285388 Ry

     total magnetization       =    12.28 Bohr mag/cell
     absolute magnetization    =    15.02 Bohr mag/cell

     iteration #411     ecut=    60.00 Ry     beta= 0.50
     CG style diagonalization

---- Real-time Memory Report at c_bands before calling an iterative solver
           449 MiB given to the printing process from OS
           280 MiB allocation reported by mallinfo(arena+hblkhd)
        450599 MiB available memory on the node where the printing process lives
------------------
     ethr =  1.04E-05,  avg # of iterations =  3.0

     negative rho (up, down):  3.574E-03 3.265E-03

     total cpu time spent up to now is   152847.2 secs

     total energy              =   -5521.05991616 Ry
     estimated scf accuracy    <       0.03617515 Ry

     total magnetization       =    12.27 Bohr mag/cell
     absolute magnetization    =    15.01 Bohr mag/cell

     iteration #412     ecut=    60.00 Ry     beta= 0.50
     CG style diagonalization

---- Real-time Memory Report at c_bands before calling an iterative solver
           449 MiB given to the printing process from OS
           280 MiB allocation reported by mallinfo(arena+hblkhd)
        450594 MiB available memory on the node where the printing process lives
------------------
     ethr =  1.04E-05,  avg # of iterations =  3.0

     negative rho (up, down):  3.296E-03 2.954E-03

     total cpu time spent up to now is   153122.2 secs

     total energy              =   -5521.06243552 Ry
     estimated scf accuracy    <       0.02993947 Ry

     total magnetization       =    12.27 Bohr mag/cell
     absolute magnetization    =    15.02 Bohr mag/cell

     iteration #413     ecut=    60.00 Ry     beta= 0.50
     CG style diagonalization

---- Real-time Memory Report at c_bands before calling an iterative solver
           449 MiB given to the printing process from OS
           280 MiB allocation reported by mallinfo(arena+hblkhd)
        450595 MiB available memory on the node where the printing process lives
------------------
     ethr =  1.02E-05,  avg # of iterations =  3.0

     negative rho (up, down):  3.701E-03 3.356E-03

     total cpu time spent up to now is   153398.8 secs

     total energy              =   -5521.06813483 Ry
     estimated scf accuracy    <       0.02864862 Ry

     total magnetization       =    12.27 Bohr mag/cell
     absolute magnetization    =    15.02 Bohr mag/cell

     iteration #414     ecut=    60.00 Ry     beta= 0.50
     CG style diagonalization

---- Real-time Memory Report at c_bands before calling an iterative solver
           449 MiB given to the printing process from OS
           280 MiB allocation reported by mallinfo(arena+hblkhd)
        450575 MiB available memory on the node where the printing process lives
------------------
     ethr =  9.78E-06,  avg # of iterations =  3.0

     negative rho (up, down):  4.824E-03 4.388E-03

     total cpu time spent up to now is   153675.0 secs

     total energy              =   -5521.08357126 Ry
     estimated scf accuracy    <       0.02777348 Ry

     total magnetization       =    12.26 Bohr mag/cell
     absolute magnetization    =    15.01 Bohr mag/cell

     iteration #415     ecut=    60.00 Ry     beta= 0.50
     CG style diagonalization

---- Real-time Memory Report at c_bands before calling an iterative solver
           449 MiB given to the printing process from OS
           280 MiB allocation reported by mallinfo(arena+hblkhd)
        450571 MiB available memory on the node where the printing process lives
------------------
     ethr =  9.48E-06,  avg # of iterations =  3.1

     negative rho (up, down):  6.836E-03 6.432E-03

     total cpu time spent up to now is   153957.9 secs

     total energy              =   -5521.10560170 Ry
     estimated scf accuracy    <       0.02642476 Ry

     total magnetization       =    12.24 Bohr mag/cell
     absolute magnetization    =    15.02 Bohr mag/cell

     iteration #416     ecut=    60.00 Ry     beta= 0.50
     CG style diagonalization

---- Real-time Memory Report at c_bands before calling an iterative solver
           449 MiB given to the printing process from OS
           280 MiB allocation reported by mallinfo(arena+hblkhd)
        450576 MiB available memory on the node where the printing process lives
------------------
     c_bands:  1 eigenvalues not converged
     ethr =  9.02E-06,  avg # of iterations =  3.1

     negative rho (up, down):  4.191E-03 4.102E-03

     total cpu time spent up to now is   154251.6 secs

     total energy              =   -5521.09509392 Ry
     estimated scf accuracy    <       1.54220239 Ry

     total magnetization       =    12.36 Bohr mag/cell
     absolute magnetization    =    14.30 Bohr mag/cell

     iteration #417     ecut=    60.00 Ry     beta= 0.50
     CG style diagonalization

---- Real-time Memory Report at c_bands before calling an iterative solver
           449 MiB given to the printing process from OS
           280 MiB allocation reported by mallinfo(arena+hblkhd)
        450584 MiB available memory on the node where the printing process lives
------------------
     ethr =  9.02E-06,  avg # of iterations =  3.1

     negative rho (up, down):  4.050E-03 3.928E-03

     total cpu time spent up to now is   154541.0 secs

     total energy              =   -5521.09716752 Ry
     estimated scf accuracy    <       0.06026898 Ry

     total magnetization       =    12.25 Bohr mag/cell
     absolute magnetization    =    14.94 Bohr mag/cell

     iteration #418     ecut=    60.00 Ry     beta= 0.50
     CG style diagonalization

---- Real-time Memory Report at c_bands before calling an iterative solver
           449 MiB given to the printing process from OS
           280 MiB allocation reported by mallinfo(arena+hblkhd)
        450586 MiB available memory on the node where the printing process lives
------------------
     ethr =  9.02E-06,  avg # of iterations =  3.0

     negative rho (up, down):  5.174E-03 5.004E-03

     total cpu time spent up to now is   154818.2 secs

     total energy              =   -5521.08766082 Ry
     estimated scf accuracy    <       0.03340403 Ry

     total magnetization       =    12.25 Bohr mag/cell
     absolute magnetization    =    15.00 Bohr mag/cell

     iteration #419     ecut=    60.00 Ry     beta= 0.50
     CG style diagonalization

---- Real-time Memory Report at c_bands before calling an iterative solver
           449 MiB given to the printing process from OS
           280 MiB allocation reported by mallinfo(arena+hblkhd)
        450581 MiB available memory on the node where the printing process lives
------------------
     ethr =  9.02E-06,  avg # of iterations =  3.1

     negative rho (up, down):  4.612E-03 4.411E-03

     total cpu time spent up to now is   155105.1 secs

     total energy              =   -5521.09080652 Ry
     estimated scf accuracy    <       0.02952895 Ry

     total magnetization       =    12.25 Bohr mag/cell
     absolute magnetization    =    15.02 Bohr mag/cell

     iteration #420     ecut=    60.00 Ry     beta= 0.50
     CG style diagonalization

---- Real-time Memory Report at c_bands before calling an iterative solver
           449 MiB given to the printing process from OS
           280 MiB allocation reported by mallinfo(arena+hblkhd)
        450588 MiB available memory on the node where the printing process lives
------------------
     ethr =  9.02E-06,  avg # of iterations =  3.0

     negative rho (up, down):  3.204E-03 3.059E-03

     total cpu time spent up to now is   155384.2 secs

     total energy              =   -5521.09832663 Ry
     estimated scf accuracy    <       0.02650559 Ry

     total magnetization       =    12.25 Bohr mag/cell
     absolute magnetization    =    15.02 Bohr mag/cell

     iteration #421     ecut=    60.00 Ry     beta= 0.50
     CG style diagonalization

---- Real-time Memory Report at c_bands before calling an iterative solver
           449 MiB given to the printing process from OS
           280 MiB allocation reported by mallinfo(arena+hblkhd)
        450584 MiB available memory on the node where the printing process lives
------------------
     ethr =  9.02E-06,  avg # of iterations =  3.0

     negative rho (up, down):  4.388E-03 3.777E-03

     total cpu time spent up to now is   155664.6 secs

     total energy              =   -5521.10235209 Ry
     estimated scf accuracy    <       0.02149417 Ry

     total magnetization       =    12.24 Bohr mag/cell
     absolute magnetization    =    15.03 Bohr mag/cell

     iteration #422     ecut=    60.00 Ry     beta= 0.50
     CG style diagonalization

---- Real-time Memory Report at c_bands before calling an iterative solver
           449 MiB given to the printing process from OS
           280 MiB allocation reported by mallinfo(arena+hblkhd)
        450572 MiB available memory on the node where the printing process lives
------------------
     c_bands:  1 eigenvalues not converged
     c_bands:  1 eigenvalues not converged
     ethr =  7.34E-06,  avg # of iterations =  3.2

     negative rho (up, down):  5.991E-03 5.440E-03

     total cpu time spent up to now is   155965.7 secs

     total energy              =   -5521.16501425 Ry
     estimated scf accuracy    <       1.07856809 Ry

     total magnetization       =    13.95 Bohr mag/cell
     absolute magnetization    =    15.83 Bohr mag/cell

     iteration #423     ecut=    60.00 Ry     beta= 0.50
     CG style diagonalization

---- Real-time Memory Report at c_bands before calling an iterative solver
           449 MiB given to the printing process from OS
           280 MiB allocation reported by mallinfo(arena+hblkhd)
        450578 MiB available memory on the node where the printing process lives
------------------
     c_bands:  1 eigenvalues not converged
     c_bands:  1 eigenvalues not converged
     c_bands:  1 eigenvalues not converged
     c_bands:  1 eigenvalues not converged
     c_bands:  2 eigenvalues not converged
     ethr =  7.34E-06,  avg # of iterations =  3.2

     negative rho (up, down):  5.865E-03 5.640E-03

     total cpu time spent up to now is   156278.1 secs

     total energy              =   -5521.17862457 Ry
     estimated scf accuracy    <       1.32116669 Ry

     total magnetization       =    14.06 Bohr mag/cell
     absolute magnetization    =    15.94 Bohr mag/cell

     iteration #424     ecut=    60.00 Ry     beta= 0.50
     CG style diagonalization

---- Real-time Memory Report at c_bands before calling an iterative solver
           449 MiB given to the printing process from OS
           280 MiB allocation reported by mallinfo(arena+hblkhd)
        450561 MiB available memory on the node where the printing process lives
------------------
     ethr =  7.34E-06,  avg # of iterations =  3.1

     negative rho (up, down):  3.674E-03 3.517E-03

     total cpu time spent up to now is   156568.0 secs

     total energy              =   -5521.11173135 Ry
     estimated scf accuracy    <       1.51525799 Ry

     total magnetization       =    14.04 Bohr mag/cell
     absolute magnetization    =    15.93 Bohr mag/cell

     iteration #425     ecut=    60.00 Ry     beta= 0.50
     CG style diagonalization

---- Real-time Memory Report at c_bands before calling an iterative solver
           449 MiB given to the printing process from OS
           280 MiB allocation reported by mallinfo(arena+hblkhd)
        450566 MiB available memory on the node where the printing process lives
------------------
     ethr =  7.34E-06,  avg # of iterations =  3.2

     negative rho (up, down):  5.839E-03 5.448E-03

     total cpu time spent up to now is   156870.1 secs

     total energy              =   -5521.11503457 Ry
     estimated scf accuracy    <       0.33605962 Ry

     total magnetization       =    13.20 Bohr mag/cell
     absolute magnetization    =    15.43 Bohr mag/cell

     iteration #426     ecut=    60.00 Ry     beta= 0.50
     CG style diagonalization

---- Real-time Memory Report at c_bands before calling an iterative solver
           449 MiB given to the printing process from OS
           280 MiB allocation reported by mallinfo(arena+hblkhd)
        450548 MiB available memory on the node where the printing process lives
------------------
     ethr =  7.34E-06,  avg # of iterations =  3.1

     negative rho (up, down):  4.533E-03 4.241E-03

     total cpu time spent up to now is   157156.5 secs

     total energy              =   -5521.11712639 Ry
     estimated scf accuracy    <       0.04468346 Ry

     total magnetization       =    12.60 Bohr mag/cell
     absolute magnetization    =    15.23 Bohr mag/cell

     iteration #427     ecut=    60.00 Ry     beta= 0.50
     CG style diagonalization

---- Real-time Memory Report at c_bands before calling an iterative solver
           449 MiB given to the printing process from OS
           280 MiB allocation reported by mallinfo(arena+hblkhd)
        450563 MiB available memory on the node where the printing process lives
------------------
     ethr =  7.34E-06,  avg # of iterations =  3.0

     negative rho (up, down):  4.913E-03 4.428E-03

     total cpu time spent up to now is   157432.6 secs

     total energy              =   -5521.11814000 Ry
     estimated scf accuracy    <       0.13160519 Ry

     total magnetization       =    12.85 Bohr mag/cell
     absolute magnetization    =    15.31 Bohr mag/cell

     iteration #428     ecut=    60.00 Ry     beta= 0.50
     CG style diagonalization

---- Real-time Memory Report at c_bands before calling an iterative solver
           449 MiB given to the printing process from OS
           280 MiB allocation reported by mallinfo(arena+hblkhd)
        450569 MiB available memory on the node where the printing process lives
------------------
     ethr =  7.34E-06,  avg # of iterations =  3.0

     negative rho (up, down):  2.943E-03 2.766E-03

     total cpu time spent up to now is   157713.3 secs

     total energy              =   -5521.10423806 Ry
     estimated scf accuracy    <       0.45106591 Ry

     total magnetization       =    13.32 Bohr mag/cell
     absolute magnetization    =    15.50 Bohr mag/cell

     iteration #429     ecut=    60.00 Ry     beta= 0.50
     CG style diagonalization

---- Real-time Memory Report at c_bands before calling an iterative solver
           449 MiB given to the printing process from OS
           280 MiB allocation reported by mallinfo(arena+hblkhd)
        450570 MiB available memory on the node where the printing process lives
------------------
     c_bands:  1 eigenvalues not converged
     c_bands:  1 eigenvalues not converged
     ethr =  7.34E-06,  avg # of iterations =  3.1

     negative rho (up, down):  3.781E-03 3.267E-03

     total cpu time spent up to now is   158004.9 secs

     total energy              =   -5521.11516161 Ry
     estimated scf accuracy    <       0.00981785 Ry

     total magnetization       =    12.25 Bohr mag/cell
     absolute magnetization    =    15.10 Bohr mag/cell

     iteration #430     ecut=    60.00 Ry     beta= 0.50
     CG style diagonalization

---- Real-time Memory Report at c_bands before calling an iterative solver
           449 MiB given to the printing process from OS
           280 MiB allocation reported by mallinfo(arena+hblkhd)
        450575 MiB available memory on the node where the printing process lives
------------------
     c_bands:  1 eigenvalues not converged
     c_bands:  1 eigenvalues not converged
     c_bands:  1 eigenvalues not converged
     ethr =  3.35E-06,  avg # of iterations =  3.1

     negative rho (up, down):  3.503E-03 3.095E-03

     total cpu time spent up to now is   158296.1 secs

     total energy              =   -5521.11625176 Ry
     estimated scf accuracy    <       0.15290202 Ry

     total magnetization       =    12.90 Bohr mag/cell
     absolute magnetization    =    15.32 Bohr mag/cell

     iteration #431     ecut=    60.00 Ry     beta= 0.50
     CG style diagonalization

---- Real-time Memory Report at c_bands before calling an iterative solver
           449 MiB given to the printing process from OS
           280 MiB allocation reported by mallinfo(arena+hblkhd)
        450582 MiB available memory on the node where the printing process lives
------------------
     ethr =  3.35E-06,  avg # of iterations =  3.0

     negative rho (up, down):  4.185E-03 3.766E-03

     total cpu time spent up to now is   158574.5 secs

     total energy              =   -5521.11974836 Ry
     estimated scf accuracy    <       0.05559816 Ry

     total magnetization       =    12.66 Bohr mag/cell
     absolute magnetization    =    15.23 Bohr mag/cell

     iteration #432     ecut=    60.00 Ry     beta= 0.50
     CG style diagonalization

---- Real-time Memory Report at c_bands before calling an iterative solver
           449 MiB given to the printing process from OS
           280 MiB allocation reported by mallinfo(arena+hblkhd)
        450588 MiB available memory on the node where the printing process lives
------------------
     ethr =  3.35E-06,  avg # of iterations =  3.1

     negative rho (up, down):  4.547E-03 3.897E-03

     total cpu time spent up to now is   158865.6 secs

     total energy              =   -5521.13515683 Ry
     estimated scf accuracy    <       1.21398058 Ry

     total magnetization       =    13.99 Bohr mag/cell
     absolute magnetization    =    15.91 Bohr mag/cell

     iteration #433     ecut=    60.00 Ry     beta= 0.50
     CG style diagonalization

---- Real-time Memory Report at c_bands before calling an iterative solver
           449 MiB given to the printing process from OS
           280 MiB allocation reported by mallinfo(arena+hblkhd)
        450598 MiB available memory on the node where the printing process lives
------------------
     ethr =  3.35E-06,  avg # of iterations =  3.1

     negative rho (up, down):  7.190E-03 6.473E-03

     total cpu time spent up to now is   159151.4 secs

     total energy              =   -5521.13866778 Ry
     estimated scf accuracy    <       1.30281590 Ry

     total magnetization       =    14.04 Bohr mag/cell
     absolute magnetization    =    15.95 Bohr mag/cell

     iteration #434     ecut=    60.00 Ry     beta= 0.50
     CG style diagonalization

---- Real-time Memory Report at c_bands before calling an iterative solver
           449 MiB given to the printing process from OS
           280 MiB allocation reported by mallinfo(arena+hblkhd)
        450598 MiB available memory on the node where the printing process lives
------------------
     ethr =  3.35E-06,  avg # of iterations =  3.2

     negative rho (up, down):  7.304E-03 6.640E-03

     total cpu time spent up to now is   159449.2 secs

     total energy              =   -5521.14068615 Ry
     estimated scf accuracy    <       1.35353815 Ry

     total magnetization       =    14.05 Bohr mag/cell
     absolute magnetization    =    15.97 Bohr mag/cell

     iteration #435     ecut=    60.00 Ry     beta= 0.50
     CG style diagonalization

---- Real-time Memory Report at c_bands before calling an iterative solver
           449 MiB given to the printing process from OS
           280 MiB allocation reported by mallinfo(arena+hblkhd)
        450603 MiB available memory on the node where the printing process lives
------------------
     ethr =  3.35E-06,  avg # of iterations =  3.0

     negative rho (up, down):  8.481E-03 7.761E-03

     total cpu time spent up to now is   159725.1 secs

     total energy              =   -5521.15364131 Ry
     estimated scf accuracy    <       1.35631002 Ry

     total magnetization       =    14.05 Bohr mag/cell
     absolute magnetization    =    15.97 Bohr mag/cell

     iteration #436     ecut=    60.00 Ry     beta= 0.50
     CG style diagonalization

---- Real-time Memory Report at c_bands before calling an iterative solver
           449 MiB given to the printing process from OS
           280 MiB allocation reported by mallinfo(arena+hblkhd)
        450602 MiB available memory on the node where the printing process lives
------------------
     ethr =  3.35E-06,  avg # of iterations =  3.1

     negative rho (up, down):  7.484E-03 6.448E-03

     total cpu time spent up to now is   160017.2 secs

     total energy              =   -5521.14801551 Ry
     estimated scf accuracy    <       1.53415070 Ry

     total magnetization       =    14.06 Bohr mag/cell
     absolute magnetization    =    15.98 Bohr mag/cell

     iteration #437     ecut=    60.00 Ry     beta= 0.50
     CG style diagonalization

---- Real-time Memory Report at c_bands before calling an iterative solver
           449 MiB given to the printing process from OS
           280 MiB allocation reported by mallinfo(arena+hblkhd)
        450602 MiB available memory on the node where the printing process lives
------------------
     ethr =  3.35E-06,  avg # of iterations =  3.1

     negative rho (up, down):  1.041E-02 7.228E-03

     total cpu time spent up to now is   160305.0 secs

     total energy              =   -5521.17678724 Ry
     estimated scf accuracy    <       1.73401857 Ry

     total magnetization       =    14.04 Bohr mag/cell
     absolute magnetization    =    15.95 Bohr mag/cell

     iteration #438     ecut=    60.00 Ry     beta= 0.50
     CG style diagonalization

---- Real-time Memory Report at c_bands before calling an iterative solver
           449 MiB given to the printing process from OS
           280 MiB allocation reported by mallinfo(arena+hblkhd)
        450572 MiB available memory on the node where the printing process lives
------------------
     c_bands:  1 eigenvalues not converged
     c_bands:  2 eigenvalues not converged
     c_bands:  1 eigenvalues not converged
     ethr =  3.35E-06,  avg # of iterations =  3.3

     negative rho (up, down):  7.207E-03 6.655E-03

     total cpu time spent up to now is   160619.2 secs

     total energy              =   -5521.14543110 Ry
     estimated scf accuracy    <      11.96432783 Ry

     total magnetization       =    13.72 Bohr mag/cell
     absolute magnetization    =    15.92 Bohr mag/cell

     iteration #439     ecut=    60.00 Ry     beta= 0.50
     CG style diagonalization

---- Real-time Memory Report at c_bands before calling an iterative solver
           449 MiB given to the printing process from OS
           280 MiB allocation reported by mallinfo(arena+hblkhd)
        450548 MiB available memory on the node where the printing process lives
------------------
     c_bands:  1 eigenvalues not converged
     ethr =  3.35E-06,  avg # of iterations =  3.2

     negative rho (up, down):  4.213E-03 4.294E-03

     total cpu time spent up to now is   160922.9 secs

     total energy              =   -5521.09484132 Ry
     estimated scf accuracy    <       2.86143648 Ry

     total magnetization       =    13.98 Bohr mag/cell
     absolute magnetization    =    15.90 Bohr mag/cell

     iteration #440     ecut=    60.00 Ry     beta= 0.50
     CG style diagonalization

---- Real-time Memory Report at c_bands before calling an iterative solver
           449 MiB given to the printing process from OS
           280 MiB allocation reported by mallinfo(arena+hblkhd)
        450563 MiB available memory on the node where the printing process lives
------------------
     c_bands:  1 eigenvalues not converged
     c_bands:  1 eigenvalues not converged
     ethr =  3.35E-06,  avg # of iterations =  3.2

     negative rho (up, down):  3.150E-03 3.683E-03

     total cpu time spent up to now is   161232.4 secs

     total energy              =   -5521.11388558 Ry
     estimated scf accuracy    <       0.43831547 Ry

     total magnetization       =    13.34 Bohr mag/cell
     absolute magnetization    =    15.54 Bohr mag/cell

     iteration #441     ecut=    60.00 Ry     beta= 0.50
     CG style diagonalization

---- Real-time Memory Report at c_bands before calling an iterative solver
           449 MiB given to the printing process from OS
           280 MiB allocation reported by mallinfo(arena+hblkhd)
        450568 MiB available memory on the node where the printing process lives
------------------
     ethr =  3.35E-06,  avg # of iterations =  3.1

     negative rho (up, down):  3.753E-03 4.907E-03

     total cpu time spent up to now is   161523.1 secs

     total energy              =   -5521.11819647 Ry
     estimated scf accuracy    <       0.00965596 Ry

     total magnetization       =    12.48 Bohr mag/cell
     absolute magnetization    =    15.21 Bohr mag/cell

     iteration #442     ecut=    60.00 Ry     beta= 0.50
     CG style diagonalization

---- Real-time Memory Report at c_bands before calling an iterative solver
           449 MiB given to the printing process from OS
           280 MiB allocation reported by mallinfo(arena+hblkhd)
        450575 MiB available memory on the node where the printing process lives
------------------
     ethr =  3.30E-06,  avg # of iterations =  3.1

     negative rho (up, down):  2.382E-03 3.195E-03

     total cpu time spent up to now is   161811.4 secs

     total energy              =   -5521.09581263 Ry
     estimated scf accuracy    <       0.97403147 Ry

     total magnetization       =    13.85 Bohr mag/cell
     absolute magnetization    =    15.82 Bohr mag/cell

     iteration #443     ecut=    60.00 Ry     beta= 0.50
     CG style diagonalization

---- Real-time Memory Report at c_bands before calling an iterative solver
           449 MiB given to the printing process from OS
           280 MiB allocation reported by mallinfo(arena+hblkhd)
        450589 MiB available memory on the node where the printing process lives
------------------
     c_bands:  1 eigenvalues not converged
     c_bands:  1 eigenvalues not converged
     ethr =  3.30E-06,  avg # of iterations =  3.2

     negative rho (up, down):  1.387E-03 1.755E-03

     total cpu time spent up to now is   162109.1 secs

     total energy              =   -5521.11668966 Ry
     estimated scf accuracy    <       0.00487484 Ry

     total magnetization       =    12.27 Bohr mag/cell
     absolute magnetization    =    15.14 Bohr mag/cell

     iteration #444     ecut=    60.00 Ry     beta= 0.50
     CG style diagonalization

---- Real-time Memory Report at c_bands before calling an iterative solver
           449 MiB given to the printing process from OS
           280 MiB allocation reported by mallinfo(arena+hblkhd)
        450588 MiB available memory on the node where the printing process lives
------------------
     c_bands:  1 eigenvalues not converged
     ethr =  1.66E-06,  avg # of iterations =  3.1

     negative rho (up, down):  1.238E-03 1.357E-03

     total cpu time spent up to now is   162400.6 secs

     total energy              =   -5521.11704940 Ry
     estimated scf accuracy    <       0.00166795 Ry

     total magnetization       =    12.30 Bohr mag/cell
     absolute magnetization    =    15.15 Bohr mag/cell

     iteration #445     ecut=    60.00 Ry     beta= 0.50
     CG style diagonalization

---- Real-time Memory Report at c_bands before calling an iterative solver
           449 MiB given to the printing process from OS
           280 MiB allocation reported by mallinfo(arena+hblkhd)
        450594 MiB available memory on the node where the printing process lives
------------------
     ethr =  5.69E-07,  avg # of iterations =  3.1

     negative rho (up, down):  8.798E-04 8.819E-04

     total cpu time spent up to now is   162690.0 secs

     total energy              =   -5521.11709176 Ry
     estimated scf accuracy    <       0.00461660 Ry

     total magnetization       =    12.27 Bohr mag/cell
     absolute magnetization    =    15.14 Bohr mag/cell

     iteration #446     ecut=    60.00 Ry     beta= 0.50
     CG style diagonalization

---- Real-time Memory Report at c_bands before calling an iterative solver
           449 MiB given to the printing process from OS
           280 MiB allocation reported by mallinfo(arena+hblkhd)
        450600 MiB available memory on the node where the printing process lives
------------------
     ethr =  5.69E-07,  avg # of iterations =  3.1

     negative rho (up, down):  6.322E-04 6.430E-04

     total cpu time spent up to now is   162971.9 secs

     total energy              =   -5521.11714769 Ry
     estimated scf accuracy    <       0.00432575 Ry

     total magnetization       =    12.27 Bohr mag/cell
     absolute magnetization    =    15.13 Bohr mag/cell

     iteration #447     ecut=    60.00 Ry     beta= 0.50
     CG style diagonalization

---- Real-time Memory Report at c_bands before calling an iterative solver
           449 MiB given to the printing process from OS
           280 MiB allocation reported by mallinfo(arena+hblkhd)
        450608 MiB available memory on the node where the printing process lives
------------------
     ethr =  5.69E-07,  avg # of iterations =  3.1

     negative rho (up, down):  6.916E-04 6.717E-04

     total cpu time spent up to now is   163253.7 secs

     total energy              =   -5521.11688641 Ry
     estimated scf accuracy    <       0.00514282 Ry

     total magnetization       =    12.27 Bohr mag/cell
     absolute magnetization    =    15.13 Bohr mag/cell

     iteration #448     ecut=    60.00 Ry     beta= 0.50
     CG style diagonalization

---- Real-time Memory Report at c_bands before calling an iterative solver
           449 MiB given to the printing process from OS
           280 MiB allocation reported by mallinfo(arena+hblkhd)
        450607 MiB available memory on the node where the printing process lives
------------------
     ethr =  5.69E-07,  avg # of iterations =  3.0

     negative rho (up, down):  6.626E-04 6.597E-04

     total cpu time spent up to now is   163535.9 secs

     total energy              =   -5521.11669194 Ry
     estimated scf accuracy    <       0.00456336 Ry

     total magnetization       =    12.27 Bohr mag/cell
     absolute magnetization    =    15.14 Bohr mag/cell

     iteration #449     ecut=    60.00 Ry     beta= 0.50
     CG style diagonalization

---- Real-time Memory Report at c_bands before calling an iterative solver
           449 MiB given to the printing process from OS
           280 MiB allocation reported by mallinfo(arena+hblkhd)
        450610 MiB available memory on the node where the printing process lives
------------------
     ethr =  5.69E-07,  avg # of iterations =  3.0

     negative rho (up, down):  6.644E-04 6.687E-04

     total cpu time spent up to now is   163811.0 secs

     total energy              =   -5521.11665996 Ry
     estimated scf accuracy    <       0.00409445 Ry

     total magnetization       =    12.28 Bohr mag/cell
     absolute magnetization    =    15.14 Bohr mag/cell

     iteration #450     ecut=    60.00 Ry     beta= 0.50
     CG style diagonalization

---- Real-time Memory Report at c_bands before calling an iterative solver
           449 MiB given to the printing process from OS
           280 MiB allocation reported by mallinfo(arena+hblkhd)
        450606 MiB available memory on the node where the printing process lives
------------------
     ethr =  5.69E-07,  avg # of iterations =  3.0

     negative rho (up, down):  6.447E-04 6.368E-04

     total cpu time spent up to now is   164086.6 secs

     total energy              =   -5521.11682449 Ry
     estimated scf accuracy    <       0.00399516 Ry

     total magnetization       =    12.28 Bohr mag/cell
     absolute magnetization    =    15.14 Bohr mag/cell

     iteration #451     ecut=    60.00 Ry     beta= 0.50
     CG style diagonalization

---- Real-time Memory Report at c_bands before calling an iterative solver
           449 MiB given to the printing process from OS
           280 MiB allocation reported by mallinfo(arena+hblkhd)
        450597 MiB available memory on the node where the printing process lives
------------------
     ethr =  5.69E-07,  avg # of iterations =  3.0

     negative rho (up, down):  6.402E-04 6.254E-04

     total cpu time spent up to now is   164362.3 secs

     total energy              =   -5521.11707093 Ry
     estimated scf accuracy    <       0.00420658 Ry

     total magnetization       =    12.27 Bohr mag/cell
     absolute magnetization    =    15.14 Bohr mag/cell

     iteration #452     ecut=    60.00 Ry     beta= 0.50
     CG style diagonalization

---- Real-time Memory Report at c_bands before calling an iterative solver
           449 MiB given to the printing process from OS
           280 MiB allocation reported by mallinfo(arena+hblkhd)
        450583 MiB available memory on the node where the printing process lives
------------------
     ethr =  5.69E-07,  avg # of iterations =  3.0

     negative rho (up, down):  6.091E-04 6.044E-04

     total cpu time spent up to now is   164637.2 secs

     total energy              =   -5521.11785563 Ry
     estimated scf accuracy    <       0.00459167 Ry

     total magnetization       =    12.27 Bohr mag/cell
     absolute magnetization    =    15.14 Bohr mag/cell

     iteration #453     ecut=    60.00 Ry     beta= 0.50
     CG style diagonalization

---- Real-time Memory Report at c_bands before calling an iterative solver
           449 MiB given to the printing process from OS
           280 MiB allocation reported by mallinfo(arena+hblkhd)
        450596 MiB available memory on the node where the printing process lives
------------------
     ethr =  5.69E-07,  avg # of iterations =  3.0

     negative rho (up, down):  6.342E-04 6.283E-04

     total cpu time spent up to now is   164916.8 secs

     total energy              =   -5521.11817745 Ry
     estimated scf accuracy    <       0.00542256 Ry

     total magnetization       =    12.26 Bohr mag/cell
     absolute magnetization    =    15.13 Bohr mag/cell

     iteration #454     ecut=    60.00 Ry     beta= 0.50
     CG style diagonalization

---- Real-time Memory Report at c_bands before calling an iterative solver
           449 MiB given to the printing process from OS
           280 MiB allocation reported by mallinfo(arena+hblkhd)
        450595 MiB available memory on the node where the printing process lives
------------------
     ethr =  5.69E-07,  avg # of iterations =  3.0

     negative rho (up, down):  6.354E-04 6.383E-04

     total cpu time spent up to now is   165193.9 secs

     total energy              =   -5521.11824884 Ry
     estimated scf accuracy    <       0.00553185 Ry

     total magnetization       =    12.26 Bohr mag/cell
     absolute magnetization    =    15.13 Bohr mag/cell

     iteration #455     ecut=    60.00 Ry     beta= 0.50
     CG style diagonalization

---- Real-time Memory Report at c_bands before calling an iterative solver
           449 MiB given to the printing process from OS
           280 MiB allocation reported by mallinfo(arena+hblkhd)
        450600 MiB available memory on the node where the printing process lives
------------------
     c_bands:  1 eigenvalues not converged
     ethr =  5.69E-07,  avg # of iterations =  3.0

     negative rho (up, down):  6.081E-04 6.197E-04

     total cpu time spent up to now is   165471.3 secs

     total energy              =   -5521.11814363 Ry
     estimated scf accuracy    <       0.00551561 Ry

     total magnetization       =    12.26 Bohr mag/cell
     absolute magnetization    =    15.13 Bohr mag/cell

     iteration #456     ecut=    60.00 Ry     beta= 0.50
     CG style diagonalization

---- Real-time Memory Report at c_bands before calling an iterative solver
           449 MiB given to the printing process from OS
           280 MiB allocation reported by mallinfo(arena+hblkhd)
        450607 MiB available memory on the node where the printing process lives
------------------
     ethr =  5.69E-07,  avg # of iterations =  3.0

     negative rho (up, down):  6.159E-04 6.319E-04

     total cpu time spent up to now is   165746.4 secs

     total energy              =   -5521.11807793 Ry
     estimated scf accuracy    <       0.00525573 Ry

     total magnetization       =    12.26 Bohr mag/cell
     absolute magnetization    =    15.13 Bohr mag/cell

     iteration #457     ecut=    60.00 Ry     beta= 0.50
     CG style diagonalization

---- Real-time Memory Report at c_bands before calling an iterative solver
           449 MiB given to the printing process from OS
           280 MiB allocation reported by mallinfo(arena+hblkhd)
        450602 MiB available memory on the node where the printing process lives
------------------
     ethr =  5.69E-07,  avg # of iterations =  3.0

     negative rho (up, down):  6.346E-04 6.508E-04

     total cpu time spent up to now is   166021.5 secs

     total energy              =   -5521.11805684 Ry
     estimated scf accuracy    <       0.00512998 Ry

     total magnetization       =    12.26 Bohr mag/cell
     absolute magnetization    =    15.13 Bohr mag/cell

     iteration #458     ecut=    60.00 Ry     beta= 0.50
     CG style diagonalization

---- Real-time Memory Report at c_bands before calling an iterative solver
           449 MiB given to the printing process from OS
           280 MiB allocation reported by mallinfo(arena+hblkhd)
        450602 MiB available memory on the node where the printing process lives
------------------
     ethr =  5.69E-07,  avg # of iterations =  3.0

     negative rho (up, down):  6.401E-04 6.560E-04

     total cpu time spent up to now is   166297.8 secs

     total energy              =   -5521.11806364 Ry
     estimated scf accuracy    <       0.00501228 Ry

     total magnetization       =    12.26 Bohr mag/cell
     absolute magnetization    =    15.13 Bohr mag/cell

     iteration #459     ecut=    60.00 Ry     beta= 0.50
     CG style diagonalization

---- Real-time Memory Report at c_bands before calling an iterative solver
           449 MiB given to the printing process from OS
           280 MiB allocation reported by mallinfo(arena+hblkhd)
        450603 MiB available memory on the node where the printing process lives
------------------
     ethr =  5.69E-07,  avg # of iterations =  3.0

     negative rho (up, down):  6.048E-04 6.204E-04

     total cpu time spent up to now is   166572.8 secs

     total energy              =   -5521.11783228 Ry
     estimated scf accuracy    <       0.00501398 Ry

     total magnetization       =    12.26 Bohr mag/cell
     absolute magnetization    =    15.13 Bohr mag/cell

     iteration #460     ecut=    60.00 Ry     beta= 0.50
     CG style diagonalization

---- Real-time Memory Report at c_bands before calling an iterative solver
           449 MiB given to the printing process from OS
           280 MiB allocation reported by mallinfo(arena+hblkhd)
        450600 MiB available memory on the node where the printing process lives
------------------
     ethr =  5.69E-07,  avg # of iterations =  3.0

     negative rho (up, down):  6.244E-04 6.396E-04

     total cpu time spent up to now is   166848.6 secs

     total energy              =   -5521.11803447 Ry
     estimated scf accuracy    <       0.00479546 Ry

     total magnetization       =    12.26 Bohr mag/cell
     absolute magnetization    =    15.13 Bohr mag/cell

     iteration #461     ecut=    60.00 Ry     beta= 0.50
     CG style diagonalization

---- Real-time Memory Report at c_bands before calling an iterative solver
           449 MiB given to the printing process from OS
           280 MiB allocation reported by mallinfo(arena+hblkhd)
        450606 MiB available memory on the node where the printing process lives
------------------
     ethr =  5.69E-07,  avg # of iterations =  3.0

     negative rho (up, down):  6.242E-04 6.354E-04

     total cpu time spent up to now is   167124.8 secs

     total energy              =   -5521.11803855 Ry
     estimated scf accuracy    <       0.00489008 Ry

     total magnetization       =    12.26 Bohr mag/cell
     absolute magnetization    =    15.13 Bohr mag/cell

     iteration #462     ecut=    60.00 Ry     beta= 0.50
     CG style diagonalization

---- Real-time Memory Report at c_bands before calling an iterative solver
           449 MiB given to the printing process from OS
           280 MiB allocation reported by mallinfo(arena+hblkhd)
        450603 MiB available memory on the node where the printing process lives
------------------
     ethr =  5.69E-07,  avg # of iterations =  3.0

     negative rho (up, down):  6.105E-04 6.149E-04

     total cpu time spent up to now is   167400.2 secs

     total energy              =   -5521.11811151 Ry
     estimated scf accuracy    <       0.00489763 Ry

     total magnetization       =    12.26 Bohr mag/cell
     absolute magnetization    =    15.13 Bohr mag/cell

     iteration #463     ecut=    60.00 Ry     beta= 0.50
     CG style diagonalization

---- Real-time Memory Report at c_bands before calling an iterative solver
           449 MiB given to the printing process from OS
           280 MiB allocation reported by mallinfo(arena+hblkhd)
        450600 MiB available memory on the node where the printing process lives
------------------
     ethr =  5.69E-07,  avg # of iterations =  3.0

     negative rho (up, down):  8.928E-04 9.055E-04

     total cpu time spent up to now is   167676.8 secs

     total energy              =   -5521.11725024 Ry
     estimated scf accuracy    <       0.00504719 Ry

     total magnetization       =    12.26 Bohr mag/cell
     absolute magnetization    =    15.13 Bohr mag/cell

     iteration #464     ecut=    60.00 Ry     beta= 0.50
     CG style diagonalization

---- Real-time Memory Report at c_bands before calling an iterative solver
           449 MiB given to the printing process from OS
           280 MiB allocation reported by mallinfo(arena+hblkhd)
        450582 MiB available memory on the node where the printing process lives
------------------
     ethr =  5.69E-07,  avg # of iterations =  3.1

     negative rho (up, down):  9.083E-04 9.262E-04

     total cpu time spent up to now is   167966.3 secs

     total energy              =   -5521.11722018 Ry
     estimated scf accuracy    <       0.00281675 Ry

     total magnetization       =    12.27 Bohr mag/cell
     absolute magnetization    =    15.14 Bohr mag/cell

     iteration #465     ecut=    60.00 Ry     beta= 0.50
     CG style diagonalization

---- Real-time Memory Report at c_bands before calling an iterative solver
           449 MiB given to the printing process from OS
           280 MiB allocation reported by mallinfo(arena+hblkhd)
        450589 MiB available memory on the node where the printing process lives
------------------
     ethr =  5.69E-07,  avg # of iterations =  3.0

     negative rho (up, down):  9.882E-04 9.968E-04

     total cpu time spent up to now is   168242.5 secs

     total energy              =   -5521.11702355 Ry
     estimated scf accuracy    <       0.00240765 Ry

     total magnetization       =    12.28 Bohr mag/cell
     absolute magnetization    =    15.14 Bohr mag/cell

     iteration #466     ecut=    60.00 Ry     beta= 0.50
     CG style diagonalization

---- Real-time Memory Report at c_bands before calling an iterative solver
           449 MiB given to the printing process from OS
           280 MiB allocation reported by mallinfo(arena+hblkhd)
        450595 MiB available memory on the node where the printing process lives
------------------
     ethr =  5.69E-07,  avg # of iterations =  3.1

     negative rho (up, down):  7.990E-04 7.313E-04

     total cpu time spent up to now is   168523.6 secs

     total energy              =   -5521.11722456 Ry
     estimated scf accuracy    <       0.00067633 Ry

     total magnetization       =    12.31 Bohr mag/cell
     absolute magnetization    =    15.15 Bohr mag/cell

     iteration #467     ecut=    60.00 Ry     beta= 0.50
     CG style diagonalization

---- Real-time Memory Report at c_bands before calling an iterative solver
           449 MiB given to the printing process from OS
           280 MiB allocation reported by mallinfo(arena+hblkhd)
        450596 MiB available memory on the node where the printing process lives
------------------
     ethr =  2.31E-07,  avg # of iterations =  3.0

     negative rho (up, down):  7.309E-04 7.138E-04

     total cpu time spent up to now is   168806.9 secs

     total energy              =   -5521.11715218 Ry
     estimated scf accuracy    <       0.00292622 Ry

     total magnetization       =    12.27 Bohr mag/cell
     absolute magnetization    =    15.14 Bohr mag/cell

     iteration #468     ecut=    60.00 Ry     beta= 0.50
     CG style diagonalization

---- Real-time Memory Report at c_bands before calling an iterative solver
           449 MiB given to the printing process from OS
           280 MiB allocation reported by mallinfo(arena+hblkhd)
        450610 MiB available memory on the node where the printing process lives
------------------
     ethr =  2.31E-07,  avg # of iterations =  3.0

     negative rho (up, down):  7.389E-04 7.298E-04

     total cpu time spent up to now is   169085.2 secs

     total energy              =   -5521.11716869 Ry
     estimated scf accuracy    <       0.00197149 Ry

     total magnetization       =    12.28 Bohr mag/cell
     absolute magnetization    =    15.15 Bohr mag/cell

     iteration #469     ecut=    60.00 Ry     beta= 0.50
     CG style diagonalization

---- Real-time Memory Report at c_bands before calling an iterative solver
           449 MiB given to the printing process from OS
           280 MiB allocation reported by mallinfo(arena+hblkhd)
        450602 MiB available memory on the node where the printing process lives
------------------
     ethr =  2.31E-07,  avg # of iterations =  3.0

     negative rho (up, down):  7.252E-04 7.183E-04

     total cpu time spent up to now is   169360.1 secs

     total energy              =   -5521.11716319 Ry
     estimated scf accuracy    <       0.00198858 Ry

     total magnetization       =    12.28 Bohr mag/cell
     absolute magnetization    =    15.15 Bohr mag/cell

     iteration #470     ecut=    60.00 Ry     beta= 0.50
     CG style diagonalization

---- Real-time Memory Report at c_bands before calling an iterative solver
           449 MiB given to the printing process from OS
           280 MiB allocation reported by mallinfo(arena+hblkhd)
        450607 MiB available memory on the node where the printing process lives
------------------
     ethr =  2.31E-07,  avg # of iterations =  3.0

     negative rho (up, down):  7.323E-04 7.277E-04

     total cpu time spent up to now is   169635.2 secs

     total energy              =   -5521.11719896 Ry
     estimated scf accuracy    <       0.00193280 Ry

     total magnetization       =    12.28 Bohr mag/cell
     absolute magnetization    =    15.15 Bohr mag/cell

     iteration #471     ecut=    60.00 Ry     beta= 0.50
     CG style diagonalization

---- Real-time Memory Report at c_bands before calling an iterative solver
           449 MiB given to the printing process from OS
           280 MiB allocation reported by mallinfo(arena+hblkhd)
        450604 MiB available memory on the node where the printing process lives
------------------
     ethr =  2.31E-07,  avg # of iterations =  3.0

     negative rho (up, down):  7.833E-04 7.833E-04

     total cpu time spent up to now is   169910.8 secs

     total energy              =   -5521.11718295 Ry
     estimated scf accuracy    <       0.00218683 Ry

     total magnetization       =    12.28 Bohr mag/cell
     absolute magnetization    =    15.14 Bohr mag/cell

     iteration #472     ecut=    60.00 Ry     beta= 0.50
     CG style diagonalization

---- Real-time Memory Report at c_bands before calling an iterative solver
           449 MiB given to the printing process from OS
           280 MiB allocation reported by mallinfo(arena+hblkhd)
        450606 MiB available memory on the node where the printing process lives
------------------
     ethr =  2.31E-07,  avg # of iterations =  3.0

     negative rho (up, down):  7.825E-04 7.824E-04

     total cpu time spent up to now is   170185.6 secs

     total energy              =   -5521.11718278 Ry
     estimated scf accuracy    <       0.00205886 Ry

     total magnetization       =    12.28 Bohr mag/cell
     absolute magnetization    =    15.14 Bohr mag/cell

     iteration #473     ecut=    60.00 Ry     beta= 0.50
     CG style diagonalization

---- Real-time Memory Report at c_bands before calling an iterative solver
           449 MiB given to the printing process from OS
           280 MiB allocation reported by mallinfo(arena+hblkhd)
        450608 MiB available memory on the node where the printing process lives
------------------
     ethr =  2.31E-07,  avg # of iterations =  3.0

     negative rho (up, down):  7.734E-04 7.758E-04

     total cpu time spent up to now is   170460.1 secs

     total energy              =   -5521.11716744 Ry
     estimated scf accuracy    <       0.00205601 Ry

     total magnetization       =    12.28 Bohr mag/cell
     absolute magnetization    =    15.14 Bohr mag/cell

     iteration #474     ecut=    60.00 Ry     beta= 0.50
     CG style diagonalization

---- Real-time Memory Report at c_bands before calling an iterative solver
           449 MiB given to the printing process from OS
           280 MiB allocation reported by mallinfo(arena+hblkhd)
        450610 MiB available memory on the node where the printing process lives
------------------
     ethr =  2.31E-07,  avg # of iterations =  3.0

     negative rho (up, down):  7.744E-04 7.808E-04

     total cpu time spent up to now is   170735.9 secs

     total energy              =   -5521.11714501 Ry
     estimated scf accuracy    <       0.00191057 Ry

     total magnetization       =    12.28 Bohr mag/cell
     absolute magnetization    =    15.14 Bohr mag/cell

     iteration #475     ecut=    60.00 Ry     beta= 0.50
     CG style diagonalization

---- Real-time Memory Report at c_bands before calling an iterative solver
           449 MiB given to the printing process from OS
           280 MiB allocation reported by mallinfo(arena+hblkhd)
        450604 MiB available memory on the node where the printing process lives
------------------
     ethr =  2.31E-07,  avg # of iterations =  3.0

     negative rho (up, down):  6.334E-04 6.495E-04

     total cpu time spent up to now is   171011.7 secs

     total energy              =   -5521.11721076 Ry
     estimated scf accuracy    <       0.00169552 Ry

     total magnetization       =    12.29 Bohr mag/cell
     absolute magnetization    =    15.15 Bohr mag/cell

     iteration #476     ecut=    60.00 Ry     beta= 0.50
     CG style diagonalization

---- Real-time Memory Report at c_bands before calling an iterative solver
           449 MiB given to the printing process from OS
           280 MiB allocation reported by mallinfo(arena+hblkhd)
        450611 MiB available memory on the node where the printing process lives
------------------
     ethr =  2.31E-07,  avg # of iterations =  3.0

     negative rho (up, down):  7.277E-04 7.706E-04

     total cpu time spent up to now is   171287.3 secs

     total energy              =   -5521.11706573 Ry
     estimated scf accuracy    <       0.00226227 Ry

     total magnetization       =    12.28 Bohr mag/cell
     absolute magnetization    =    15.14 Bohr mag/cell

     iteration #477     ecut=    60.00 Ry     beta= 0.50
     CG style diagonalization

---- Real-time Memory Report at c_bands before calling an iterative solver
           449 MiB given to the printing process from OS
           280 MiB allocation reported by mallinfo(arena+hblkhd)
        450585 MiB available memory on the node where the printing process lives
------------------
     ethr =  2.31E-07,  avg # of iterations =  3.0

     negative rho (up, down):  7.035E-04 7.515E-04

     total cpu time spent up to now is   171563.1 secs

     total energy              =   -5521.11711734 Ry
     estimated scf accuracy    <       0.00100448 Ry

     total magnetization       =    12.30 Bohr mag/cell
     absolute magnetization    =    15.15 Bohr mag/cell

     iteration #478     ecut=    60.00 Ry     beta= 0.50
     CG style diagonalization

---- Real-time Memory Report at c_bands before calling an iterative solver
           449 MiB given to the printing process from OS
           280 MiB allocation reported by mallinfo(arena+hblkhd)
        450591 MiB available memory on the node where the printing process lives
------------------
     ethr =  2.31E-07,  avg # of iterations =  3.0

     negative rho (up, down):  6.625E-04 6.871E-04

     total cpu time spent up to now is   171838.2 secs

     total energy              =   -5521.11717380 Ry
     estimated scf accuracy    <       0.00143649 Ry

     total magnetization       =    12.29 Bohr mag/cell
     absolute magnetization    =    15.15 Bohr mag/cell

     iteration #479     ecut=    60.00 Ry     beta= 0.50
     CG style diagonalization

---- Real-time Memory Report at c_bands before calling an iterative solver
           449 MiB given to the printing process from OS
           280 MiB allocation reported by mallinfo(arena+hblkhd)
        450604 MiB available memory on the node where the printing process lives
------------------
     ethr =  2.31E-07,  avg # of iterations =  3.0

     negative rho (up, down):  6.641E-04 6.849E-04

     total cpu time spent up to now is   172113.3 secs

     total energy              =   -5521.11714635 Ry
     estimated scf accuracy    <       0.00202403 Ry

     total magnetization       =    12.28 Bohr mag/cell
     absolute magnetization    =    15.15 Bohr mag/cell

     iteration #480     ecut=    60.00 Ry     beta= 0.50
     CG style diagonalization

---- Real-time Memory Report at c_bands before calling an iterative solver
           449 MiB given to the printing process from OS
           280 MiB allocation reported by mallinfo(arena+hblkhd)
        450606 MiB available memory on the node where the printing process lives
------------------
     ethr =  2.31E-07,  avg # of iterations =  3.0

     negative rho (up, down):  6.846E-04 7.020E-04

     total cpu time spent up to now is   172387.7 secs

     total energy              =   -5521.11710553 Ry
     estimated scf accuracy    <       0.00176760 Ry

     total magnetization       =    12.29 Bohr mag/cell
     absolute magnetization    =    15.15 Bohr mag/cell

     iteration #481     ecut=    60.00 Ry     beta= 0.50
     CG style diagonalization

---- Real-time Memory Report at c_bands before calling an iterative solver
           449 MiB given to the printing process from OS
           280 MiB allocation reported by mallinfo(arena+hblkhd)
        450608 MiB available memory on the node where the printing process lives
------------------
     ethr =  2.31E-07,  avg # of iterations =  3.0

     negative rho (up, down):  6.921E-04 7.096E-04

     total cpu time spent up to now is   172664.2 secs

     total energy              =   -5521.11709463 Ry
     estimated scf accuracy    <       0.00134909 Ry

     total magnetization       =    12.29 Bohr mag/cell
     absolute magnetization    =    15.15 Bohr mag/cell

     iteration #482     ecut=    60.00 Ry     beta= 0.50
     CG style diagonalization

---- Real-time Memory Report at c_bands before calling an iterative solver
           449 MiB given to the printing process from OS
           280 MiB allocation reported by mallinfo(arena+hblkhd)
        450603 MiB available memory on the node where the printing process lives
------------------
     ethr =  2.31E-07,  avg # of iterations =  3.0

     negative rho (up, down):  6.981E-04 7.130E-04

     total cpu time spent up to now is   172939.4 secs

     total energy              =   -5521.11703782 Ry
     estimated scf accuracy    <       0.00118102 Ry

     total magnetization       =    12.30 Bohr mag/cell
     absolute magnetization    =    15.15 Bohr mag/cell

     iteration #483     ecut=    60.00 Ry     beta= 0.50
     CG style diagonalization

---- Real-time Memory Report at c_bands before calling an iterative solver
           449 MiB given to the printing process from OS
           280 MiB allocation reported by mallinfo(arena+hblkhd)
        450599 MiB available memory on the node where the printing process lives
------------------
     ethr =  2.31E-07,  avg # of iterations =  3.0

     negative rho (up, down):  5.708E-04 5.605E-04

     total cpu time spent up to now is   173215.3 secs

     total energy              =   -5521.11709383 Ry
     estimated scf accuracy    <       0.00042813 Ry

     total magnetization       =    12.31 Bohr mag/cell
     absolute magnetization    =    15.16 Bohr mag/cell

     iteration #484     ecut=    60.00 Ry     beta= 0.50
     CG style diagonalization

---- Real-time Memory Report at c_bands before calling an iterative solver
           449 MiB given to the printing process from OS
           280 MiB allocation reported by mallinfo(arena+hblkhd)
        450597 MiB available memory on the node where the printing process lives
------------------
     ethr =  1.46E-07,  avg # of iterations =  3.0

     negative rho (up, down):  5.711E-04 5.685E-04

     total cpu time spent up to now is   173491.7 secs

     total energy              =   -5521.11685178 Ry
     estimated scf accuracy    <       0.00133779 Ry

     total magnetization       =    12.29 Bohr mag/cell
     absolute magnetization    =    15.15 Bohr mag/cell

     iteration #485     ecut=    60.00 Ry     beta= 0.50
     CG style diagonalization

---- Real-time Memory Report at c_bands before calling an iterative solver
           449 MiB given to the printing process from OS
           280 MiB allocation reported by mallinfo(arena+hblkhd)
        450602 MiB available memory on the node where the printing process lives
------------------
     ethr =  1.46E-07,  avg # of iterations =  3.0

     negative rho (up, down):  5.145E-04 4.936E-04

     total cpu time spent up to now is   173770.9 secs

     total energy              =   -5521.11652677 Ry
     estimated scf accuracy    <       0.00881384 Ry

     total magnetization       =    12.48 Bohr mag/cell
     absolute magnetization    =    15.20 Bohr mag/cell

     iteration #486     ecut=    60.00 Ry     beta= 0.50
     CG style diagonalization

---- Real-time Memory Report at c_bands before calling an iterative solver
           449 MiB given to the printing process from OS
           280 MiB allocation reported by mallinfo(arena+hblkhd)
        450602 MiB available memory on the node where the printing process lives
------------------
     ethr =  1.46E-07,  avg # of iterations =  3.0

     negative rho (up, down):  4.244E-04 4.134E-04

     total cpu time spent up to now is   174050.0 secs

     total energy              =   -5521.11705511 Ry
     estimated scf accuracy    <       0.00119327 Ry

     total magnetization       =    12.29 Bohr mag/cell
     absolute magnetization    =    15.15 Bohr mag/cell

     iteration #487     ecut=    60.00 Ry     beta= 0.50
     CG style diagonalization

---- Real-time Memory Report at c_bands before calling an iterative solver
           449 MiB given to the printing process from OS
           280 MiB allocation reported by mallinfo(arena+hblkhd)
        450604 MiB available memory on the node where the printing process lives
------------------
     c_bands:  1 eigenvalues not converged
     ethr =  1.46E-07,  avg # of iterations =  3.0

     negative rho (up, down):  3.509E-04 3.470E-04

     total cpu time spent up to now is   174328.3 secs

     total energy              =   -5521.11705995 Ry
     estimated scf accuracy    <       0.00062681 Ry

     total magnetization       =    12.31 Bohr mag/cell
     absolute magnetization    =    15.15 Bohr mag/cell

     iteration #488     ecut=    60.00 Ry     beta= 0.50
     CG style diagonalization

---- Real-time Memory Report at c_bands before calling an iterative solver
           449 MiB given to the printing process from OS
           280 MiB allocation reported by mallinfo(arena+hblkhd)
        450605 MiB available memory on the node where the printing process lives
------------------
     ethr =  1.46E-07,  avg # of iterations =  3.0

     negative rho (up, down):  3.095E-04 3.074E-04

     total cpu time spent up to now is   174603.3 secs

     total energy              =   -5521.11705146 Ry
     estimated scf accuracy    <       0.00064221 Ry

     total magnetization       =    12.31 Bohr mag/cell
     absolute magnetization    =    15.15 Bohr mag/cell

     iteration #489     ecut=    60.00 Ry     beta= 0.50
     CG style diagonalization

---- Real-time Memory Report at c_bands before calling an iterative solver
           449 MiB given to the printing process from OS
           280 MiB allocation reported by mallinfo(arena+hblkhd)
        450611 MiB available memory on the node where the printing process lives
------------------
     ethr =  1.46E-07,  avg # of iterations =  3.0

     negative rho (up, down):  2.762E-04 2.786E-04

     total cpu time spent up to now is   174883.3 secs

     total energy              =   -5521.11699607 Ry
     estimated scf accuracy    <       0.00050435 Ry

     total magnetization       =    12.31 Bohr mag/cell
     absolute magnetization    =    15.15 Bohr mag/cell

     iteration #490     ecut=    60.00 Ry     beta= 0.50
     CG style diagonalization

---- Real-time Memory Report at c_bands before calling an iterative solver
           449 MiB given to the printing process from OS
           280 MiB allocation reported by mallinfo(arena+hblkhd)
        450566 MiB available memory on the node where the printing process lives
------------------
     ethr =  1.46E-07,  avg # of iterations =  3.0

     negative rho (up, down):  2.363E-04 2.458E-04

     total cpu time spent up to now is   175159.5 secs

     total energy              =   -5521.11703983 Ry
     estimated scf accuracy    <       0.00014844 Ry

     total magnetization       =    12.36 Bohr mag/cell
     absolute magnetization    =    15.17 Bohr mag/cell

     iteration #491     ecut=    60.00 Ry     beta= 0.50
     CG style diagonalization

---- Real-time Memory Report at c_bands before calling an iterative solver
           449 MiB given to the printing process from OS
           280 MiB allocation reported by mallinfo(arena+hblkhd)
        450583 MiB available memory on the node where the printing process lives
------------------
     ethr =  5.07E-08,  avg # of iterations =  3.0

     negative rho (up, down):  2.205E-04 2.297E-04

     total cpu time spent up to now is   175434.7 secs

     total energy              =   -5521.11702155 Ry
     estimated scf accuracy    <       0.00047517 Ry

     total magnetization       =    12.38 Bohr mag/cell
     absolute magnetization    =    15.17 Bohr mag/cell

     iteration #492     ecut=    60.00 Ry     beta= 0.50
     CG style diagonalization

---- Real-time Memory Report at c_bands before calling an iterative solver
           449 MiB given to the printing process from OS
           280 MiB allocation reported by mallinfo(arena+hblkhd)
        450588 MiB available memory on the node where the printing process lives
------------------
     ethr =  5.07E-08,  avg # of iterations =  3.0

     negative rho (up, down):  2.133E-04 2.238E-04

     total cpu time spent up to now is   175710.4 secs

     total energy              =   -5521.11703050 Ry
     estimated scf accuracy    <       0.00002008 Ry

     total magnetization       =    12.35 Bohr mag/cell
     absolute magnetization    =    15.17 Bohr mag/cell

     iteration #493     ecut=    60.00 Ry     beta= 0.50
     CG style diagonalization

---- Real-time Memory Report at c_bands before calling an iterative solver
           449 MiB given to the printing process from OS
           280 MiB allocation reported by mallinfo(arena+hblkhd)
        450603 MiB available memory on the node where the printing process lives
------------------
     ethr =  6.85E-09,  avg # of iterations =  3.0

     negative rho (up, down):  2.070E-04 2.192E-04

     total cpu time spent up to now is   175985.0 secs

     total energy              =   -5521.11702737 Ry
     estimated scf accuracy    <       0.00006602 Ry

     total magnetization       =    12.36 Bohr mag/cell
     absolute magnetization    =    15.17 Bohr mag/cell

     iteration #494     ecut=    60.00 Ry     beta= 0.50
     CG style diagonalization

---- Real-time Memory Report at c_bands before calling an iterative solver
           449 MiB given to the printing process from OS
           280 MiB allocation reported by mallinfo(arena+hblkhd)
        450602 MiB available memory on the node where the printing process lives
------------------
     ethr =  6.85E-09,  avg # of iterations =  3.0

     negative rho (up, down):  2.034E-04 2.134E-04

     Magnetic moment per site  (integrated on atomic sphere of radius R)
     atom   1 (R=0.204)  charge= 16.5663  magn=  0.7839
     atom   2 (R=0.204)  charge= 16.5668  magn=  0.7840
     atom   3 (R=0.204)  charge= 16.5668  magn=  0.7840
     atom   4 (R=0.204)  charge= 16.5671  magn=  0.7846
     atom   5 (R=0.204)  charge= 16.6503  magn=  0.7289
     atom   6 (R=0.204)  charge= 16.6503  magn=  0.7289
     atom   7 (R=0.204)  charge= 16.6503  magn=  0.7289
     atom   8 (R=0.204)  charge= 16.6503  magn=  0.7289
     atom   9 (R=0.204)  charge= 16.6353  magn=  0.7297
     atom  10 (R=0.204)  charge= 16.6374  magn=  0.7275
     atom  11 (R=0.204)  charge= 16.6374  magn=  0.7275
     atom  12 (R=0.204)  charge= 16.6416  magn=  0.7270
     atom  13 (R=0.204)  charge= 16.5529  magn=  0.7908
     atom  14 (R=0.204)  charge= 16.5529  magn=  0.7908
     atom  15 (R=0.204)  charge= 16.5529  magn=  0.7908
     atom  16 (R=0.204)  charge= 16.5529  magn=  0.7908
     atom  17 (R=0.413)  charge=  5.0134  magn=  1.0368

     total cpu time spent up to now is   176261.0 secs

     End of self-consistent calculation

 ------ SPIN UP ------------


          k = 0.0000 0.0000 0.0000 ( 33665 PWs)   bands (ev):

  -102.3616-102.3488-102.3488-102.3389-102.3266-102.3125-102.3104-102.3004
  -101.9717-101.9620-101.9615-101.9562-101.9517-101.9462-101.9462-101.9361
   -62.8016 -62.7918 -62.7870 -62.7870 -62.7819 -62.7735 -62.7735 -62.7382
   -62.7126 -62.7126 -62.7069 -62.7025 -62.7025 -62.6943 -62.6943 -62.6896
   -62.6715 -62.6715 -62.6560 -62.6536 -62.6269 -62.6269 -62.6147 -62.6147
   -62.4712 -62.4712 -62.4634 -62.4634 -62.4589 -62.4562 -62.4497 -62.4497
   -62.3709 -62.3709 -62.3632 -62.3632 -62.3563 -62.3563 -62.3508 -62.3470
   -62.2115 -62.2030 -62.2028 -62.1962 -62.1944 -62.1855 -62.1855 -62.1779
   -11.6937  -6.8130  -5.1188  -3.2802  -3.0790  -3.0790  -3.0436  -3.0407
    -2.9446  -2.8282  -2.7831  -2.4520  -2.4162  -2.4162  -2.3095  -2.3080
    -2.2472  -2.2472  -2.0939  -2.0619  -1.9123  -1.6076  -1.6076  -1.3797
    -1.1595  -1.1595  -1.1437  -1.1419  -1.0769  -1.0405  -1.0405  -1.0302
    -1.0208  -0.8842  -0.8842  -0.7698  -0.7698  -0.7543  -0.7543  -0.7519
    -0.7487  -0.7272  -0.7238  -0.7085  -0.7085  -0.5234  -0.5234  -0.2549
    -0.2448  -0.2433  -0.2433  -0.2319  -0.1670  -0.1457  -0.1457   0.0228
     0.2230   0.3421   0.3464   0.3881   0.3881   0.4009   0.4009   0.4016
     0.4033   0.4186   0.4246   0.4915   0.4999   0.4999   0.5017   0.5017
     0.7153   0.7188   0.7233   0.7264   0.7274   0.7326   0.7326   0.8034
     0.8338   0.8338   0.9070   0.9358   1.1826   1.2001   1.5043   1.6403
     1.9921   1.9921   2.0012   2.0012   2.3773   2.3773   2.3932   2.3985
     3.1180   4.9392   4.9392   5.6575   5.9019   5.9019   5.9075   5.9077
     6.0356   6.7838   7.2632   7.2632   7.3071   8.4465   8.6167   8.6627

     occupation numbers 
     1.0000   1.0000   1.0000   1.0000   1.0000   1.0000   1.0000   1.0000
     1.0000   1.0000   1.0000   1.0000   1.0000   1.0000   1.0000   1.0000
     1.0000   1.0000   1.0000   1.0000   1.0000   1.0000   1.0000   1.0000
     1.0000   1.0000   1.0000   1.0000   1.0000   1.0000   1.0000   1.0000
     1.0000   1.0000   1.0000   1.0000   1.0000   1.0000   1.0000   1.0000
     1.0000   1.0000   1.0000   1.0000   1.0000   1.0000   1.0000   1.0000
     1.0000   1.0000   1.0000   1.0000   1.0000   1.0000   1.0000   1.0000
     1.0000   1.0000   1.0000   1.0000   1.0000   1.0000   1.0000   1.0000
     1.0000   1.0000   1.0000   1.0000   1.0000   1.0000   1.0000   1.0000
     1.0000   1.0000   1.0000   1.0000   1.0000   1.0000   1.0000   1.0000
     1.0000   1.0000   1.0000   1.0000   1.0000   1.0000   1.0000   1.0000
     1.0000   1.0000   1.0000   1.0000   1.0000   1.0000   1.0000   1.0000
     1.0000   1.0000   1.0000   1.0000   1.0000   1.0000   1.0000   1.0000
     1.0000   1.0000   1.0000   1.0000   1.0000   1.0000   1.0000   1.0000
     1.0000   1.0000   1.0000   1.0000   1.0000   1.0000   1.0000   1.0000
     1.0000   1.0000   1.0000   1.0000   1.0000   1.0000   1.0000   1.0000
     1.0000   1.0000   1.0000   1.0000   1.0000   1.0000   1.0000   1.0000
     1.0000   1.0000   1.0000   1.0000   1.0000   1.0000   1.0000   1.0000
     1.0000   1.0000   1.0000   1.0000   0.9964   0.9949   0.3084   0.0285
     0.0000   0.0000   0.0000   0.0000   0.0000   0.0000   0.0000   0.0000
     0.0000   0.0000   0.0000   0.0000   0.0000   0.0000   0.0000   0.0000
     0.0000   0.0000   0.0000   0.0000   0.0000   0.0000   0.0000   0.0000

          k = 0.0000 0.1250 0.0000 ( 33695 PWs)   bands (ev):

  -102.3611-102.3493-102.3484-102.3393-102.3264-102.3124-102.3103-102.3007
  -101.9713-101.9622-101.9613-101.9558-101.9521-101.9466-101.9458-101.9365
   -62.8002 -62.7898 -62.7860 -62.7854 -62.7802 -62.7725 -62.7710 -62.7401
   -62.7127 -62.7115 -62.7056 -62.7024 -62.7013 -62.6954 -62.6937 -62.6899
   -62.6724 -62.6710 -62.6588 -62.6550 -62.6308 -62.6269 -62.6186 -62.6147
   -62.4709 -62.4675 -62.4637 -62.4597 -62.4577 -62.4533 -62.4499 -62.4459
   -62.3748 -62.3707 -62.3671 -62.3635 -62.3602 -62.3561 -62.3535 -62.3483
   -62.2111 -62.2032 -62.2026 -62.1965 -62.1941 -62.1858 -62.1852 -62.1782
   -11.6929  -6.7145  -5.0285  -3.3125  -3.2015  -3.0478  -3.0177  -2.9830
    -2.8867  -2.7955  -2.7515  -2.4460  -2.4215  -2.3936  -2.3926  -2.2697
    -2.2098  -2.1054  -2.0585  -2.0276  -1.8892  -1.6072  -1.6004  -1.3662
    -1.3193  -1.2062  -1.1914  -1.0758  -1.0675  -1.0674  -1.0554  -1.0320
    -0.9643  -0.8983  -0.8830  -0.8440  -0.8187  -0.7889  -0.7720  -0.7561
    -0.7406  -0.7300  -0.6958  -0.6872  -0.6695  -0.5487  -0.5450  -0.4201
    -0.2352  -0.2241  -0.2167  -0.1904  -0.1848  -0.1645   0.0268   0.1065
     0.1659   0.1772   0.2155   0.2271   0.3210   0.3226   0.3276   0.3589
     0.3717   0.4155   0.4772   0.4804   0.5182   0.5772   0.5886   0.5890
     0.6624   0.6636   0.6798   0.6845   0.6941   0.6984   0.7018   0.7655
     0.7811   0.8395   0.8479   0.8660   1.1022   1.1177   1.1655   1.4375
     1.5784   1.7873   2.2246   2.2275   2.4719   2.4723   2.4930   3.3469
     3.4839   4.7396   4.7398   5.7627   5.8996   5.9696   5.9772   6.1301
     6.2338   6.8782   6.9088   6.9097   7.3895   8.2803   8.5414   8.7243

     occupation numbers 
     1.0000   1.0000   1.0000   1.0000   1.0000   1.0000   1.0000   1.0000
     1.0000   1.0000   1.0000   1.0000   1.0000   1.0000   1.0000   1.0000
     1.0000   1.0000   1.0000   1.0000   1.0000   1.0000   1.0000   1.0000
     1.0000   1.0000   1.0000   1.0000   1.0000   1.0000   1.0000   1.0000
     1.0000   1.0000   1.0000   1.0000   1.0000   1.0000   1.0000   1.0000
     1.0000   1.0000   1.0000   1.0000   1.0000   1.0000   1.0000   1.0000
     1.0000   1.0000   1.0000   1.0000   1.0000   1.0000   1.0000   1.0000
     1.0000   1.0000   1.0000   1.0000   1.0000   1.0000   1.0000   1.0000
     1.0000   1.0000   1.0000   1.0000   1.0000   1.0000   1.0000   1.0000
     1.0000   1.0000   1.0000   1.0000   1.0000   1.0000   1.0000   1.0000
     1.0000   1.0000   1.0000   1.0000   1.0000   1.0000   1.0000   1.0000
     1.0000   1.0000   1.0000   1.0000   1.0000   1.0000   1.0000   1.0000
     1.0000   1.0000   1.0000   1.0000   1.0000   1.0000   1.0000   1.0000
     1.0000   1.0000   1.0000   1.0000   1.0000   1.0000   1.0000   1.0000
     1.0000   1.0000   1.0000   1.0000   1.0000   1.0000   1.0000   1.0000
     1.0000   1.0000   1.0000   1.0000   1.0000   1.0000   1.0000   1.0000
     1.0000   1.0000   1.0000   1.0000   1.0000   1.0000   1.0000   1.0000
     1.0000   1.0000   1.0000   1.0000   1.0000   1.0000   1.0000   1.0000
     1.0000   1.0000   1.0000   1.0000   0.9993   0.9990   0.9974   0.6290
     0.0920   0.0016   0.0000   0.0000   0.0000   0.0000   0.0000   0.0000
     0.0000   0.0000   0.0000   0.0000   0.0000   0.0000   0.0000   0.0000
     0.0000   0.0000   0.0000   0.0000   0.0000   0.0000   0.0000   0.0000

          k = 0.0000 0.2500 0.0000 ( 33669 PWs)   bands (ev):

  -102.3598-102.3507-102.3474-102.3403-102.3260-102.3124-102.3099-102.3016
  -101.9702-101.9632-101.9603-101.9548-101.9532-101.9476-101.9447-101.9376
   -62.7969 -62.7864 -62.7831 -62.7811 -62.7743 -62.7699 -62.7650 -62.7430
   -62.7109 -62.7104 -62.7085 -62.7013 -62.6987 -62.6966 -62.6921 -62.6860
   -62.6746 -62.6702 -62.6672 -62.6573 -62.6416 -62.6294 -62.6267 -62.6146
   -62.4701 -62.4643 -62.4570 -62.4564 -62.4507 -62.4490 -62.4430 -62.4353
   -62.3859 -62.3780 -62.3712 -62.3700 -62.3642 -62.3638 -62.3552 -62.3497
   -62.2101 -62.2041 -62.2019 -62.1972 -62.1931 -62.1867 -62.1844 -62.1790
   -11.6912  -6.4235  -4.7666  -3.8816  -3.1737  -2.9925  -2.8496  -2.8216
    -2.7260  -2.7017  -2.6615  -2.4835  -2.3471  -2.3321  -2.3312  -2.1984
    -2.1433  -2.0439  -1.9595  -1.9293  -1.8141  -1.6095  -1.5825  -1.5084
    -1.3628  -1.3514  -1.3236  -1.1087  -1.0859  -1.0859  -1.0555  -0.9743
    -0.9316  -0.9261  -0.9215  -0.8952  -0.8801  -0.8366  -0.7881  -0.7254
    -0.7110  -0.7046  -0.6718  -0.6493  -0.6374  -0.6152  -0.6097  -0.5895
    -0.2509  -0.2297  -0.2065  -0.1973  -0.1890  -0.1431  -0.1173   0.0428
     0.1132   0.1142   0.1208   0.1508   0.2013   0.2113   0.2391   0.2450
     0.2467   0.2795   0.3826   0.3926   0.5299   0.5423   0.5463   0.5508
     0.5602   0.5889   0.5958   0.6058   0.6063   0.6499   0.7246   0.7248
     0.7346   0.7496   0.7512   0.7888   0.8552   0.8638   0.9430   0.9462
     1.6065   2.1462   2.2435   2.5848   2.5923   2.9102   2.9184   3.9222
     4.2876   4.2892   4.4549   6.0708   6.1523   6.1553   6.1645   6.1741
     6.1860   6.4133   6.7111   7.1611   7.6370   8.1967   8.5391   8.5557

     occupation numbers 
     1.0000   1.0000   1.0000   1.0000   1.0000   1.0000   1.0000   1.0000
     1.0000   1.0000   1.0000   1.0000   1.0000   1.0000   1.0000   1.0000
     1.0000   1.0000   1.0000   1.0000   1.0000   1.0000   1.0000   1.0000
     1.0000   1.0000   1.0000   1.0000   1.0000   1.0000   1.0000   1.0000
     1.0000   1.0000   1.0000   1.0000   1.0000   1.0000   1.0000   1.0000
     1.0000   1.0000   1.0000   1.0000   1.0000   1.0000   1.0000   1.0000
     1.0000   1.0000   1.0000   1.0000   1.0000   1.0000   1.0000   1.0000
     1.0000   1.0000   1.0000   1.0000   1.0000   1.0000   1.0000   1.0000
     1.0000   1.0000   1.0000   1.0000   1.0000   1.0000   1.0000   1.0000
     1.0000   1.0000   1.0000   1.0000   1.0000   1.0000   1.0000   1.0000
     1.0000   1.0000   1.0000   1.0000   1.0000   1.0000   1.0000   1.0000
     1.0000   1.0000   1.0000   1.0000   1.0000   1.0000   1.0000   1.0000
     1.0000   1.0000   1.0000   1.0000   1.0000   1.0000   1.0000   1.0000
     1.0000   1.0000   1.0000   1.0000   1.0000   1.0000   1.0000   1.0000
     1.0000   1.0000   1.0000   1.0000   1.0000   1.0000   1.0000   1.0000
     1.0000   1.0000   1.0000   1.0000   1.0000   1.0000   1.0000   1.0000
     1.0000   1.0000   1.0000   1.0000   1.0000   1.0000   1.0000   1.0000
     1.0000   1.0000   1.0000   1.0000   1.0000   1.0000   1.0000   1.0000
     1.0000   1.0000   1.0000   1.0000   1.0000   1.0000   1.0000   1.0000
     0.0546   0.0000   0.0000   0.0000   0.0000   0.0000   0.0000   0.0000
     0.0000   0.0000   0.0000   0.0000   0.0000   0.0000   0.0000   0.0000
     0.0000   0.0000   0.0000   0.0000   0.0000   0.0000   0.0000   0.0000

          k = 0.0000 0.3750 0.0000 ( 33614 PWs)   bands (ev):

  -102.3577-102.3528-102.3458-102.3420-102.3255-102.3126-102.3091-102.3026
  -101.9686-101.9648-101.9587-101.9548-101.9532-101.9492-101.9432-101.9391
   -62.7930 -62.7863 -62.7787 -62.7754 -62.7719 -62.7634 -62.7588 -62.7391
   -62.7221 -62.7130 -62.7067 -62.6979 -62.6976 -62.6904 -62.6859 -62.6807
   -62.6779 -62.6774 -62.6665 -62.6602 -62.6568 -62.6451 -62.6265 -62.6145
   -62.4690 -62.4653 -62.4550 -62.4519 -62.4410 -62.4330 -62.4273 -62.4194
   -62.4022 -62.3942 -62.3874 -62.3797 -62.3690 -62.3651 -62.3541 -62.3510
   -62.2087 -62.2054 -62.2009 -62.1983 -62.1916 -62.1881 -62.1832 -62.1802
   -11.6894  -5.9538  -4.6120  -4.3627  -3.4547  -2.7279  -2.6278  -2.6111
    -2.5648  -2.5346  -2.5050  -2.4776  -2.3097  -2.2733  -2.2118  -2.1745
    -2.1540  -2.1161  -1.8322  -1.7976  -1.7254  -1.6558  -1.5808  -1.5595
    -1.5336  -1.5270  -1.2689  -1.1563  -1.1532  -1.1230  -1.1001  -0.9845
    -0.9731  -0.9643  -0.9196  -0.8833  -0.8771  -0.8694  -0.8195  -0.7495
    -0.7114  -0.6885  -0.6802  -0.6795  -0.6471  -0.5747  -0.4671  -0.4643
    -0.4631  -0.3770  -0.3473  -0.3345  -0.2550  -0.2219  -0.1308  -0.1142
    -0.0481   0.0503   0.0519   0.0833   0.1333   0.1428   0.1431   0.1596
     0.1642   0.1789   0.1872   0.2968   0.3032   0.3033   0.3791   0.4926
     0.5087   0.5344   0.5483   0.5534   0.5823   0.6772   0.6882   0.7177
     0.7676   0.7802   0.7842   0.7971   0.8358   0.8443   0.8498   0.8563
     1.6155   1.6626   2.8292   2.9187   2.9292   3.6369   3.6398   3.7861
     3.7915   4.1820   4.6770   5.3042   5.3106   6.4332   6.5150   6.5339
     6.5652   6.8832   7.3309   7.6286   7.6844   7.7071   8.0287   8.1044

     occupation numbers 
     1.0000   1.0000   1.0000   1.0000   1.0000   1.0000   1.0000   1.0000
     1.0000   1.0000   1.0000   1.0000   1.0000   1.0000   1.0000   1.0000
     1.0000   1.0000   1.0000   1.0000   1.0000   1.0000   1.0000   1.0000
     1.0000   1.0000   1.0000   1.0000   1.0000   1.0000   1.0000   1.0000
     1.0000   1.0000   1.0000   1.0000   1.0000   1.0000   1.0000   1.0000
     1.0000   1.0000   1.0000   1.0000   1.0000   1.0000   1.0000   1.0000
     1.0000   1.0000   1.0000   1.0000   1.0000   1.0000   1.0000   1.0000
     1.0000   1.0000   1.0000   1.0000   1.0000   1.0000   1.0000   1.0000
     1.0000   1.0000   1.0000   1.0000   1.0000   1.0000   1.0000   1.0000
     1.0000   1.0000   1.0000   1.0000   1.0000   1.0000   1.0000   1.0000
     1.0000   1.0000   1.0000   1.0000   1.0000   1.0000   1.0000   1.0000
     1.0000   1.0000   1.0000   1.0000   1.0000   1.0000   1.0000   1.0000
     1.0000   1.0000   1.0000   1.0000   1.0000   1.0000   1.0000   1.0000
     1.0000   1.0000   1.0000   1.0000   1.0000   1.0000   1.0000   1.0000
     1.0000   1.0000   1.0000   1.0000   1.0000   1.0000   1.0000   1.0000
     1.0000   1.0000   1.0000   1.0000   1.0000   1.0000   1.0000   1.0000
     1.0000   1.0000   1.0000   1.0000   1.0000   1.0000   1.0000   1.0000
     1.0000   1.0000   1.0000   1.0000   1.0000   1.0000   1.0000   1.0000
     1.0000   1.0000   1.0000   1.0000   1.0000   1.0000   1.0000   1.0000
     0.0460   0.0185   0.0000   0.0000   0.0000   0.0000   0.0000   0.0000
     0.0000   0.0000   0.0000   0.0000   0.0000   0.0000   0.0000   0.0000
     0.0000   0.0000   0.0000   0.0000   0.0000   0.0000   0.0000   0.0000

          k = 0.0000-0.5000 0.0000 ( 33596 PWs)   bands (ev):

  -102.3553-102.3552-102.3439-102.3439-102.3253-102.3127-102.3086-102.3031
  -101.9671-101.9663-101.9571-101.9563-101.9519-101.9506-101.9418-101.9405
   -62.7902 -62.7877 -62.7756 -62.7733 -62.7703 -62.7672 -62.7452 -62.7361
   -62.7325 -62.7170 -62.7047 -62.6977 -62.6917 -62.6905 -62.6832 -62.6818
   -62.6795 -62.6689 -62.6636 -62.6633 -62.6633 -62.6617 -62.6264 -62.6145
   -62.4683 -62.4659 -62.4538 -62.4530 -62.4243 -62.4191 -62.4165 -62.4126
   -62.4108 -62.4048 -62.4022 -62.3944 -62.3685 -62.3657 -62.3530 -62.3521
   -62.2072 -62.2069 -62.1998 -62.1994 -62.1904 -62.1893 -62.1821 -62.1813
   -11.6886  -5.3330  -5.3326  -3.9098  -3.8656  -2.5404  -2.5380  -2.4746
    -2.4715  -2.4700  -2.4681  -2.3021  -2.2978  -2.2874  -2.2810  -2.2485
    -2.2303  -1.9739  -1.9546  -1.7268  -1.7123  -1.6832  -1.6655  -1.4257
    -1.4123  -1.4120  -1.3676  -1.3563  -1.3258  -1.1975  -1.1885  -0.9778
    -0.9366  -0.9143  -0.8759  -0.8400  -0.8298  -0.8073  -0.8007  -0.7901
    -0.7854  -0.7796  -0.7550  -0.6614  -0.6594  -0.4899  -0.4711  -0.4651
    -0.4547  -0.3928  -0.3743  -0.2184  -0.1920  -0.1887  -0.1832  -0.1657
    -0.1576  -0.1540  -0.1234  -0.0481  -0.0332   0.0601   0.0790   0.1911
     0.1971   0.2089   0.2117   0.2312   0.2531   0.2590   0.2708   0.3840
     0.3968   0.5435   0.5587   0.6053   0.6121   0.6177   0.6222   0.7833
     0.7843   0.7916   0.7953   0.8042   0.8123   0.8139   0.8183   1.2098
     1.2333   1.6298   3.3200   3.3216   3.3232   3.3383   3.4919   3.4989
     4.4297   4.4475   4.4708   4.4758   5.5178   5.5590   6.9941   7.0226
     7.0282   7.0460   7.1331   7.3179   7.5201   7.5439   8.2148   8.3635

     occupation numbers 
     1.0000   1.0000   1.0000   1.0000   1.0000   1.0000   1.0000   1.0000
     1.0000   1.0000   1.0000   1.0000   1.0000   1.0000   1.0000   1.0000
     1.0000   1.0000   1.0000   1.0000   1.0000   1.0000   1.0000   1.0000
     1.0000   1.0000   1.0000   1.0000   1.0000   1.0000   1.0000   1.0000
     1.0000   1.0000   1.0000   1.0000   1.0000   1.0000   1.0000   1.0000
     1.0000   1.0000   1.0000   1.0000   1.0000   1.0000   1.0000   1.0000
     1.0000   1.0000   1.0000   1.0000   1.0000   1.0000   1.0000   1.0000
     1.0000   1.0000   1.0000   1.0000   1.0000   1.0000   1.0000   1.0000
     1.0000   1.0000   1.0000   1.0000   1.0000   1.0000   1.0000   1.0000
     1.0000   1.0000   1.0000   1.0000   1.0000   1.0000   1.0000   1.0000
     1.0000   1.0000   1.0000   1.0000   1.0000   1.0000   1.0000   1.0000
     1.0000   1.0000   1.0000   1.0000   1.0000   1.0000   1.0000   1.0000
     1.0000   1.0000   1.0000   1.0000   1.0000   1.0000   1.0000   1.0000
     1.0000   1.0000   1.0000   1.0000   1.0000   1.0000   1.0000   1.0000
     1.0000   1.0000   1.0000   1.0000   1.0000   1.0000   1.0000   1.0000
     1.0000   1.0000   1.0000   1.0000   1.0000   1.0000   1.0000   1.0000
     1.0000   1.0000   1.0000   1.0000   1.0000   1.0000   1.0000   1.0000
     1.0000   1.0000   1.0000   1.0000   1.0000   1.0000   1.0000   1.0000
     1.0000   1.0000   1.0000   1.0000   1.0000   1.0000   1.0000   0.9938
     0.9902   0.0350   0.0000   0.0000   0.0000   0.0000   0.0000   0.0000
     0.0000   0.0000   0.0000   0.0000   0.0000   0.0000   0.0000   0.0000
     0.0000   0.0000   0.0000   0.0000   0.0000   0.0000   0.0000   0.0000

          k = 0.1250 0.1250 0.0000 ( 33677 PWs)   bands (ev):

  -102.3607-102.3489-102.3489-102.3397-102.3262-102.3123-102.3103-102.3010
  -101.9709-101.9620-101.9615-101.9555-101.9525-101.9462-101.9462-101.9369
   -62.7987 -62.7879 -62.7846 -62.7839 -62.7787 -62.7703 -62.7697 -62.7417
   -62.7130 -62.7105 -62.7051 -62.7012 -62.7009 -62.6962 -62.6929 -62.6897
   -62.6753 -62.6695 -62.6601 -62.6576 -62.6311 -62.6304 -62.6187 -62.6184
   -62.4672 -62.4672 -62.4599 -62.4599 -62.4548 -62.4521 -62.4462 -62.4462
   -62.3746 -62.3745 -62.3673 -62.3673 -62.3600 -62.3599 -62.3549 -62.3511
   -62.2108 -62.2030 -62.2029 -62.1968 -62.1937 -62.1855 -62.1855 -62.1785
   -11.6922  -6.6165  -4.9385  -3.2487  -3.2471  -3.1228  -2.9876  -2.9864
    -2.8294  -2.7860  -2.7040  -2.4083  -2.4073  -2.3902  -2.3742  -2.3612
    -2.0588  -2.0566  -2.0372  -1.9883  -1.8673  -1.6113  -1.5814  -1.3727
    -1.3701  -1.3535  -1.1119  -1.1108  -1.0908  -1.0882  -1.0154  -0.9833
    -0.9796  -0.8982  -0.8958  -0.8943  -0.8915  -0.7887  -0.7678  -0.7635
    -0.7582  -0.6971  -0.6963  -0.6563  -0.6522  -0.5926  -0.5529  -0.5240
    -0.2062  -0.2060  -0.1880  -0.1819  -0.1805  -0.1581   0.0205   0.0656
     0.0719   0.1021   0.1503   0.1509   0.1923   0.2813   0.3048   0.3242
     0.4547   0.4650   0.4840   0.5141   0.5329   0.5731   0.5765   0.5897
     0.5901   0.6250   0.6276   0.6639   0.6645   0.6714   0.6986   0.7294
     0.7404   0.7503   0.8228   0.8272   1.0225   1.0679   1.4361   1.4365
     1.4866   1.4872   1.5943   1.9625   2.6996   2.7043   3.5407   3.5843
     3.6019   3.8707   5.3968   5.8666   5.8956   5.9582   5.9584   6.2247
     6.3254   6.3266   6.9727   7.4723   7.6047   8.2810   8.3285   8.3475

     occupation numbers 
     1.0000   1.0000   1.0000   1.0000   1.0000   1.0000   1.0000   1.0000
     1.0000   1.0000   1.0000   1.0000   1.0000   1.0000   1.0000   1.0000
     1.0000   1.0000   1.0000   1.0000   1.0000   1.0000   1.0000   1.0000
     1.0000   1.0000   1.0000   1.0000   1.0000   1.0000   1.0000   1.0000
     1.0000   1.0000   1.0000   1.0000   1.0000   1.0000   1.0000   1.0000
     1.0000   1.0000   1.0000   1.0000   1.0000   1.0000   1.0000   1.0000
     1.0000   1.0000   1.0000   1.0000   1.0000   1.0000   1.0000   1.0000
     1.0000   1.0000   1.0000   1.0000   1.0000   1.0000   1.0000   1.0000
     1.0000   1.0000   1.0000   1.0000   1.0000   1.0000   1.0000   1.0000
     1.0000   1.0000   1.0000   1.0000   1.0000   1.0000   1.0000   1.0000
     1.0000   1.0000   1.0000   1.0000   1.0000   1.0000   1.0000   1.0000
     1.0000   1.0000   1.0000   1.0000   1.0000   1.0000   1.0000   1.0000
     1.0000   1.0000   1.0000   1.0000   1.0000   1.0000   1.0000   1.0000
     1.0000   1.0000   1.0000   1.0000   1.0000   1.0000   1.0000   1.0000
     1.0000   1.0000   1.0000   1.0000   1.0000   1.0000   1.0000   1.0000
     1.0000   1.0000   1.0000   1.0000   1.0000   1.0000   1.0000   1.0000
     1.0000   1.0000   1.0000   1.0000   1.0000   1.0000   1.0000   1.0000
     1.0000   1.0000   1.0000   1.0000   1.0000   1.0000   1.0000   1.0000
     1.0000   1.0000   1.0000   1.0000   0.9999   0.9996   0.6355   0.6338
     0.3887   0.3859   0.0686   0.0000   0.0000   0.0000   0.0000   0.0000
     0.0000   0.0000   0.0000   0.0000   0.0000   0.0000   0.0000   0.0000
     0.0000   0.0000   0.0000   0.0000   0.0000   0.0000   0.0000   0.0000

          k = 0.1250 0.2500 0.0000 ( 33628 PWs)   bands (ev):

  -102.3593-102.3503-102.3478-102.3407-102.3258-102.3121-102.3100-102.3019
  -101.9698-101.9628-101.9606-101.9544-101.9536-101.9473-101.9451-101.9379
   -62.7951 -62.7845 -62.7814 -62.7793 -62.7728 -62.7678 -62.7636 -62.7443
   -62.7124 -62.7089 -62.7083 -62.7004 -62.6977 -62.6963 -62.6916 -62.6861
   -62.6787 -62.6690 -62.6675 -62.6602 -62.6415 -62.6306 -62.6292 -62.6184
   -62.4664 -62.4606 -62.4566 -62.4527 -62.4492 -62.4470 -62.4426 -62.4355
   -62.3856 -62.3782 -62.3739 -62.3709 -62.3680 -62.3642 -62.3591 -62.3535
   -62.2098 -62.2038 -62.2022 -62.1975 -62.1927 -62.1864 -62.1847 -62.1793
   -11.6904  -6.3268  -4.6775  -3.8086  -3.1069  -3.0730  -2.9132  -2.8189
    -2.7436  -2.6706  -2.5857  -2.4362  -2.3311  -2.3163  -2.3012  -2.2938
    -1.9888  -1.9733  -1.9686  -1.8775  -1.7972  -1.5973  -1.5591  -1.5504
    -1.4910  -1.3297  -1.2611  -1.1699  -1.1560  -1.0777  -1.0373  -0.9555
    -0.9408  -0.9323  -0.9298  -0.8934  -0.8610  -0.8450  -0.8257  -0.7398
    -0.7302  -0.7032  -0.6922  -0.6665  -0.6376  -0.6133  -0.6061  -0.5882
    -0.2578  -0.2502  -0.2317  -0.2100  -0.2052  -0.1707  -0.1145  -0.0098
    -0.0019   0.0108   0.0300   0.0652   0.1870   0.1956   0.2569   0.2989
     0.3512   0.3614   0.3792   0.4403   0.4726   0.4835   0.5113   0.5267
     0.5505   0.5595   0.5690   0.5964   0.6304   0.6402   0.6785   0.6856
     0.7134   0.7353   0.7813   0.8470   0.8707   0.8799   0.8867   0.9235
     1.6110   1.6146   1.9663   2.3389   2.3936   3.0841   3.2803   3.8745
     4.0884   4.5926   4.9097   5.5412   6.1285   6.1713   6.2317   6.5077
     6.6037   6.8090   7.0734   7.2556   7.6413   7.7208   8.2634   8.4816

     occupation numbers 
     1.0000   1.0000   1.0000   1.0000   1.0000   1.0000   1.0000   1.0000
     1.0000   1.0000   1.0000   1.0000   1.0000   1.0000   1.0000   1.0000
     1.0000   1.0000   1.0000   1.0000   1.0000   1.0000   1.0000   1.0000
     1.0000   1.0000   1.0000   1.0000   1.0000   1.0000   1.0000   1.0000
     1.0000   1.0000   1.0000   1.0000   1.0000   1.0000   1.0000   1.0000
     1.0000   1.0000   1.0000   1.0000   1.0000   1.0000   1.0000   1.0000
     1.0000   1.0000   1.0000   1.0000   1.0000   1.0000   1.0000   1.0000
     1.0000   1.0000   1.0000   1.0000   1.0000   1.0000   1.0000   1.0000
     1.0000   1.0000   1.0000   1.0000   1.0000   1.0000   1.0000   1.0000
     1.0000   1.0000   1.0000   1.0000   1.0000   1.0000   1.0000   1.0000
     1.0000   1.0000   1.0000   1.0000   1.0000   1.0000   1.0000   1.0000
     1.0000   1.0000   1.0000   1.0000   1.0000   1.0000   1.0000   1.0000
     1.0000   1.0000   1.0000   1.0000   1.0000   1.0000   1.0000   1.0000
     1.0000   1.0000   1.0000   1.0000   1.0000   1.0000   1.0000   1.0000
     1.0000   1.0000   1.0000   1.0000   1.0000   1.0000   1.0000   1.0000
     1.0000   1.0000   1.0000   1.0000   1.0000   1.0000   1.0000   1.0000
     1.0000   1.0000   1.0000   1.0000   1.0000   1.0000   1.0000   1.0000
     1.0000   1.0000   1.0000   1.0000   1.0000   1.0000   1.0000   1.0000
     1.0000   1.0000   1.0000   1.0000   1.0000   1.0000   1.0000   1.0000
     0.0501   0.0469   0.0000   0.0000   0.0000   0.0000   0.0000   0.0000
     0.0000   0.0000   0.0000   0.0000   0.0000   0.0000   0.0000   0.0000
     0.0000   0.0000   0.0000   0.0000   0.0000   0.0000   0.0000   0.0000

          k = 0.1250 0.3750 0.0000 ( 33622 PWs)   bands (ev):

  -102.3573-102.3524-102.3462-102.3424-102.3253-102.3123-102.3092-102.3029
  -101.9683-101.9644-101.9590-101.9552-101.9528-101.9488-101.9436-101.9395
   -62.7911 -62.7843 -62.7767 -62.7738 -62.7694 -62.7619 -62.7578 -62.7396
   -62.7217 -62.7129 -62.7069 -62.6986 -62.6964 -62.6895 -62.6871 -62.6824
   -62.6782 -62.6775 -62.6679 -62.6623 -62.6563 -62.6450 -62.6303 -62.6183
   -62.4653 -62.4615 -62.4513 -62.4482 -62.4407 -62.4332 -62.4269 -62.4197
   -62.4020 -62.3945 -62.3871 -62.3800 -62.3729 -62.3690 -62.3579 -62.3548
   -62.2084 -62.2051 -62.2011 -62.1985 -62.1913 -62.1878 -62.1835 -62.1805
   -11.6886  -5.8596  -4.5293  -4.2758  -3.3791  -2.8522  -2.6907  -2.6492
    -2.5887  -2.4521  -2.4230  -2.4139  -2.2823  -2.2611  -2.2386  -2.1499
    -2.0544  -2.0129  -1.8990  -1.7439  -1.7138  -1.6538  -1.6234  -1.5524
    -1.5065  -1.4489  -1.2949  -1.2212  -1.1870  -1.1657  -1.1082  -1.0332
    -0.9828  -0.9622  -0.8901  -0.8844  -0.8729  -0.8490  -0.8354  -0.7608
    -0.7346  -0.7257  -0.7089  -0.6984  -0.6406  -0.5504  -0.4758  -0.4627
    -0.4593  -0.3976  -0.3510  -0.3304  -0.2984  -0.2085  -0.1748  -0.1327
    -0.0245  -0.0022   0.0274   0.0441   0.0559   0.0636   0.1624   0.1768
     0.1895   0.2319   0.2487   0.2554   0.2742   0.3709   0.4272   0.4765
     0.4810   0.4846   0.5012   0.5084   0.5533   0.5735   0.7021   0.7048
     0.7184   0.7361   0.7578   0.7817   0.7979   0.8120   0.8169   1.0402
     1.6260   1.8124   1.8263   2.5019   2.5910   2.9603   4.0377   4.0630
     4.2970   4.3083   4.8123   5.2496   5.9837   6.4024   6.5439   6.6612
     6.9775   7.0697   7.2175   7.4174   7.7227   8.1114   8.1951   8.4913

     occupation numbers 
     1.0000   1.0000   1.0000   1.0000   1.0000   1.0000   1.0000   1.0000
     1.0000   1.0000   1.0000   1.0000   1.0000   1.0000   1.0000   1.0000
     1.0000   1.0000   1.0000   1.0000   1.0000   1.0000   1.0000   1.0000
     1.0000   1.0000   1.0000   1.0000   1.0000   1.0000   1.0000   1.0000
     1.0000   1.0000   1.0000   1.0000   1.0000   1.0000   1.0000   1.0000
     1.0000   1.0000   1.0000   1.0000   1.0000   1.0000   1.0000   1.0000
     1.0000   1.0000   1.0000   1.0000   1.0000   1.0000   1.0000   1.0000
     1.0000   1.0000   1.0000   1.0000   1.0000   1.0000   1.0000   1.0000
     1.0000   1.0000   1.0000   1.0000   1.0000   1.0000   1.0000   1.0000
     1.0000   1.0000   1.0000   1.0000   1.0000   1.0000   1.0000   1.0000
     1.0000   1.0000   1.0000   1.0000   1.0000   1.0000   1.0000   1.0000
     1.0000   1.0000   1.0000   1.0000   1.0000   1.0000   1.0000   1.0000
     1.0000   1.0000   1.0000   1.0000   1.0000   1.0000   1.0000   1.0000
     1.0000   1.0000   1.0000   1.0000   1.0000   1.0000   1.0000   1.0000
     1.0000   1.0000   1.0000   1.0000   1.0000   1.0000   1.0000   1.0000
     1.0000   1.0000   1.0000   1.0000   1.0000   1.0000   1.0000   1.0000
     1.0000   1.0000   1.0000   1.0000   1.0000   1.0000   1.0000   1.0000
     1.0000   1.0000   1.0000   1.0000   1.0000   1.0000   1.0000   1.0000
     1.0000   1.0000   1.0000   1.0000   1.0000   1.0000   1.0000   0.9998
     0.0377   0.0009   0.0007   0.0000   0.0000   0.0000   0.0000   0.0000
     0.0000   0.0000   0.0000   0.0000   0.0000   0.0000   0.0000   0.0000
     0.0000   0.0000   0.0000   0.0000   0.0000   0.0000   0.0000   0.0000

          k = 0.1250-0.5000 0.0000 ( 33600 PWs)   bands (ev):

  -102.3549-102.3548-102.3443-102.3443-102.3251-102.3124-102.3088-102.3034
  -101.9667-101.9659-101.9575-101.9567-101.9515-101.9502-101.9422-101.9409
   -62.7884 -62.7856 -62.7732 -62.7711 -62.7689 -62.7657 -62.7444 -62.7353
   -62.7318 -62.7171 -62.7062 -62.6992 -62.6909 -62.6881 -62.6834 -62.6831
   -62.6802 -62.6718 -62.6666 -62.6643 -62.6615 -62.6604 -62.6302 -62.6183
   -62.4646 -62.4622 -62.4501 -62.4493 -62.4240 -62.4188 -62.4167 -62.4123
   -62.4111 -62.4051 -62.4019 -62.3947 -62.3723 -62.3695 -62.3568 -62.3560
   -62.2069 -62.2066 -62.2000 -62.1996 -62.1901 -62.1890 -62.1824 -62.1816
   -11.6879  -5.2433  -5.2429  -3.8268  -3.7830  -2.7025  -2.7007  -2.4671
    -2.4661  -2.3853  -2.3747  -2.2520  -2.2384  -2.2333  -2.2276  -2.1895
    -2.1882  -1.9583  -1.9391  -1.7803  -1.7790  -1.5935  -1.5896  -1.4317
    -1.4054  -1.3957  -1.3538  -1.3530  -1.3215  -1.2539  -1.2360  -0.9882
    -0.9753  -0.9592  -0.8932  -0.8893  -0.8887  -0.8139  -0.8034  -0.7706
    -0.7670  -0.7575  -0.7465  -0.6813  -0.6747  -0.4886  -0.4620  -0.4497
    -0.4385  -0.4137  -0.3998  -0.2324  -0.2084  -0.2062  -0.1880  -0.1863
    -0.1312  -0.1145  -0.1123  -0.0813  -0.0692   0.0487   0.0707   0.0724
     0.0897   0.2364   0.2554   0.2673   0.2800   0.2845   0.2937   0.4263
     0.4402   0.4425   0.4536   0.5154   0.5220   0.6456   0.6519   0.7445
     0.7451   0.7595   0.7705   0.7724   0.7776   0.7777   0.7832   1.3755
     1.3969   1.6352   2.0952   2.1022   3.2608   3.2941   3.6148   3.6215
     4.7792   4.7875   4.9615   4.9837   5.6358   5.6763   6.7684   6.7739
     7.2130   7.4224   7.6144   7.6385   7.7276   7.7283   8.3119   8.4563

     occupation numbers 
     1.0000   1.0000   1.0000   1.0000   1.0000   1.0000   1.0000   1.0000
     1.0000   1.0000   1.0000   1.0000   1.0000   1.0000   1.0000   1.0000
     1.0000   1.0000   1.0000   1.0000   1.0000   1.0000   1.0000   1.0000
     1.0000   1.0000   1.0000   1.0000   1.0000   1.0000   1.0000   1.0000
     1.0000   1.0000   1.0000   1.0000   1.0000   1.0000   1.0000   1.0000
     1.0000   1.0000   1.0000   1.0000   1.0000   1.0000   1.0000   1.0000
     1.0000   1.0000   1.0000   1.0000   1.0000   1.0000   1.0000   1.0000
     1.0000   1.0000   1.0000   1.0000   1.0000   1.0000   1.0000   1.0000
     1.0000   1.0000   1.0000   1.0000   1.0000   1.0000   1.0000   1.0000
     1.0000   1.0000   1.0000   1.0000   1.0000   1.0000   1.0000   1.0000
     1.0000   1.0000   1.0000   1.0000   1.0000   1.0000   1.0000   1.0000
     1.0000   1.0000   1.0000   1.0000   1.0000   1.0000   1.0000   1.0000
     1.0000   1.0000   1.0000   1.0000   1.0000   1.0000   1.0000   1.0000
     1.0000   1.0000   1.0000   1.0000   1.0000   1.0000   1.0000   1.0000
     1.0000   1.0000   1.0000   1.0000   1.0000   1.0000   1.0000   1.0000
     1.0000   1.0000   1.0000   1.0000   1.0000   1.0000   1.0000   1.0000
     1.0000   1.0000   1.0000   1.0000   1.0000   1.0000   1.0000   1.0000
     1.0000   1.0000   1.0000   1.0000   1.0000   1.0000   1.0000   1.0000
     1.0000   1.0000   1.0000   1.0000   1.0000   1.0000   1.0000   0.8542
     0.7926   0.0315   0.0000   0.0000   0.0000   0.0000   0.0000   0.0000
     0.0000   0.0000   0.0000   0.0000   0.0000   0.0000   0.0000   0.0000
     0.0000   0.0000   0.0000   0.0000   0.0000   0.0000   0.0000   0.0000

          k = 0.2500 0.2500 0.0000 ( 33623 PWs)   bands (ev):

  -102.3580-102.3492-102.3492-102.3419-102.3254-102.3116-102.3101-102.3027
  -101.9688-101.9620-101.9615-101.9546-101.9533-101.9462-101.9462-101.9390
   -62.7912 -62.7801 -62.7791 -62.7725 -62.7686 -62.7631 -62.7588 -62.7468
   -62.7125 -62.7111 -62.7057 -62.6980 -62.6961 -62.6946 -62.6935 -62.6859
   -62.6836 -62.6686 -62.6685 -62.6666 -62.6423 -62.6402 -62.6297 -62.6287
   -62.4558 -62.4558 -62.4500 -62.4499 -62.4433 -62.4405 -62.4364 -62.4362
   -62.3851 -62.3847 -62.3790 -62.3789 -62.3703 -62.3699 -62.3665 -62.3628
   -62.2088 -62.2031 -62.2030 -62.1982 -62.1918 -62.1856 -62.1856 -62.1801
   -11.6887  -6.0414  -4.4200  -3.6059  -3.6045  -2.9214  -2.9188  -2.7906
    -2.7004  -2.5188  -2.4524  -2.3191  -2.3187  -2.2661  -2.2139  -2.2100
    -2.0116  -1.8333  -1.8270  -1.7690  -1.7416  -1.6614  -1.6558  -1.5381
    -1.5125  -1.3435  -1.2912  -1.2861  -1.1953  -1.1940  -1.0643  -1.0603
    -0.9278  -0.9232  -0.8672  -0.8581  -0.8462  -0.8457  -0.8073  -0.8030
    -0.7995  -0.7669  -0.7370  -0.6954  -0.6300  -0.6288  -0.5431  -0.5427
    -0.3549  -0.3542  -0.2737  -0.2477  -0.2455  -0.2211  -0.1472  -0.1403
    -0.1313  -0.0592  -0.0084   0.1024   0.1447   0.1464   0.2289   0.2520
     0.2813   0.3070   0.3190   0.3903   0.4314   0.4336   0.4419   0.4608
     0.4617   0.5209   0.5340   0.5466   0.5766   0.6288   0.6346   0.6384
     0.6573   0.6575   0.7223   0.8091   0.8513   0.9340   0.9350   1.0389
     1.2252   1.2256   1.6260   2.1028   2.7763   2.8149   2.8172   3.8388
     4.5386   4.9792   4.9835   6.0337   6.4254   6.4263   6.4681   6.5178
     6.7903   7.0931   7.0949   7.5382   7.9719   8.4493   8.5320   8.6411

     occupation numbers 
     1.0000   1.0000   1.0000   1.0000   1.0000   1.0000   1.0000   1.0000
     1.0000   1.0000   1.0000   1.0000   1.0000   1.0000   1.0000   1.0000
     1.0000   1.0000   1.0000   1.0000   1.0000   1.0000   1.0000   1.0000
     1.0000   1.0000   1.0000   1.0000   1.0000   1.0000   1.0000   1.0000
     1.0000   1.0000   1.0000   1.0000   1.0000   1.0000   1.0000   1.0000
     1.0000   1.0000   1.0000   1.0000   1.0000   1.0000   1.0000   1.0000
     1.0000   1.0000   1.0000   1.0000   1.0000   1.0000   1.0000   1.0000
     1.0000   1.0000   1.0000   1.0000   1.0000   1.0000   1.0000   1.0000
     1.0000   1.0000   1.0000   1.0000   1.0000   1.0000   1.0000   1.0000
     1.0000   1.0000   1.0000   1.0000   1.0000   1.0000   1.0000   1.0000
     1.0000   1.0000   1.0000   1.0000   1.0000   1.0000   1.0000   1.0000
     1.0000   1.0000   1.0000   1.0000   1.0000   1.0000   1.0000   1.0000
     1.0000   1.0000   1.0000   1.0000   1.0000   1.0000   1.0000   1.0000
     1.0000   1.0000   1.0000   1.0000   1.0000   1.0000   1.0000   1.0000
     1.0000   1.0000   1.0000   1.0000   1.0000   1.0000   1.0000   1.0000
     1.0000   1.0000   1.0000   1.0000   1.0000   1.0000   1.0000   1.0000
     1.0000   1.0000   1.0000   1.0000   1.0000   1.0000   1.0000   1.0000
     1.0000   1.0000   1.0000   1.0000   1.0000   1.0000   1.0000   1.0000
     1.0000   1.0000   1.0000   1.0000   1.0000   1.0000   1.0000   0.9998
     0.9916   0.9916   0.0377   0.0000   0.0000   0.0000   0.0000   0.0000
     0.0000   0.0000   0.0000   0.0000   0.0000   0.0000   0.0000   0.0000
     0.0000   0.0000   0.0000   0.0000   0.0000   0.0000   0.0000   0.0000

          k = 0.2500 0.3750 0.0000 ( 33636 PWs)   bands (ev):

  -102.3560-102.3512-102.3475-102.3436-102.3249-102.3115-102.3096-102.3037
  -101.9672-101.9633-101.9601-101.9562-101.9518-101.9478-101.9446-101.9406
   -62.7869 -62.7795 -62.7740 -62.7664 -62.7639 -62.7576 -62.7545 -62.7408
   -62.7208 -62.7113 -62.7059 -62.6994 -62.6948 -62.6932 -62.6903 -62.6869
   -62.6773 -62.6750 -62.6705 -62.6664 -62.6556 -62.6448 -62.6407 -62.6290
   -62.4547 -62.4509 -62.4407 -62.4399 -62.4376 -62.4339 -62.4260 -62.4205
   -62.4012 -62.3952 -62.3862 -62.3839 -62.3809 -62.3799 -62.3688 -62.3656
   -62.2075 -62.2043 -62.2019 -62.1993 -62.1904 -62.1869 -62.1844 -62.1813
   -11.6869  -5.5828  -4.2920  -4.0254  -3.3230  -3.1652  -2.8744  -2.6557
    -2.4365  -2.3122  -2.2805  -2.2692  -2.2091  -2.2022  -2.1689  -2.0645
    -1.9990  -1.8871  -1.8818  -1.7649  -1.6793  -1.6251  -1.6075  -1.4923
    -1.4291  -1.3893  -1.3762  -1.3691  -1.3334  -1.2061  -1.1513  -1.1385
    -1.0027  -0.9798  -0.9570  -0.9211  -0.8528  -0.8220  -0.7994  -0.7932
    -0.7782  -0.7630  -0.7445  -0.7250  -0.6241  -0.5137  -0.4734  -0.4611
    -0.4413  -0.3893  -0.3651  -0.3621  -0.3341  -0.2911  -0.2020  -0.1488
    -0.1179  -0.0807  -0.0236  -0.0121   0.0363   0.0686   0.0865   0.1375
     0.1710   0.2058   0.2435   0.2666   0.3201   0.3279   0.3490   0.3664
     0.3880   0.4361   0.4770   0.4803   0.5199   0.5534   0.6107   0.6231
     0.6339   0.6464   0.6743   0.7357   0.7818   0.7967   0.8787   1.0126
     1.3473   1.4741   1.6382   1.7159   2.2231   2.9749   3.3139   3.4485
     4.6637   5.0473   5.1964   5.5636   6.7323   6.7451   6.8670   6.9457
     7.2595   7.5395   7.6630   7.7234   8.0038   8.3588   8.4592   8.7633

     occupation numbers 
     1.0000   1.0000   1.0000   1.0000   1.0000   1.0000   1.0000   1.0000
     1.0000   1.0000   1.0000   1.0000   1.0000   1.0000   1.0000   1.0000
     1.0000   1.0000   1.0000   1.0000   1.0000   1.0000   1.0000   1.0000
     1.0000   1.0000   1.0000   1.0000   1.0000   1.0000   1.0000   1.0000
     1.0000   1.0000   1.0000   1.0000   1.0000   1.0000   1.0000   1.0000
     1.0000   1.0000   1.0000   1.0000   1.0000   1.0000   1.0000   1.0000
     1.0000   1.0000   1.0000   1.0000   1.0000   1.0000   1.0000   1.0000
     1.0000   1.0000   1.0000   1.0000   1.0000   1.0000   1.0000   1.0000
     1.0000   1.0000   1.0000   1.0000   1.0000   1.0000   1.0000   1.0000
     1.0000   1.0000   1.0000   1.0000   1.0000   1.0000   1.0000   1.0000
     1.0000   1.0000   1.0000   1.0000   1.0000   1.0000   1.0000   1.0000
     1.0000   1.0000   1.0000   1.0000   1.0000   1.0000   1.0000   1.0000
     1.0000   1.0000   1.0000   1.0000   1.0000   1.0000   1.0000   1.0000
     1.0000   1.0000   1.0000   1.0000   1.0000   1.0000   1.0000   1.0000
     1.0000   1.0000   1.0000   1.0000   1.0000   1.0000   1.0000   1.0000
     1.0000   1.0000   1.0000   1.0000   1.0000   1.0000   1.0000   1.0000
     1.0000   1.0000   1.0000   1.0000   1.0000   1.0000   1.0000   1.0000
     1.0000   1.0000   1.0000   1.0000   1.0000   1.0000   1.0000   1.0000
     1.0000   1.0000   1.0000   1.0000   1.0000   1.0000   1.0000   0.9999
     0.9116   0.4496   0.0297   0.0064   0.0000   0.0000   0.0000   0.0000
     0.0000   0.0000   0.0000   0.0000   0.0000   0.0000   0.0000   0.0000
     0.0000   0.0000   0.0000   0.0000   0.0000   0.0000   0.0000   0.0000

          k = 0.2500-0.5000 0.0000 ( 33646 PWs)   bands (ev):

  -102.3536-102.3536-102.3455-102.3455-102.3247-102.3116-102.3092-102.3042
  -101.9657-101.9648-101.9585-101.9578-101.9504-101.9491-101.9433-101.9419
   -62.7842 -62.7806 -62.7698 -62.7663 -62.7620 -62.7605 -62.7422 -62.7331
   -62.7299 -62.7181 -62.7073 -62.6988 -62.6946 -62.6929 -62.6837 -62.6820
   -62.6784 -62.6777 -62.6692 -62.6644 -62.6607 -62.6595 -62.6407 -62.6290
   -62.4540 -62.4515 -62.4395 -62.4387 -62.4232 -62.4181 -62.4175 -62.4118
   -62.4114 -62.4059 -62.4010 -62.3955 -62.3833 -62.3805 -62.3677 -62.3668
   -62.2060 -62.2057 -62.2008 -62.2004 -62.1892 -62.1881 -62.1833 -62.1824
   -11.6862  -4.9815  -4.9812  -3.5893  -3.5468  -3.0524  -3.0505  -2.3936
    -2.3775  -2.2764  -2.2757  -2.1587  -2.1388  -2.0967  -2.0955  -2.0847
    -2.0754  -1.9008  -1.8835  -1.8278  -1.8241  -1.4872  -1.4840  -1.4253
    -1.4228  -1.4006  -1.3923  -1.3810  -1.3349  -1.2961  -1.2647  -1.1193
    -1.0801  -1.0405  -1.0300  -0.9699  -0.9194  -0.8165  -0.7905  -0.7817
    -0.7752  -0.7053  -0.7009  -0.6982  -0.6723  -0.4870  -0.4850  -0.4437
    -0.4220  -0.4089  -0.3954  -0.2523  -0.2291  -0.2258  -0.1898  -0.1852
    -0.1493  -0.1402  -0.1216  -0.0834  -0.0721  -0.0495  -0.0452   0.0426
     0.0702   0.2046   0.2220   0.2267   0.2366   0.2407   0.2565   0.3452
     0.3637   0.3811   0.3925   0.4863   0.5014   0.6083   0.6173   0.6321
     0.6380   0.7095   0.7117   0.7220   0.7237   0.7710   0.7716   1.1553
     1.1656   1.6368   1.7243   1.7526   2.2714   2.3024   3.9564   3.9628
     4.1867   4.1978   5.9780   6.0174   6.2398   6.2541   7.1356   7.1367
     7.4531   7.7248   7.8966   7.9218   8.0853   8.0983   8.6016   8.7284

     occupation numbers 
     1.0000   1.0000   1.0000   1.0000   1.0000   1.0000   1.0000   1.0000
     1.0000   1.0000   1.0000   1.0000   1.0000   1.0000   1.0000   1.0000
     1.0000   1.0000   1.0000   1.0000   1.0000   1.0000   1.0000   1.0000
     1.0000   1.0000   1.0000   1.0000   1.0000   1.0000   1.0000   1.0000
     1.0000   1.0000   1.0000   1.0000   1.0000   1.0000   1.0000   1.0000
     1.0000   1.0000   1.0000   1.0000   1.0000   1.0000   1.0000   1.0000
     1.0000   1.0000   1.0000   1.0000   1.0000   1.0000   1.0000   1.0000
     1.0000   1.0000   1.0000   1.0000   1.0000   1.0000   1.0000   1.0000
     1.0000   1.0000   1.0000   1.0000   1.0000   1.0000   1.0000   1.0000
     1.0000   1.0000   1.0000   1.0000   1.0000   1.0000   1.0000   1.0000
     1.0000   1.0000   1.0000   1.0000   1.0000   1.0000   1.0000   1.0000
     1.0000   1.0000   1.0000   1.0000   1.0000   1.0000   1.0000   1.0000
     1.0000   1.0000   1.0000   1.0000   1.0000   1.0000   1.0000   1.0000
     1.0000   1.0000   1.0000   1.0000   1.0000   1.0000   1.0000   1.0000
     1.0000   1.0000   1.0000   1.0000   1.0000   1.0000   1.0000   1.0000
     1.0000   1.0000   1.0000   1.0000   1.0000   1.0000   1.0000   1.0000
     1.0000   1.0000   1.0000   1.0000   1.0000   1.0000   1.0000   1.0000
     1.0000   1.0000   1.0000   1.0000   1.0000   1.0000   1.0000   1.0000
     1.0000   1.0000   1.0000   1.0000   1.0000   1.0000   1.0000   0.9979
     0.9974   0.0306   0.0055   0.0031   0.0000   0.0000   0.0000   0.0000
     0.0000   0.0000   0.0000   0.0000   0.0000   0.0000   0.0000   0.0000
     0.0000   0.0000   0.0000   0.0000   0.0000   0.0000   0.0000   0.0000

          k = 0.3750 0.3750 0.0000 ( 33610 PWs)   bands (ev):

  -102.3540-102.3495-102.3494-102.3453-102.3244-102.3106-102.3099-102.3048
  -101.9656-101.9619-101.9615-101.9578-101.9502-101.9462-101.9462-101.9421
   -62.7822 -62.7741 -62.7738 -62.7635 -62.7533 -62.7518 -62.7433 -62.7425
   -62.7222 -62.7077 -62.7073 -62.7043 -62.7034 -62.6957 -62.6904 -62.6818
   -62.6764 -62.6732 -62.6702 -62.6695 -62.6558 -62.6542 -62.6448 -62.6437
   -62.4388 -62.4387 -62.4351 -62.4348 -62.4262 -62.4234 -62.4220 -62.4215
   -62.4005 -62.3999 -62.3962 -62.3961 -62.3853 -62.3846 -62.3837 -62.3801
   -62.2062 -62.2032 -62.2031 -62.2004 -62.1891 -62.1857 -62.1857 -62.1826
   -11.6852  -5.1416  -3.9355  -3.9345  -3.6457  -3.1501  -2.8542  -2.8519
    -2.2562  -2.1757  -2.1379  -2.1283  -2.1006  -2.0970  -2.0805  -1.9900
    -1.9182  -1.8848  -1.8848  -1.6402  -1.6291  -1.5803  -1.5684  -1.5658
    -1.4805  -1.4616  -1.4470  -1.3201  -1.3118  -1.3008  -1.2243  -1.2213
    -1.1318  -1.0413  -0.9529  -0.9507  -0.9400  -0.9393  -0.8813  -0.8061
    -0.7684  -0.7678  -0.6689  -0.6425  -0.5169  -0.4815  -0.4812  -0.4401
    -0.4399  -0.4132  -0.3811  -0.3768  -0.2969  -0.2958  -0.2229  -0.1470
    -0.1270  -0.1219  -0.1195  -0.0955  -0.0725  -0.0480   0.0477   0.1064
     0.1126   0.1194   0.1598   0.2315   0.2347   0.2489   0.2868   0.3245
     0.3429   0.3487   0.3644   0.3891   0.4615   0.4742   0.4892   0.4904
     0.4993   0.5024   0.7111   0.7558   0.7566   0.7716   0.7867   0.8329
     1.1834   1.1836   1.6440   1.7262   2.1742   2.7434   2.7476   3.8301
     4.1350   5.2011   5.2065   5.7869   6.7194   7.3519   7.3909   7.4397
     7.7274   8.0029   8.0142   8.0177   8.4651   8.7568   8.7573   8.9265

     occupation numbers 
     1.0000   1.0000   1.0000   1.0000   1.0000   1.0000   1.0000   1.0000
     1.0000   1.0000   1.0000   1.0000   1.0000   1.0000   1.0000   1.0000
     1.0000   1.0000   1.0000   1.0000   1.0000   1.0000   1.0000   1.0000
     1.0000   1.0000   1.0000   1.0000   1.0000   1.0000   1.0000   1.0000
     1.0000   1.0000   1.0000   1.0000   1.0000   1.0000   1.0000   1.0000
     1.0000   1.0000   1.0000   1.0000   1.0000   1.0000   1.0000   1.0000
     1.0000   1.0000   1.0000   1.0000   1.0000   1.0000   1.0000   1.0000
     1.0000   1.0000   1.0000   1.0000   1.0000   1.0000   1.0000   1.0000
     1.0000   1.0000   1.0000   1.0000   1.0000   1.0000   1.0000   1.0000
     1.0000   1.0000   1.0000   1.0000   1.0000   1.0000   1.0000   1.0000
     1.0000   1.0000   1.0000   1.0000   1.0000   1.0000   1.0000   1.0000
     1.0000   1.0000   1.0000   1.0000   1.0000   1.0000   1.0000   1.0000
     1.0000   1.0000   1.0000   1.0000   1.0000   1.0000   1.0000   1.0000
     1.0000   1.0000   1.0000   1.0000   1.0000   1.0000   1.0000   1.0000
     1.0000   1.0000   1.0000   1.0000   1.0000   1.0000   1.0000   1.0000
     1.0000   1.0000   1.0000   1.0000   1.0000   1.0000   1.0000   1.0000
     1.0000   1.0000   1.0000   1.0000   1.0000   1.0000   1.0000   1.0000
     1.0000   1.0000   1.0000   1.0000   1.0000   1.0000   1.0000   1.0000
     1.0000   1.0000   1.0000   1.0000   1.0000   1.0000   1.0000   1.0000
     0.9964   0.9963   0.0266   0.0052   0.0000   0.0000   0.0000   0.0000
     0.0000   0.0000   0.0000   0.0000   0.0000   0.0000   0.0000   0.0000
     0.0000   0.0000   0.0000   0.0000   0.0000   0.0000   0.0000   0.0000

          k = 0.3750-0.5000 0.0000 ( 33648 PWs)   bands (ev):

  -102.3518-102.3517-102.3474-102.3474-102.3242-102.3105-102.3097-102.3053
  -101.9641-101.9632-101.9601-101.9594-101.9489-101.9475-101.9448-101.9435
   -62.7793 -62.7753 -62.7702 -62.7659 -62.7484 -62.7478 -62.7389 -62.7297
   -62.7286 -62.7211 -62.7080 -62.7076 -62.7018 -62.6937 -62.6837 -62.6824
   -62.6770 -62.6733 -62.6698 -62.6643 -62.6605 -62.6592 -62.6548 -62.6442
   -62.4381 -62.4356 -62.4238 -62.4230 -62.4221 -62.4186 -62.4171 -62.4126
   -62.4100 -62.4072 -62.3998 -62.3995 -62.3969 -62.3968 -62.3838 -62.3827
   -62.2048 -62.2045 -62.2020 -62.2016 -62.1879 -62.1869 -62.1846 -62.1837
   -11.6845  -4.5716  -4.5716  -3.5248  -3.5241  -3.2344  -3.1951  -2.5298
    -2.5050  -2.0449  -2.0419  -2.0329  -2.0183  -1.9977  -1.9924  -1.9894
    -1.9824  -1.8264  -1.8224  -1.7518  -1.7254  -1.5652  -1.5624  -1.4706
    -1.4374  -1.4282  -1.3866  -1.3676  -1.3289  -1.3044  -1.2840  -1.2438
    -1.2010  -1.1194  -1.0969  -0.9644  -0.9496  -0.8901  -0.8815  -0.8531
    -0.8330  -0.6898  -0.6813  -0.5671  -0.5504  -0.5135  -0.4999  -0.3877
    -0.3755  -0.3171  -0.3023  -0.2924  -0.2759  -0.2750  -0.2326  -0.2265
    -0.2191  -0.1503  -0.1396  -0.1139  -0.1016  -0.0199  -0.0140   0.0126
     0.0315   0.0724   0.0995   0.1027   0.1241   0.1663   0.1828   0.2339
     0.2537   0.3928   0.3971   0.4050   0.4098   0.4194   0.4242   0.4489
     0.4530   0.5734   0.5863   0.7636   0.7696   0.7712   0.7773   0.8946
     0.8999   1.5924   1.6140   1.6539   2.1657   2.1861   3.3698   3.3816
     4.4696   4.4762   5.8895   5.9009   6.5215   6.5587   7.8486   8.0882
     8.0905   8.2175   8.3017   8.3088   8.3644   8.3899   9.0749   9.1620

     occupation numbers 
     1.0000   1.0000   1.0000   1.0000   1.0000   1.0000   1.0000   1.0000
     1.0000   1.0000   1.0000   1.0000   1.0000   1.0000   1.0000   1.0000
     1.0000   1.0000   1.0000   1.0000   1.0000   1.0000   1.0000   1.0000
     1.0000   1.0000   1.0000   1.0000   1.0000   1.0000   1.0000   1.0000
     1.0000   1.0000   1.0000   1.0000   1.0000   1.0000   1.0000   1.0000
     1.0000   1.0000   1.0000   1.0000   1.0000   1.0000   1.0000   1.0000
     1.0000   1.0000   1.0000   1.0000   1.0000   1.0000   1.0000   1.0000
     1.0000   1.0000   1.0000   1.0000   1.0000   1.0000   1.0000   1.0000
     1.0000   1.0000   1.0000   1.0000   1.0000   1.0000   1.0000   1.0000
     1.0000   1.0000   1.0000   1.0000   1.0000   1.0000   1.0000   1.0000
     1.0000   1.0000   1.0000   1.0000   1.0000   1.0000   1.0000   1.0000
     1.0000   1.0000   1.0000   1.0000   1.0000   1.0000   1.0000   1.0000
     1.0000   1.0000   1.0000   1.0000   1.0000   1.0000   1.0000   1.0000
     1.0000   1.0000   1.0000   1.0000   1.0000   1.0000   1.0000   1.0000
     1.0000   1.0000   1.0000   1.0000   1.0000   1.0000   1.0000   1.0000
     1.0000   1.0000   1.0000   1.0000   1.0000   1.0000   1.0000   1.0000
     1.0000   1.0000   1.0000   1.0000   1.0000   1.0000   1.0000   1.0000
     1.0000   1.0000   1.0000   1.0000   1.0000   1.0000   1.0000   1.0000
     1.0000   1.0000   1.0000   1.0000   1.0000   1.0000   1.0000   1.0000
     1.0000   0.0711   0.0474   0.0219   0.0000   0.0000   0.0000   0.0000
     0.0000   0.0000   0.0000   0.0000   0.0000   0.0000   0.0000   0.0000
     0.0000   0.0000   0.0000   0.0000   0.0000   0.0000   0.0000   0.0000

          k =-0.5000-0.5000 0.0000 ( 33696 PWs)   bands (ev):

  -102.3496-102.3496-102.3495-102.3495-102.3240-102.3099-102.3099-102.3059
  -101.9627-101.9615-101.9615-101.9612-101.9475-101.9462-101.9462-101.9449
   -62.7761 -62.7719 -62.7719 -62.7677 -62.7408 -62.7353 -62.7353 -62.7258
   -62.7245 -62.7237 -62.7218 -62.7218 -62.6927 -62.6903 -62.6903 -62.6822
   -62.6724 -62.6724 -62.6656 -62.6634 -62.6614 -62.6597 -62.6591 -62.6591
   -62.4215 -62.4210 -62.4194 -62.4194 -62.4165 -62.4165 -62.4135 -62.4128
   -62.4105 -62.4084 -62.4084 -62.4075 -62.4002 -62.3985 -62.3985 -62.3954
   -62.2035 -62.2033 -62.2033 -62.2028 -62.1867 -62.1857 -62.1857 -62.1848
   -11.6837  -4.0610  -4.0609  -4.0609  -4.0600  -2.8610  -2.8232  -2.8232
    -2.7930  -1.9650  -1.9613  -1.9613  -1.9596  -1.9377  -1.9377  -1.9300
    -1.9292  -1.7607  -1.7392  -1.7392  -1.7181  -1.5228  -1.5147  -1.5147
    -1.5029  -1.4881  -1.4187  -1.4187  -1.3549  -1.3420  -1.2890  -1.2890
    -1.2551  -1.0301  -1.0181  -1.0181  -1.0020  -0.9620  -0.9620  -0.8022
    -0.7895  -0.7895  -0.7864  -0.4253  -0.3932  -0.3924  -0.3924  -0.3916
    -0.3789  -0.3789  -0.3482  -0.3345  -0.3345  -0.3260  -0.3251  -0.1081
    -0.0839  -0.0839  -0.0700  -0.0700  -0.0677  -0.0671  -0.0590  -0.0561
    -0.0419  -0.0419  -0.0250   0.0645   0.0956   0.0956   0.1123   0.1328
     0.1492   0.1492   0.1821   0.3596   0.3723   0.3723   0.3778   0.4747
     0.4892   0.4892   0.5032   0.7611   0.7668   0.7668   0.7741   1.1665
     1.1802   1.1802   1.1933   1.6570   2.6932   2.7133   2.7133   2.7243
     5.1216   5.1239   5.1239   5.1381   7.2242   7.2488   7.2488   7.2967
     8.2931   8.5965   8.5965   9.0029   9.0029   9.0248   9.0267   9.2251

     occupation numbers 
     1.0000   1.0000   1.0000   1.0000   1.0000   1.0000   1.0000   1.0000
     1.0000   1.0000   1.0000   1.0000   1.0000   1.0000   1.0000   1.0000
     1.0000   1.0000   1.0000   1.0000   1.0000   1.0000   1.0000   1.0000
     1.0000   1.0000   1.0000   1.0000   1.0000   1.0000   1.0000   1.0000
     1.0000   1.0000   1.0000   1.0000   1.0000   1.0000   1.0000   1.0000
     1.0000   1.0000   1.0000   1.0000   1.0000   1.0000   1.0000   1.0000
     1.0000   1.0000   1.0000   1.0000   1.0000   1.0000   1.0000   1.0000
     1.0000   1.0000   1.0000   1.0000   1.0000   1.0000   1.0000   1.0000
     1.0000   1.0000   1.0000   1.0000   1.0000   1.0000   1.0000   1.0000
     1.0000   1.0000   1.0000   1.0000   1.0000   1.0000   1.0000   1.0000
     1.0000   1.0000   1.0000   1.0000   1.0000   1.0000   1.0000   1.0000
     1.0000   1.0000   1.0000   1.0000   1.0000   1.0000   1.0000   1.0000
     1.0000   1.0000   1.0000   1.0000   1.0000   1.0000   1.0000   1.0000
     1.0000   1.0000   1.0000   1.0000   1.0000   1.0000   1.0000   1.0000
     1.0000   1.0000   1.0000   1.0000   1.0000   1.0000   1.0000   1.0000
     1.0000   1.0000   1.0000   1.0000   1.0000   1.0000   1.0000   1.0000
     1.0000   1.0000   1.0000   1.0000   1.0000   1.0000   1.0000   1.0000
     1.0000   1.0000   1.0000   1.0000   1.0000   1.0000   1.0000   1.0000
     1.0000   1.0000   1.0000   1.0000   1.0000   1.0000   1.0000   0.9974
     0.9966   0.9966   0.9956   0.0206   0.0000   0.0000   0.0000   0.0000
     0.0000   0.0000   0.0000   0.0000   0.0000   0.0000   0.0000   0.0000
     0.0000   0.0000   0.0000   0.0000   0.0000   0.0000   0.0000   0.0000

 ------ SPIN DOWN ----------


          k = 0.0000 0.0000 0.0000 ( 33665 PWs)   bands (ev):

  -101.3676-101.3540-101.3540-101.3437-101.3355-101.3204-101.3194-101.3076
  -100.9343-100.9241-100.9239-100.9136-100.9123-100.9019-100.9019-100.8914
   -61.8376 -61.8358 -61.8247 -61.8247 -61.8199 -61.8194 -61.8194 -61.7626
   -61.7566 -61.7566 -61.7402 -61.7397 -61.7397 -61.7243 -61.7234 -61.7141
   -61.7134 -61.7134 -61.6959 -61.6947 -61.6685 -61.6685 -61.6581 -61.6581
   -61.4355 -61.4355 -61.4271 -61.4271 -61.4154 -61.4139 -61.4057 -61.4057
   -61.3295 -61.3295 -61.3216 -61.3216 -61.3077 -61.3077 -61.3010 -61.2982
   -61.2724 -61.2637 -61.2636 -61.2569 -61.2509 -61.2416 -61.2416 -61.2337
   -10.0296  -6.8836  -5.1713  -3.1955  -2.6862  -2.6862  -2.6349  -2.6320
    -2.5825  -2.3754  -2.3310  -1.9253  -1.9236  -1.8463  -1.8463  -1.7748
    -1.7197  -1.7197  -1.5102  -1.4646  -1.1894  -0.9200  -0.9200  -0.6056
    -0.5510  -0.5510  -0.5234  -0.5204  -0.4225  -0.3600  -0.3587  -0.3523
    -0.3523  -0.2616  -0.0708  -0.0692  -0.0582  -0.0582  -0.0088  -0.0088
     0.0113   0.0146   0.1007   0.1007   0.2056   0.2056   0.3257   0.4729
     0.5709   0.5777   0.6074   0.6074   0.7310   0.7310   0.7473   0.9877
     0.9877   0.9946   1.0058   1.0079   1.0903   1.1000   1.2916   1.3272
     1.3272   1.3500   1.3631   1.3959   1.3959   1.4126   1.4126   1.5121
     1.5123   1.6231   1.6284   1.6322   1.6384   1.6384   1.6548   1.7038
     1.7906   1.7906   1.8428   1.8771   2.1515   2.1747   2.2966   2.2966
     2.3004   2.3053   2.4579   2.4579   2.9024   2.9024   2.9053   2.9189
     3.0716   4.9585   4.9585   5.9633   6.0240   6.1701   6.1705   6.1786
     6.1786   6.7367   7.3015   7.3555   7.3555   8.5771   8.8429   8.8436

     occupation numbers 
     1.0000   1.0000   1.0000   1.0000   1.0000   1.0000   1.0000   1.0000
     1.0000   1.0000   1.0000   1.0000   1.0000   1.0000   1.0000   1.0000
     1.0000   1.0000   1.0000   1.0000   1.0000   1.0000   1.0000   1.0000
     1.0000   1.0000   1.0000   1.0000   1.0000   1.0000   1.0000   1.0000
     1.0000   1.0000   1.0000   1.0000   1.0000   1.0000   1.0000   1.0000
     1.0000   1.0000   1.0000   1.0000   1.0000   1.0000   1.0000   1.0000
     1.0000   1.0000   1.0000   1.0000   1.0000   1.0000   1.0000   1.0000
     1.0000   1.0000   1.0000   1.0000   1.0000   1.0000   1.0000   1.0000
     1.0000   1.0000   1.0000   1.0000   1.0000   1.0000   1.0000   1.0000
     1.0000   1.0000   1.0000   1.0000   1.0000   1.0000   1.0000   1.0000
     1.0000   1.0000   1.0000   1.0000   1.0000   1.0000   1.0000   1.0000
     1.0000   1.0000   1.0000   1.0000   1.0000   1.0000   1.0000   1.0000
     1.0000   1.0000   1.0000   1.0000   1.0000   1.0000   1.0000   1.0000
     1.0000   1.0000   1.0000   1.0000   1.0000   1.0000   1.0000   1.0000
     1.0000   1.0000   1.0000   1.0000   1.0000   1.0000   1.0000   0.9999
     0.9999   0.9999   0.9999   0.9999   0.9994   0.9993   0.9691   0.9390
     0.9390   0.9070   0.8826   0.7958   0.7958   0.7362   0.7362   0.2761
     0.2752   0.0398   0.0360   0.0334   0.0296   0.0296   0.0215   0.0082
     0.0015   0.0015   0.0005   0.0003   0.0000   0.0000   0.0000   0.0000
     0.0000   0.0000   0.0000   0.0000   0.0000   0.0000   0.0000   0.0000
     0.0000   0.0000   0.0000   0.0000   0.0000   0.0000   0.0000   0.0000
     0.0000   0.0000   0.0000   0.0000   0.0000   0.0000   0.0000   0.0000

          k = 0.0000 0.1250 0.0000 ( 33695 PWs)   bands (ev):

  -101.3671-101.3545-101.3536-101.3441-101.3354-101.3204-101.3193-101.3079
  -100.9339-100.9244-100.9236-100.9140-100.9119-100.9023-100.9015-100.8918
   -61.8361 -61.8328 -61.8237 -61.8225 -61.8189 -61.8174 -61.8173 -61.7672
   -61.7553 -61.7523 -61.7407 -61.7400 -61.7390 -61.7267 -61.7235 -61.7180
   -61.7128 -61.7090 -61.6990 -61.6959 -61.6725 -61.6684 -61.6621 -61.6580
   -61.4351 -61.4315 -61.4274 -61.4231 -61.4144 -61.4105 -61.4060 -61.4018
   -61.3336 -61.3292 -61.3257 -61.3219 -61.3118 -61.3074 -61.3040 -61.2995
   -61.2720 -61.2639 -61.2634 -61.2571 -61.2506 -61.2420 -61.2413 -61.2340
   -10.0287  -6.7848  -5.0793  -3.1228  -3.0888  -2.6324  -2.6204  -2.5691
    -2.5197  -2.3457  -2.3026  -1.9973  -1.8833  -1.8061  -1.7460  -1.7093
    -1.6958  -1.6411  -1.4792  -1.4348  -1.1679  -0.9210  -0.9128  -0.7580
    -0.6065  -0.5955  -0.5794  -0.4204  -0.4095  -0.3971  -0.3878  -0.3816
    -0.2857  -0.2365  -0.1426  -0.1307  -0.1292  -0.0083   0.0136   0.0354
     0.0653   0.0718   0.0769   0.1120   0.1725   0.1772   0.2142   0.5029
     0.5770   0.5850   0.5870   0.6296   0.6950   0.7547   0.8272   0.8479
     0.8776   0.8960   0.9041   1.0108   1.0748   1.0818   1.0984   1.1997
     1.2441   1.3591   1.3609   1.4478   1.4499   1.4524   1.4837   1.4928
     1.4953   1.5364   1.5406   1.5505   1.5873   1.6087   1.6721   1.6732
     1.7177   1.7615   1.7949   1.8064   2.0002   2.0563   2.0766   2.1509
     2.4221   2.4607   2.5789   2.5821   2.6521   2.9653   2.9812   3.3839
     3.8698   4.8125   4.8139   6.0736   6.1254   6.2160   6.2389   6.2446
     6.4206   6.8351   7.0366   7.0384   7.3900   8.5503   8.6770   8.8968

     occupation numbers 
     1.0000   1.0000   1.0000   1.0000   1.0000   1.0000   1.0000   1.0000
     1.0000   1.0000   1.0000   1.0000   1.0000   1.0000   1.0000   1.0000
     1.0000   1.0000   1.0000   1.0000   1.0000   1.0000   1.0000   1.0000
     1.0000   1.0000   1.0000   1.0000   1.0000   1.0000   1.0000   1.0000
     1.0000   1.0000   1.0000   1.0000   1.0000   1.0000   1.0000   1.0000
     1.0000   1.0000   1.0000   1.0000   1.0000   1.0000   1.0000   1.0000
     1.0000   1.0000   1.0000   1.0000   1.0000   1.0000   1.0000   1.0000
     1.0000   1.0000   1.0000   1.0000   1.0000   1.0000   1.0000   1.0000
     1.0000   1.0000   1.0000   1.0000   1.0000   1.0000   1.0000   1.0000
     1.0000   1.0000   1.0000   1.0000   1.0000   1.0000   1.0000   1.0000
     1.0000   1.0000   1.0000   1.0000   1.0000   1.0000   1.0000   1.0000
     1.0000   1.0000   1.0000   1.0000   1.0000   1.0000   1.0000   1.0000
     1.0000   1.0000   1.0000   1.0000   1.0000   1.0000   1.0000   1.0000
     1.0000   1.0000   1.0000   1.0000   1.0000   1.0000   1.0000   1.0000
     1.0000   1.0000   1.0000   1.0000   1.0000   1.0000   1.0000   1.0000
     1.0000   1.0000   1.0000   0.9999   0.9996   0.9995   0.9993   0.9950
     0.9878   0.8906   0.8870   0.5798   0.5697   0.5576   0.4026   0.3598
     0.3481   0.1900   0.1776   0.1505   0.0781   0.0524   0.0153   0.0150
     0.0062   0.0026   0.0013   0.0011   0.0000   0.0000   0.0000   0.0000
     0.0000   0.0000   0.0000   0.0000   0.0000   0.0000   0.0000   0.0000
     0.0000   0.0000   0.0000   0.0000   0.0000   0.0000   0.0000   0.0000
     0.0000   0.0000   0.0000   0.0000   0.0000   0.0000   0.0000   0.0000

          k = 0.0000 0.2500 0.0000 ( 33669 PWs)   bands (ev):

  -101.3656-101.3560-101.3525-101.3452-101.3349-101.3206-101.3187-101.3086
  -100.9328-100.9255-100.9225-100.9151-100.9108-100.9034-100.9004-100.8929
   -61.8334 -61.8240 -61.8219 -61.8179 -61.8157 -61.8120 -61.8108 -61.7725
   -61.7509 -61.7479 -61.7444 -61.7404 -61.7375 -61.7332 -61.7223 -61.7163
   -61.7116 -61.7084 -61.7069 -61.6982 -61.6837 -61.6732 -61.6681 -61.6579
   -61.4341 -61.4282 -61.4202 -61.4133 -61.4118 -61.4069 -61.3993 -61.3905
   -61.3452 -61.3372 -61.3283 -61.3233 -61.3227 -61.3151 -61.3065 -61.3006
   -61.2710 -61.2648 -61.2626 -61.2579 -61.2495 -61.2430 -61.2405 -61.2349
   -10.0267  -6.4920  -4.8104  -3.8264  -2.8904  -2.8652  -2.4394  -2.3930
    -2.3413  -2.2619  -2.2229  -2.0058  -1.7986  -1.7236  -1.6637  -1.6618
    -1.6377  -1.4971  -1.3948  -1.3519  -1.1038  -1.0128  -0.9252  -0.8927
    -0.7580  -0.7400  -0.5597  -0.4546  -0.4184  -0.4151  -0.4147  -0.3624
    -0.2987  -0.2537  -0.2354  -0.1692  -0.0677  -0.0094   0.0142   0.0362
     0.0737   0.0910   0.0921   0.1142   0.1344   0.1483   0.1506   0.4788
     0.4915   0.5182   0.5208   0.5336   0.5833   0.6193   0.7119   0.7782
     0.8245   0.9148   0.9271   0.9803   1.0011   1.0045   1.0222   1.0537
     1.1919   1.2409   1.2494   1.2499   1.3514   1.3581   1.3679   1.3743
     1.3744   1.5058   1.5159   1.5356   1.5818   1.5974   1.6081   1.6137
     1.6145   1.6180   1.6452   1.6954   1.8157   1.8765   1.8795   2.3369
     2.4519   2.4677   2.5234   3.1323   3.1440   3.1951   3.1990   4.0464
     4.4789   4.4844   4.6537   6.3416   6.3483   6.3786   6.4352   6.4415
     6.4428   6.4471   6.9036   7.1297   7.6555   8.4294   8.6913   8.7079

     occupation numbers 
     1.0000   1.0000   1.0000   1.0000   1.0000   1.0000   1.0000   1.0000
     1.0000   1.0000   1.0000   1.0000   1.0000   1.0000   1.0000   1.0000
     1.0000   1.0000   1.0000   1.0000   1.0000   1.0000   1.0000   1.0000
     1.0000   1.0000   1.0000   1.0000   1.0000   1.0000   1.0000   1.0000
     1.0000   1.0000   1.0000   1.0000   1.0000   1.0000   1.0000   1.0000
     1.0000   1.0000   1.0000   1.0000   1.0000   1.0000   1.0000   1.0000
     1.0000   1.0000   1.0000   1.0000   1.0000   1.0000   1.0000   1.0000
     1.0000   1.0000   1.0000   1.0000   1.0000   1.0000   1.0000   1.0000
     1.0000   1.0000   1.0000   1.0000   1.0000   1.0000   1.0000   1.0000
     1.0000   1.0000   1.0000   1.0000   1.0000   1.0000   1.0000   1.0000
     1.0000   1.0000   1.0000   1.0000   1.0000   1.0000   1.0000   1.0000
     1.0000   1.0000   1.0000   1.0000   1.0000   1.0000   1.0000   1.0000
     1.0000   1.0000   1.0000   1.0000   1.0000   1.0000   1.0000   1.0000
     1.0000   1.0000   1.0000   1.0000   1.0000   1.0000   1.0000   1.0000
     1.0000   1.0000   1.0000   1.0000   1.0000   1.0000   1.0000   1.0000
     1.0000   1.0000   1.0000   0.9999   0.9999   0.9999   0.9999   0.9997
     0.9957   0.9886   0.9865   0.9864   0.9048   0.8925   0.8723   0.8573
     0.8569   0.3023   0.2611   0.1925   0.0865   0.0649   0.0529   0.0476
     0.0469   0.0439   0.0259   0.0097   0.0009   0.0003   0.0002   0.0000
     0.0000   0.0000   0.0000   0.0000   0.0000   0.0000   0.0000   0.0000
     0.0000   0.0000   0.0000   0.0000   0.0000   0.0000   0.0000   0.0000
     0.0000   0.0000   0.0000   0.0000   0.0000   0.0000   0.0000   0.0000

          k = 0.0000 0.3750 0.0000 ( 33614 PWs)   bands (ev):

  -101.3634-101.3582-101.3508-101.3469-101.3345-101.3209-101.3179-101.3096
  -100.9311-100.9272-100.9208-100.9168-100.9092-100.9050-100.8987-100.8945
   -61.8297 -61.8233 -61.8153 -61.8126 -61.8115 -61.8054 -61.8008 -61.7715
   -61.7614 -61.7499 -61.7432 -61.7377 -61.7333 -61.7283 -61.7216 -61.7205
   -61.7133 -61.7081 -61.7068 -61.7013 -61.6992 -61.6890 -61.6679 -61.6578
   -61.4327 -61.4295 -61.4118 -61.4083 -61.4032 -61.3948 -61.3825 -61.3738
   -61.3626 -61.3544 -61.3404 -61.3319 -61.3271 -61.3240 -61.3052 -61.3020
   -61.2695 -61.2662 -61.2615 -61.2590 -61.2481 -61.2444 -61.2393 -61.2362
   -10.0246  -6.0175  -4.6315  -4.3860  -3.3121  -2.5544  -2.2041  -2.1684
    -2.1449  -2.1158  -2.0778  -2.0517  -1.7561  -1.6828  -1.6493  -1.6061
    -1.5417  -1.5396  -1.2774  -1.2513  -1.2247  -0.9948  -0.9462  -0.9114
    -0.8944  -0.8404  -0.5413  -0.5166  -0.5165  -0.4842  -0.4573  -0.4098
    -0.3266  -0.3074  -0.2457  -0.1356  -0.0761  -0.0537  -0.0082   0.0034
     0.0213   0.0317   0.1603   0.1711   0.1918   0.1999   0.2231   0.3048
     0.3049   0.3599   0.4566   0.5005   0.5352   0.6291   0.6627   0.8088
     0.8146   0.8181   0.8446   0.8804   0.8864   0.9647   0.9801   0.9897
     0.9931   1.0196   1.1302   1.1321   1.1692   1.2126   1.2807   1.3314
     1.3434   1.4309   1.4431   1.4542   1.4702   1.4960   1.5042   1.6507
     1.6706   1.6791   1.6828   1.7009   1.7623   1.7704   1.7962   2.0997
     2.2632   2.4748   3.1024   3.4073   3.4256   3.9206   3.9298   4.1004
     4.1120   4.3741   4.8343   5.5429   5.5538   6.5713   6.7685   6.7792
     6.8573   6.9417   7.5671   7.6171   7.8743   7.8954   8.0950   8.3865

     occupation numbers 
     1.0000   1.0000   1.0000   1.0000   1.0000   1.0000   1.0000   1.0000
     1.0000   1.0000   1.0000   1.0000   1.0000   1.0000   1.0000   1.0000
     1.0000   1.0000   1.0000   1.0000   1.0000   1.0000   1.0000   1.0000
     1.0000   1.0000   1.0000   1.0000   1.0000   1.0000   1.0000   1.0000
     1.0000   1.0000   1.0000   1.0000   1.0000   1.0000   1.0000   1.0000
     1.0000   1.0000   1.0000   1.0000   1.0000   1.0000   1.0000   1.0000
     1.0000   1.0000   1.0000   1.0000   1.0000   1.0000   1.0000   1.0000
     1.0000   1.0000   1.0000   1.0000   1.0000   1.0000   1.0000   1.0000
     1.0000   1.0000   1.0000   1.0000   1.0000   1.0000   1.0000   1.0000
     1.0000   1.0000   1.0000   1.0000   1.0000   1.0000   1.0000   1.0000
     1.0000   1.0000   1.0000   1.0000   1.0000   1.0000   1.0000   1.0000
     1.0000   1.0000   1.0000   1.0000   1.0000   1.0000   1.0000   1.0000
     1.0000   1.0000   1.0000   1.0000   1.0000   1.0000   1.0000   1.0000
     1.0000   1.0000   1.0000   1.0000   1.0000   1.0000   1.0000   1.0000
     1.0000   1.0000   1.0000   1.0000   1.0000   1.0000   1.0000   1.0000
     1.0000   1.0000   1.0000   1.0000   1.0000   1.0000   0.9999   0.9999
     0.9999   0.9999   0.9987   0.9987   0.9973   0.9935   0.9750   0.9341
     0.9176   0.6596   0.6029   0.5487   0.4689   0.3449   0.3090   0.0233
     0.0158   0.0133   0.0124   0.0087   0.0026   0.0022   0.0013   0.0000
     0.0000   0.0000   0.0000   0.0000   0.0000   0.0000   0.0000   0.0000
     0.0000   0.0000   0.0000   0.0000   0.0000   0.0000   0.0000   0.0000
     0.0000   0.0000   0.0000   0.0000   0.0000   0.0000   0.0000   0.0000

          k = 0.0000-0.5000 0.0000 ( 33596 PWs)   bands (ev):

  -101.3609-101.3608-101.3488-101.3488-101.3343-101.3211-101.3175-101.3100
  -100.9294-100.9289-100.9190-100.9186-100.9078-100.9064-100.8973-100.8960
   -61.8261 -61.8259 -61.8125 -61.8108 -61.8075 -61.8071 -61.7843 -61.7791
   -61.7650 -61.7560 -61.7382 -61.7330 -61.7318 -61.7302 -61.7188 -61.7177
   -61.7128 -61.7108 -61.7049 -61.7046 -61.7037 -61.7032 -61.6679 -61.6577
   -61.4314 -61.4308 -61.4105 -61.4096 -61.3839 -61.3821 -61.3755 -61.3737
   -61.3670 -61.3583 -61.3560 -61.3473 -61.3259 -61.3252 -61.3041 -61.3032
   -61.2679 -61.2677 -61.2603 -61.2602 -61.2468 -61.2456 -61.2382 -61.2373
   -10.0238  -5.3838  -5.3838  -3.8806  -3.8357  -2.2383  -2.2360  -2.0643
    -2.0606  -2.0605  -2.0569  -1.7839  -1.7758  -1.7192  -1.7189  -1.6685
    -1.6505  -1.4101  -1.3931  -1.1299  -1.1239  -1.0992  -1.0747  -0.8298
    -0.7640  -0.7534  -0.7505  -0.7161  -0.6526  -0.4938  -0.4935  -0.4077
    -0.2304  -0.1949  -0.1585  -0.1454  -0.1375  -0.0956  -0.0538  -0.0445
    -0.0218  -0.0112   0.1873   0.1898   0.1921   0.2088   0.3151   0.3214
     0.3271   0.3426   0.5668   0.5716   0.5881   0.5982   0.5999   0.6164
     0.6186   0.6613   0.7378   0.7558   0.9120   0.9494   0.9756   0.9998
     1.0160   1.0193   1.0277   1.0341   1.0462   1.0524   1.2954   1.3135
     1.4020   1.4150   1.4170   1.4212   1.4216   1.4472   1.6821   1.6865
     1.7132   1.7194   1.7195   1.7275   1.7459   1.7483   1.7537   1.7685
     2.2323   2.4777   3.7334   3.7338   3.7367   3.7375   3.7424   3.7614
     4.7011   4.7243   4.7439   4.7445   5.6806   5.7087   7.2197   7.2465
     7.2555   7.2660   7.4989   7.5023   7.5145   7.7301   8.2669   8.3099

     occupation numbers 
     1.0000   1.0000   1.0000   1.0000   1.0000   1.0000   1.0000   1.0000
     1.0000   1.0000   1.0000   1.0000   1.0000   1.0000   1.0000   1.0000
     1.0000   1.0000   1.0000   1.0000   1.0000   1.0000   1.0000   1.0000
     1.0000   1.0000   1.0000   1.0000   1.0000   1.0000   1.0000   1.0000
     1.0000   1.0000   1.0000   1.0000   1.0000   1.0000   1.0000   1.0000
     1.0000   1.0000   1.0000   1.0000   1.0000   1.0000   1.0000   1.0000
     1.0000   1.0000   1.0000   1.0000   1.0000   1.0000   1.0000   1.0000
     1.0000   1.0000   1.0000   1.0000   1.0000   1.0000   1.0000   1.0000
     1.0000   1.0000   1.0000   1.0000   1.0000   1.0000   1.0000   1.0000
     1.0000   1.0000   1.0000   1.0000   1.0000   1.0000   1.0000   1.0000
     1.0000   1.0000   1.0000   1.0000   1.0000   1.0000   1.0000   1.0000
     1.0000   1.0000   1.0000   1.0000   1.0000   1.0000   1.0000   1.0000
     1.0000   1.0000   1.0000   1.0000   1.0000   1.0000   1.0000   1.0000
     1.0000   1.0000   1.0000   1.0000   1.0000   1.0000   1.0000   1.0000
     1.0000   1.0000   1.0000   1.0000   1.0000   1.0000   1.0000   1.0000
     1.0000   1.0000   1.0000   1.0000   1.0000   1.0000   0.9999   0.9999
     0.9999   0.9999   0.9998   0.9998   0.9998   0.9997   0.9668   0.9530
     0.7755   0.7267   0.7188   0.7014   0.6997   0.5827   0.0126   0.0115
     0.0068   0.0060   0.0060   0.0051   0.0035   0.0034   0.0030   0.0023
     0.0000   0.0000   0.0000   0.0000   0.0000   0.0000   0.0000   0.0000
     0.0000   0.0000   0.0000   0.0000   0.0000   0.0000   0.0000   0.0000
     0.0000   0.0000   0.0000   0.0000   0.0000   0.0000   0.0000   0.0000

          k = 0.1250 0.1250 0.0000 ( 33677 PWs)   bands (ev):

  -101.3666-101.3541-101.3541-101.3445-101.3352-101.3203-101.3193-101.3081
  -100.9335-100.9241-100.9239-100.9144-100.9115-100.9019-100.9019-100.8922
   -61.8332 -61.8311 -61.8212 -61.8210 -61.8178 -61.8156 -61.8154 -61.7698
   -61.7536 -61.7513 -61.7403 -61.7401 -61.7390 -61.7281 -61.7230 -61.7177
   -61.7173 -61.7057 -61.7001 -61.6989 -61.6728 -61.6720 -61.6622 -61.6618
   -61.4312 -61.4312 -61.4234 -61.4234 -61.4111 -61.4095 -61.4021 -61.4020
   -61.3334 -61.3332 -61.3260 -61.3260 -61.3115 -61.3114 -61.3052 -61.3026
   -61.2716 -61.2637 -61.2636 -61.2574 -61.2502 -61.2417 -61.2417 -61.2343
   -10.0279  -6.6863  -4.9877  -3.0525  -3.0315  -3.0094  -2.5655  -2.5654
    -2.4580  -2.3522  -2.2477  -1.9503  -1.9502  -1.7165  -1.6942  -1.6723
    -1.5963  -1.5952  -1.4684  -1.3962  -1.1470  -0.9253  -0.8936  -0.8052
    -0.8042  -0.5820  -0.4623  -0.4619  -0.4465  -0.4450  -0.4181  -0.2914
    -0.2887  -0.2251  -0.2223  -0.2091  -0.0438  -0.0418   0.0561   0.0575
     0.0696   0.0828   0.0964   0.1022   0.1205   0.1389   0.1672   0.5296
     0.5674   0.5708   0.5788   0.5836   0.7046   0.7502   0.7541   0.7572
     0.8177   0.8591   0.8602   0.9116   1.0501   1.0746   1.0908   1.2959
     1.3032   1.3448   1.3484   1.3879   1.4151   1.4172   1.4503   1.4530
     1.4740   1.4898   1.5169   1.5174   1.5304   1.5306   1.6284   1.6294
     1.6493   1.7542   1.7837   1.9656   1.9842   1.9846   2.0294   2.1972
     2.1973   2.2354   2.4212   2.4314   2.9035   2.9089   3.6333   3.9708
     3.9729   3.9948   5.4812   6.0748   6.1792   6.2292   6.2748   6.2748
     6.5091   6.5101   6.9335   7.4788   7.7180   8.4356   8.5928   8.6000

     occupation numbers 
     1.0000   1.0000   1.0000   1.0000   1.0000   1.0000   1.0000   1.0000
     1.0000   1.0000   1.0000   1.0000   1.0000   1.0000   1.0000   1.0000
     1.0000   1.0000   1.0000   1.0000   1.0000   1.0000   1.0000   1.0000
     1.0000   1.0000   1.0000   1.0000   1.0000   1.0000   1.0000   1.0000
     1.0000   1.0000   1.0000   1.0000   1.0000   1.0000   1.0000   1.0000
     1.0000   1.0000   1.0000   1.0000   1.0000   1.0000   1.0000   1.0000
     1.0000   1.0000   1.0000   1.0000   1.0000   1.0000   1.0000   1.0000
     1.0000   1.0000   1.0000   1.0000   1.0000   1.0000   1.0000   1.0000
     1.0000   1.0000   1.0000   1.0000   1.0000   1.0000   1.0000   1.0000
     1.0000   1.0000   1.0000   1.0000   1.0000   1.0000   1.0000   1.0000
     1.0000   1.0000   1.0000   1.0000   1.0000   1.0000   1.0000   1.0000
     1.0000   1.0000   1.0000   1.0000   1.0000   1.0000   1.0000   1.0000
     1.0000   1.0000   1.0000   1.0000   1.0000   1.0000   1.0000   1.0000
     1.0000   1.0000   1.0000   1.0000   1.0000   1.0000   1.0000   1.0000
     1.0000   1.0000   1.0000   1.0000   1.0000   1.0000   1.0000   1.0000
     1.0000   1.0000   1.0000   1.0000   0.9997   0.9996   0.9994   0.9664
     0.9614   0.9155   0.9098   0.8206   0.7263   0.7182   0.5679   0.5544
     0.4501   0.3735   0.2576   0.2555   0.2094   0.2086   0.0359   0.0353
     0.0240   0.0030   0.0017   0.0000   0.0000   0.0000   0.0000   0.0000
     0.0000   0.0000   0.0000   0.0000   0.0000   0.0000   0.0000   0.0000
     0.0000   0.0000   0.0000   0.0000   0.0000   0.0000   0.0000   0.0000
     0.0000   0.0000   0.0000   0.0000   0.0000   0.0000   0.0000   0.0000

          k = 0.1250 0.2500 0.0000 ( 33628 PWs)   bands (ev):

  -101.3651-101.3556-101.3530-101.3456-101.3348-101.3203-101.3189-101.3089
  -100.9324-100.9251-100.9229-100.9155-100.9104-100.9030-100.9008-100.8933
   -61.8299 -61.8227 -61.8190 -61.8159 -61.8145 -61.8106 -61.8091 -61.7740
   -61.7499 -61.7487 -61.7444 -61.7403 -61.7370 -61.7323 -61.7225 -61.7190
   -61.7162 -61.7082 -61.7039 -61.7006 -61.6836 -61.6733 -61.6719 -61.6618
   -61.4302 -61.4243 -61.4199 -61.4121 -61.4094 -61.4030 -61.3989 -61.3908
   -61.3449 -61.3375 -61.3324 -61.3268 -61.3230 -61.3155 -61.3106 -61.3046
   -61.2706 -61.2646 -61.2629 -61.2581 -61.2492 -61.2427 -61.2409 -61.2352
   -10.0259  -6.3949  -4.7198  -3.7507  -2.8524  -2.8099  -2.7875  -2.3782
    -2.3417  -2.2830  -2.1259  -1.9512  -1.8340  -1.6486  -1.6316  -1.6072
    -1.5178  -1.4442  -1.4251  -1.2926  -1.0853  -1.0489  -0.9126  -0.9007
    -0.8623  -0.6298  -0.5654  -0.5463  -0.5117  -0.4132  -0.3742  -0.3647
    -0.3446  -0.2797  -0.1477  -0.1391  -0.1188  -0.0256   0.0122   0.0149
     0.0350   0.0573   0.0950   0.1108   0.1256   0.1511   0.1867   0.4196
     0.4588   0.4667   0.5046   0.5285   0.6006   0.6340   0.7180   0.7772
     0.7914   0.7952   0.8250   0.9747   0.9805   1.0081   1.0558   1.1437
     1.1809   1.2175   1.2402   1.2705   1.3141   1.3250   1.3484   1.3939
     1.4015   1.4087   1.4580   1.4758   1.5437   1.5699   1.5887   1.5957
     1.6100   1.6199   1.6806   1.7185   1.7931   1.8069   1.8634   2.2953
     2.3433   2.4346   2.4501   2.6700   2.6930   3.3244   3.5085   4.2164
     4.2605   4.7947   5.1550   5.6993   6.4438   6.4761   6.5103   6.5433
     6.7782   7.0037   7.2277   7.2372   7.7448   7.8126   8.4891   8.7272

     occupation numbers 
     1.0000   1.0000   1.0000   1.0000   1.0000   1.0000   1.0000   1.0000
     1.0000   1.0000   1.0000   1.0000   1.0000   1.0000   1.0000   1.0000
     1.0000   1.0000   1.0000   1.0000   1.0000   1.0000   1.0000   1.0000
     1.0000   1.0000   1.0000   1.0000   1.0000   1.0000   1.0000   1.0000
     1.0000   1.0000   1.0000   1.0000   1.0000   1.0000   1.0000   1.0000
     1.0000   1.0000   1.0000   1.0000   1.0000   1.0000   1.0000   1.0000
     1.0000   1.0000   1.0000   1.0000   1.0000   1.0000   1.0000   1.0000
     1.0000   1.0000   1.0000   1.0000   1.0000   1.0000   1.0000   1.0000
     1.0000   1.0000   1.0000   1.0000   1.0000   1.0000   1.0000   1.0000
     1.0000   1.0000   1.0000   1.0000   1.0000   1.0000   1.0000   1.0000
     1.0000   1.0000   1.0000   1.0000   1.0000   1.0000   1.0000   1.0000
     1.0000   1.0000   1.0000   1.0000   1.0000   1.0000   1.0000   1.0000
     1.0000   1.0000   1.0000   1.0000   1.0000   1.0000   1.0000   1.0000
     1.0000   1.0000   1.0000   1.0000   1.0000   1.0000   1.0000   1.0000
     1.0000   1.0000   1.0000   1.0000   1.0000   1.0000   1.0000   1.0000
     1.0000   1.0000   1.0000   0.9999   0.9999   0.9999   0.9997   0.9983
     0.9965   0.9928   0.9887   0.9795   0.9524   0.9415   0.9098   0.8024
     0.7771   0.7512   0.5296   0.4408   0.1687   0.1073   0.0762   0.0670
     0.0511   0.0423   0.0130   0.0061   0.0014   0.0010   0.0003   0.0000
     0.0000   0.0000   0.0000   0.0000   0.0000   0.0000   0.0000   0.0000
     0.0000   0.0000   0.0000   0.0000   0.0000   0.0000   0.0000   0.0000
     0.0000   0.0000   0.0000   0.0000   0.0000   0.0000   0.0000   0.0000

          k = 0.1250 0.3750 0.0000 ( 33622 PWs)   bands (ev):

  -101.3630-101.3578-101.3513-101.3473-101.3343-101.3206-101.3181-101.3098
  -100.9307-100.9268-100.9212-100.9172-100.9088-100.9046-100.8991-100.8949
   -61.8262 -61.8199 -61.8141 -61.8104 -61.8101 -61.8031 -61.7998 -61.7729
   -61.7607 -61.7503 -61.7432 -61.7382 -61.7336 -61.7283 -61.7237 -61.7191
   -61.7156 -61.7129 -61.7057 -61.7012 -61.6983 -61.6886 -61.6719 -61.6617
   -61.4288 -61.4255 -61.4079 -61.4044 -61.4029 -61.3951 -61.3822 -61.3741
   -61.3623 -61.3547 -61.3400 -61.3322 -61.3312 -61.3281 -61.3093 -61.3060
   -61.2692 -61.2659 -61.2618 -61.2592 -61.2477 -61.2441 -61.2396 -61.2365
   -10.0238  -5.9227  -4.5471  -4.2976  -3.2330  -2.6099  -2.4736  -2.3411
    -2.1118  -2.0252  -1.9887  -1.9564  -1.7114  -1.6440  -1.5939  -1.5635
    -1.5070  -1.4784  -1.3374  -1.2536  -1.1444  -1.0089  -0.9699  -0.8667
    -0.8251  -0.8113  -0.6001  -0.5656  -0.5400  -0.5302  -0.5157  -0.4079
    -0.3151  -0.2965  -0.2138  -0.1705  -0.0573  -0.0479  -0.0315  -0.0283
    -0.0002   0.0221   0.0973   0.1272   0.2052   0.2178   0.2856   0.3044
     0.3205   0.3746   0.4509   0.4597   0.5450   0.5687   0.6497   0.7256
     0.8071   0.8222   0.8361   0.8473   0.8538   0.9568   0.9848   1.0104
     1.0165   1.0339   1.0622   1.1148   1.1983   1.2483   1.2714   1.2938
     1.3167   1.3297   1.3489   1.3867   1.4163   1.5274   1.5715   1.6441
     1.6494   1.6586   1.6746   1.6968   1.7089   1.7392   1.7974   2.2652
     2.3052   2.4389   2.4437   2.9045   3.0264   3.2435   4.2881   4.3588
     4.5054   4.6538   4.9710   5.4974   6.1752   6.6820   6.7077   6.9520
     7.0451   7.2310   7.4508   7.6532   7.7142   8.1861   8.4778   8.7033

     occupation numbers 
     1.0000   1.0000   1.0000   1.0000   1.0000   1.0000   1.0000   1.0000
     1.0000   1.0000   1.0000   1.0000   1.0000   1.0000   1.0000   1.0000
     1.0000   1.0000   1.0000   1.0000   1.0000   1.0000   1.0000   1.0000
     1.0000   1.0000   1.0000   1.0000   1.0000   1.0000   1.0000   1.0000
     1.0000   1.0000   1.0000   1.0000   1.0000   1.0000   1.0000   1.0000
     1.0000   1.0000   1.0000   1.0000   1.0000   1.0000   1.0000   1.0000
     1.0000   1.0000   1.0000   1.0000   1.0000   1.0000   1.0000   1.0000
     1.0000   1.0000   1.0000   1.0000   1.0000   1.0000   1.0000   1.0000
     1.0000   1.0000   1.0000   1.0000   1.0000   1.0000   1.0000   1.0000
     1.0000   1.0000   1.0000   1.0000   1.0000   1.0000   1.0000   1.0000
     1.0000   1.0000   1.0000   1.0000   1.0000   1.0000   1.0000   1.0000
     1.0000   1.0000   1.0000   1.0000   1.0000   1.0000   1.0000   1.0000
     1.0000   1.0000   1.0000   1.0000   1.0000   1.0000   1.0000   1.0000
     1.0000   1.0000   1.0000   1.0000   1.0000   1.0000   1.0000   1.0000
     1.0000   1.0000   1.0000   1.0000   1.0000   1.0000   1.0000   1.0000
     1.0000   1.0000   1.0000   1.0000   1.0000   1.0000   0.9999   0.9999
     0.9999   0.9998   0.9997   0.9991   0.9951   0.9868   0.9792   0.9678
     0.9500   0.9361   0.9089   0.8243   0.7217   0.2193   0.1042   0.0265
     0.0239   0.0200   0.0146   0.0094   0.0074   0.0041   0.0013   0.0000
     0.0000   0.0000   0.0000   0.0000   0.0000   0.0000   0.0000   0.0000
     0.0000   0.0000   0.0000   0.0000   0.0000   0.0000   0.0000   0.0000
     0.0000   0.0000   0.0000   0.0000   0.0000   0.0000   0.0000   0.0000

          k = 0.1250-0.5000 0.0000 ( 33600 PWs)   bands (ev):

  -101.3604-101.3604-101.3493-101.3493-101.3341-101.3208-101.3177-101.3103
  -100.9290-100.9285-100.9194-100.9190-100.9074-100.9060-100.8977-100.8963
   -61.8225 -61.8222 -61.8112 -61.8096 -61.8054 -61.8045 -61.7834 -61.7783
   -61.7656 -61.7568 -61.7414 -61.7344 -61.7306 -61.7281 -61.7185 -61.7182
   -61.7152 -61.7139 -61.7091 -61.7069 -61.7004 -61.6997 -61.6718 -61.6616
   -61.4275 -61.4268 -61.4065 -61.4056 -61.3836 -61.3818 -61.3759 -61.3740
   -61.3667 -61.3587 -61.3557 -61.3477 -61.3300 -61.3292 -61.3081 -61.3072
   -61.2676 -61.2674 -61.2606 -61.2605 -61.2465 -61.2453 -61.2385 -61.2376
   -10.0230  -5.2932  -5.2931  -3.7956  -3.7511  -2.4175  -2.4162  -2.1627
    -2.1615  -1.8580  -1.8403  -1.7456  -1.7376  -1.7300  -1.7273  -1.6238
    -1.6071  -1.3821  -1.3658  -1.1734  -1.1662  -1.0027  -0.9908  -0.8276
    -0.7647  -0.7559  -0.7461  -0.6927  -0.6414  -0.5374  -0.5338  -0.4058
    -0.2750  -0.2373  -0.2318  -0.2285  -0.1183  -0.0874  -0.0211  -0.0122
     0.0022   0.0112   0.0797   0.0934   0.2707   0.2965   0.3067   0.3126
     0.3242   0.3292   0.5442   0.5636   0.5728   0.5910   0.5922   0.6403
     0.6482   0.6623   0.6899   0.7017   0.8814   0.8946   0.9035   0.9249
     1.0166   1.0421   1.0562   1.0802   1.0908   1.1143   1.2591   1.2792
     1.3131   1.3191   1.3264   1.3378   1.4346   1.4436   1.6244   1.6294
     1.6702   1.6705   1.6857   1.6887   1.7270   1.7297   1.9677   1.9875
     2.2398   2.4472   2.6308   2.6391   3.6456   3.6757   3.8635   3.8658
     5.0939   5.1031   5.1762   5.1964   5.7975   5.8249   7.0498   7.0513
     7.5924   7.6002   7.6260   7.8072   7.8726   7.8754   8.3632   8.4060

     occupation numbers 
     1.0000   1.0000   1.0000   1.0000   1.0000   1.0000   1.0000   1.0000
     1.0000   1.0000   1.0000   1.0000   1.0000   1.0000   1.0000   1.0000
     1.0000   1.0000   1.0000   1.0000   1.0000   1.0000   1.0000   1.0000
     1.0000   1.0000   1.0000   1.0000   1.0000   1.0000   1.0000   1.0000
     1.0000   1.0000   1.0000   1.0000   1.0000   1.0000   1.0000   1.0000
     1.0000   1.0000   1.0000   1.0000   1.0000   1.0000   1.0000   1.0000
     1.0000   1.0000   1.0000   1.0000   1.0000   1.0000   1.0000   1.0000
     1.0000   1.0000   1.0000   1.0000   1.0000   1.0000   1.0000   1.0000
     1.0000   1.0000   1.0000   1.0000   1.0000   1.0000   1.0000   1.0000
     1.0000   1.0000   1.0000   1.0000   1.0000   1.0000   1.0000   1.0000
     1.0000   1.0000   1.0000   1.0000   1.0000   1.0000   1.0000   1.0000
     1.0000   1.0000   1.0000   1.0000   1.0000   1.0000   1.0000   1.0000
     1.0000   1.0000   1.0000   1.0000   1.0000   1.0000   1.0000   1.0000
     1.0000   1.0000   1.0000   1.0000   1.0000   1.0000   1.0000   1.0000
     1.0000   1.0000   1.0000   1.0000   1.0000   1.0000   1.0000   1.0000
     1.0000   1.0000   1.0000   1.0000   1.0000   1.0000   1.0000   1.0000
     0.9999   0.9998   0.9997   0.9995   0.9994   0.9991   0.9836   0.9757
     0.9533   0.9477   0.9400   0.9257   0.6428   0.6001   0.0388   0.0353
     0.0159   0.0158   0.0117   0.0110   0.0052   0.0049   0.0000   0.0000
     0.0000   0.0000   0.0000   0.0000   0.0000   0.0000   0.0000   0.0000
     0.0000   0.0000   0.0000   0.0000   0.0000   0.0000   0.0000   0.0000
     0.0000   0.0000   0.0000   0.0000   0.0000   0.0000   0.0000   0.0000

          k = 0.2500 0.2500 0.0000 ( 33623 PWs)   bands (ev):

  -101.3637-101.3545-101.3544-101.3468-101.3343-101.3198-101.3191-101.3097
  -100.9313-100.9241-100.9239-100.9166-100.9093-100.9019-100.9019-100.8944
   -61.8219 -61.8183 -61.8130 -61.8111 -61.8105 -61.8060 -61.8044 -61.7772
   -61.7493 -61.7467 -61.7466 -61.7379 -61.7365 -61.7313 -61.7291 -61.7252
   -61.7166 -61.7072 -61.7069 -61.7014 -61.6843 -61.6822 -61.6734 -61.6723
   -61.4189 -61.4189 -61.4131 -61.4129 -61.3988 -61.3972 -61.3919 -61.3916
   -61.3443 -61.3438 -61.3383 -61.3383 -61.3223 -61.3219 -61.3174 -61.3149
   -61.2697 -61.2638 -61.2638 -61.2589 -61.2482 -61.2418 -61.2418 -61.2361
   -10.0238  -6.1076  -4.4555  -3.5374  -3.5359  -2.6071  -2.5957  -2.5653
    -2.4517  -2.1199  -1.9829  -1.8091  -1.8090  -1.6025  -1.5401  -1.5217
    -1.5067  -1.3109  -1.3092  -1.1814  -1.1040  -1.0940  -1.0271  -0.8435
    -0.8193  -0.6722  -0.6706  -0.5706  -0.5302  -0.5277  -0.4425  -0.4340
    -0.4081  -0.1615  -0.1462  -0.1416  -0.0992  -0.0770  -0.0718  -0.0562
    -0.0031   0.0332   0.0699   0.1278   0.1288   0.2379   0.2386   0.3466
     0.3476   0.4369   0.4585   0.4637   0.5955   0.6378   0.6441   0.6771
     0.6796   0.7294   0.8992   0.9425   0.9427   0.9460   0.9706   1.0877
     1.1289   1.1558   1.2288   1.2382   1.2406   1.2523   1.2525   1.2620
     1.3307   1.3452   1.4125   1.4573   1.4886   1.5104   1.5114   1.5586
     1.5614   1.6466   1.7366   1.7402   1.7673   1.7764   1.8081   1.9118
     1.9118   2.3468   2.3683   2.4219   3.0860   3.1591   3.1632   4.1598
     4.6919   5.1860   5.1905   6.2484   6.6721   6.6951   6.6965   6.7638
     6.8531   7.2943   7.2944   7.5206   8.0125   8.6599   8.6687   8.6864

     occupation numbers 
     1.0000   1.0000   1.0000   1.0000   1.0000   1.0000   1.0000   1.0000
     1.0000   1.0000   1.0000   1.0000   1.0000   1.0000   1.0000   1.0000
     1.0000   1.0000   1.0000   1.0000   1.0000   1.0000   1.0000   1.0000
     1.0000   1.0000   1.0000   1.0000   1.0000   1.0000   1.0000   1.0000
     1.0000   1.0000   1.0000   1.0000   1.0000   1.0000   1.0000   1.0000
     1.0000   1.0000   1.0000   1.0000   1.0000   1.0000   1.0000   1.0000
     1.0000   1.0000   1.0000   1.0000   1.0000   1.0000   1.0000   1.0000
     1.0000   1.0000   1.0000   1.0000   1.0000   1.0000   1.0000   1.0000
     1.0000   1.0000   1.0000   1.0000   1.0000   1.0000   1.0000   1.0000
     1.0000   1.0000   1.0000   1.0000   1.0000   1.0000   1.0000   1.0000
     1.0000   1.0000   1.0000   1.0000   1.0000   1.0000   1.0000   1.0000
     1.0000   1.0000   1.0000   1.0000   1.0000   1.0000   1.0000   1.0000
     1.0000   1.0000   1.0000   1.0000   1.0000   1.0000   1.0000   1.0000
     1.0000   1.0000   1.0000   1.0000   1.0000   1.0000   1.0000   1.0000
     1.0000   1.0000   1.0000   1.0000   1.0000   1.0000   1.0000   1.0000
     1.0000   1.0000   1.0000   1.0000   1.0000   1.0000   0.9999   0.9995
     0.9988   0.9979   0.9910   0.9892   0.9886   0.9857   0.9857   0.9827
     0.9349   0.9150   0.7366   0.5333   0.3792   0.2831   0.2791   0.1310
     0.1247   0.0253   0.0043   0.0040   0.0023   0.0019   0.0010   0.0001
     0.0001   0.0000   0.0000   0.0000   0.0000   0.0000   0.0000   0.0000
     0.0000   0.0000   0.0000   0.0000   0.0000   0.0000   0.0000   0.0000
     0.0000   0.0000   0.0000   0.0000   0.0000   0.0000   0.0000   0.0000

          k = 0.2500 0.3750 0.0000 ( 33636 PWs)   bands (ev):

  -101.3616-101.3566-101.3527-101.3485-101.3338-101.3199-101.3185-101.3106
  -100.9296-100.9257-100.9223-100.9183-100.9077-100.9035-100.9002-100.8960
   -61.8172 -61.8122 -61.8097 -61.8055 -61.8048 -61.7975 -61.7968 -61.7764
   -61.7591 -61.7499 -61.7434 -61.7383 -61.7340 -61.7316 -61.7303 -61.7266
   -61.7165 -61.7108 -61.7071 -61.7013 -61.6973 -61.6880 -61.6827 -61.6726
   -61.4175 -61.4143 -61.4019 -61.3966 -61.3960 -61.3931 -61.3812 -61.3750
   -61.3614 -61.3556 -61.3428 -61.3396 -61.3391 -61.3331 -61.3208 -61.3174
   -61.2683 -61.2651 -61.2626 -61.2600 -61.2468 -61.2432 -61.2406 -61.2374
   -10.0218  -5.6434  -4.3026  -4.0405  -3.2262  -3.0070  -2.6252  -2.3030
    -2.2518  -1.8840  -1.8233  -1.8162  -1.6830  -1.6409  -1.5397  -1.4084
    -1.4068  -1.3699  -1.3360  -1.2197  -1.0255  -1.0055  -0.9352  -0.8071
    -0.7841  -0.7339  -0.7130  -0.7024  -0.6103  -0.5817  -0.5725  -0.4308
    -0.4033  -0.2901  -0.2616  -0.1793  -0.1599  -0.1190  -0.0757  -0.0197
     0.0171   0.0434   0.0597   0.1409   0.2330   0.2754   0.3119   0.3516
     0.3523   0.3764   0.3869   0.4004   0.4975   0.5467   0.6168   0.6565
     0.6878   0.7554   0.7827   0.8068   0.8903   0.9123   0.9199   0.9361
     0.9851   1.0255   1.0669   1.1219   1.1510   1.1762   1.1802   1.1958
     1.2370   1.2708   1.2779   1.3657   1.4297   1.4461   1.4469   1.5283
     1.5381   1.5572   1.6683   1.6877   1.6984   1.7515   1.8005   1.9826
     2.0141   2.2844   2.3075   2.3714   2.7044   3.3911   3.6036   3.7808
     4.8676   5.3072   5.3555   5.7710   6.9398   6.9800   7.0073   7.2344
     7.3439   7.7460   7.8654   7.8970   8.0027   8.4568   8.7483   8.7764

     occupation numbers 
     1.0000   1.0000   1.0000   1.0000   1.0000   1.0000   1.0000   1.0000
     1.0000   1.0000   1.0000   1.0000   1.0000   1.0000   1.0000   1.0000
     1.0000   1.0000   1.0000   1.0000   1.0000   1.0000   1.0000   1.0000
     1.0000   1.0000   1.0000   1.0000   1.0000   1.0000   1.0000   1.0000
     1.0000   1.0000   1.0000   1.0000   1.0000   1.0000   1.0000   1.0000
     1.0000   1.0000   1.0000   1.0000   1.0000   1.0000   1.0000   1.0000
     1.0000   1.0000   1.0000   1.0000   1.0000   1.0000   1.0000   1.0000
     1.0000   1.0000   1.0000   1.0000   1.0000   1.0000   1.0000   1.0000
     1.0000   1.0000   1.0000   1.0000   1.0000   1.0000   1.0000   1.0000
     1.0000   1.0000   1.0000   1.0000   1.0000   1.0000   1.0000   1.0000
     1.0000   1.0000   1.0000   1.0000   1.0000   1.0000   1.0000   1.0000
     1.0000   1.0000   1.0000   1.0000   1.0000   1.0000   1.0000   1.0000
     1.0000   1.0000   1.0000   1.0000   1.0000   1.0000   1.0000   1.0000
     1.0000   1.0000   1.0000   1.0000   1.0000   1.0000   1.0000   1.0000
     1.0000   1.0000   1.0000   1.0000   1.0000   1.0000   1.0000   1.0000
     1.0000   1.0000   1.0000   1.0000   1.0000   1.0000   1.0000   1.0000
     0.9999   0.9998   0.9996   0.9989   0.9981   0.9968   0.9966   0.9953
     0.9894   0.9794   0.9764   0.8771   0.6650   0.5883   0.5843   0.2164
     0.1849   0.1340   0.0165   0.0113   0.0091   0.0032   0.0012   0.0000
     0.0000   0.0000   0.0000   0.0000   0.0000   0.0000   0.0000   0.0000
     0.0000   0.0000   0.0000   0.0000   0.0000   0.0000   0.0000   0.0000
     0.0000   0.0000   0.0000   0.0000   0.0000   0.0000   0.0000   0.0000

          k = 0.2500-0.5000 0.0000 ( 33646 PWs)   bands (ev):

  -101.3591-101.3591-101.3506-101.3506-101.3336-101.3201-101.3181-101.3110
  -100.9279-100.9274-100.9205-100.9201-100.9063-100.9049-100.8988-100.8975
   -61.8140 -61.8130 -61.8066 -61.8056 -61.8003 -61.7981 -61.7810 -61.7758
   -61.7668 -61.7592 -61.7443 -61.7356 -61.7333 -61.7298 -61.7263 -61.7224
   -61.7159 -61.7150 -61.7079 -61.7066 -61.6988 -61.6980 -61.6827 -61.6725
   -61.4162 -61.4155 -61.3953 -61.3944 -61.3826 -61.3809 -61.3767 -61.3749
   -61.3657 -61.3596 -61.3547 -61.3486 -61.3416 -61.3408 -61.3196 -61.3186
   -61.2667 -61.2665 -61.2614 -61.2612 -61.2456 -61.2444 -61.2394 -61.2385
   -10.0210  -5.0274  -5.0272  -3.5501  -3.5070  -2.8950  -2.8932  -1.9947
    -1.9785  -1.9553  -1.9515  -1.6187  -1.6151  -1.5993  -1.5936  -1.5469
    -1.5314  -1.2847  -1.2710  -1.1634  -1.1609  -0.8833  -0.8674  -0.8217
    -0.7708  -0.7452  -0.7333  -0.6717  -0.6559  -0.6332  -0.5969  -0.4037
    -0.4013  -0.3619  -0.3533  -0.3410  -0.1561  -0.1210  -0.0525  -0.0460
     0.0551   0.0672   0.0871   0.1047   0.2657   0.2711   0.3095   0.3312
     0.3692   0.3833   0.5347   0.5543   0.5610   0.5799   0.5808   0.6089
     0.6285   0.6342   0.6882   0.6920   0.7234   0.7422   0.8594   0.8842
     1.0165   1.0351   1.0395   1.0499   1.0617   1.0764   1.1178   1.1396
     1.1800   1.1988   1.3577   1.3842   1.3931   1.4066   1.5161   1.5213
     1.5461   1.5580   1.5786   1.5827   1.7239   1.7244   1.8556   1.8701
     2.2519   2.3168   2.3315   2.3773   2.7835   2.8098   4.2109   4.2131
     4.4890   4.4984   6.1356   6.1618   6.4462   6.4606   7.3387   7.3387
     7.8706   7.8814   7.9557   8.0410   8.2941   8.3026   8.6507   8.6897

     occupation numbers 
     1.0000   1.0000   1.0000   1.0000   1.0000   1.0000   1.0000   1.0000
     1.0000   1.0000   1.0000   1.0000   1.0000   1.0000   1.0000   1.0000
     1.0000   1.0000   1.0000   1.0000   1.0000   1.0000   1.0000   1.0000
     1.0000   1.0000   1.0000   1.0000   1.0000   1.0000   1.0000   1.0000
     1.0000   1.0000   1.0000   1.0000   1.0000   1.0000   1.0000   1.0000
     1.0000   1.0000   1.0000   1.0000   1.0000   1.0000   1.0000   1.0000
     1.0000   1.0000   1.0000   1.0000   1.0000   1.0000   1.0000   1.0000
     1.0000   1.0000   1.0000   1.0000   1.0000   1.0000   1.0000   1.0000
     1.0000   1.0000   1.0000   1.0000   1.0000   1.0000   1.0000   1.0000
     1.0000   1.0000   1.0000   1.0000   1.0000   1.0000   1.0000   1.0000
     1.0000   1.0000   1.0000   1.0000   1.0000   1.0000   1.0000   1.0000
     1.0000   1.0000   1.0000   1.0000   1.0000   1.0000   1.0000   1.0000
     1.0000   1.0000   1.0000   1.0000   1.0000   1.0000   1.0000   1.0000
     1.0000   1.0000   1.0000   1.0000   1.0000   1.0000   1.0000   1.0000
     1.0000   1.0000   1.0000   1.0000   1.0000   1.0000   1.0000   1.0000
     1.0000   1.0000   1.0000   1.0000   1.0000   1.0000   1.0000   1.0000
     0.9999   0.9998   0.9998   0.9997   0.9997   0.9996   0.9990   0.9985
     0.9966   0.9950   0.8932   0.8313   0.8047   0.7590   0.2605   0.2410
     0.1621   0.1322   0.0917   0.0851   0.0055   0.0054   0.0004   0.0003
     0.0000   0.0000   0.0000   0.0000   0.0000   0.0000   0.0000   0.0000
     0.0000   0.0000   0.0000   0.0000   0.0000   0.0000   0.0000   0.0000
     0.0000   0.0000   0.0000   0.0000   0.0000   0.0000   0.0000   0.0000

          k = 0.3750 0.3750 0.0000 ( 33610 PWs)   bands (ev):

  -101.3596-101.3548-101.3547-101.3504-101.3334-101.3191-101.3189-101.3114
  -100.9280-100.9241-100.9239-100.9200-100.9061-100.9019-100.9019-100.8977
   -61.8104 -61.8055 -61.8050 -61.7996 -61.7943 -61.7924 -61.7877 -61.7796
   -61.7596 -61.7486 -61.7474 -61.7451 -61.7421 -61.7359 -61.7291 -61.7246
   -61.7166 -61.7092 -61.7069 -61.7020 -61.6969 -61.6966 -61.6873 -61.6873
   -61.4006 -61.4006 -61.3975 -61.3970 -61.3807 -61.3790 -61.3766 -61.3761
   -61.3604 -61.3597 -61.3569 -61.3568 -61.3381 -61.3374 -61.3356 -61.3332
   -61.2669 -61.2639 -61.2639 -61.2611 -61.2454 -61.2419 -61.2419 -61.2387
   -10.0198  -5.1949  -3.9264  -3.9255  -3.6400  -3.0113  -2.6701  -2.6680
    -1.9544  -1.9527  -1.6970  -1.6203  -1.6059  -1.5988  -1.4733  -1.3907
    -1.3889  -1.2642  -1.2507  -0.9730  -0.9709  -0.9115  -0.9060  -0.8949
    -0.8696  -0.7537  -0.7152  -0.6908  -0.6579  -0.6029  -0.5771  -0.5765
    -0.4350  -0.3988  -0.3705  -0.2393  -0.2347  -0.2170  -0.0961  -0.0764
    -0.0723   0.1552   0.1739   0.2004   0.3100   0.3100   0.3421   0.3452
     0.3510   0.3725   0.3746   0.4786   0.4821   0.5510   0.6021   0.6094
     0.6454   0.6544   0.6683   0.7556   0.7676   0.7819   0.8381   0.9272
     0.9336   0.9585   1.0290   1.0290   1.0732   1.0907   1.0938   1.1030
     1.1349   1.1582   1.1797   1.2737   1.2772   1.2945   1.3767   1.3914
     1.3920   1.4618   1.5132   1.7020   1.7050   1.7284   1.7429   1.9009
     1.9026   2.2927   2.3060   2.3438   2.7096   3.1937   3.1984   4.1054
     4.4651   5.4022   5.4070   5.9409   6.8811   7.5242   7.5245   7.7003
     7.8169   8.1838   8.2411   8.2424   8.4731   8.8951   9.0633   9.1789

     occupation numbers 
     1.0000   1.0000   1.0000   1.0000   1.0000   1.0000   1.0000   1.0000
     1.0000   1.0000   1.0000   1.0000   1.0000   1.0000   1.0000   1.0000
     1.0000   1.0000   1.0000   1.0000   1.0000   1.0000   1.0000   1.0000
     1.0000   1.0000   1.0000   1.0000   1.0000   1.0000   1.0000   1.0000
     1.0000   1.0000   1.0000   1.0000   1.0000   1.0000   1.0000   1.0000
     1.0000   1.0000   1.0000   1.0000   1.0000   1.0000   1.0000   1.0000
     1.0000   1.0000   1.0000   1.0000   1.0000   1.0000   1.0000   1.0000
     1.0000   1.0000   1.0000   1.0000   1.0000   1.0000   1.0000   1.0000
     1.0000   1.0000   1.0000   1.0000   1.0000   1.0000   1.0000   1.0000
     1.0000   1.0000   1.0000   1.0000   1.0000   1.0000   1.0000   1.0000
     1.0000   1.0000   1.0000   1.0000   1.0000   1.0000   1.0000   1.0000
     1.0000   1.0000   1.0000   1.0000   1.0000   1.0000   1.0000   1.0000
     1.0000   1.0000   1.0000   1.0000   1.0000   1.0000   1.0000   1.0000
     1.0000   1.0000   1.0000   1.0000   1.0000   1.0000   1.0000   1.0000
     1.0000   1.0000   1.0000   1.0000   1.0000   1.0000   1.0000   1.0000
     1.0000   1.0000   1.0000   1.0000   1.0000   1.0000   1.0000   1.0000
     1.0000   1.0000   0.9998   0.9998   0.9996   0.9994   0.9994   0.9993
     0.9986   0.9978   0.9966   0.9782   0.9767   0.9673   0.8512   0.8101
     0.8083   0.5106   0.2719   0.0085   0.0080   0.0050   0.0038   0.0002
     0.0002   0.0000   0.0000   0.0000   0.0000   0.0000   0.0000   0.0000
     0.0000   0.0000   0.0000   0.0000   0.0000   0.0000   0.0000   0.0000
     0.0000   0.0000   0.0000   0.0000   0.0000   0.0000   0.0000   0.0000

          k = 0.3750-0.5000 0.0000 ( 33648 PWs)   bands (ev):

  -101.3572-101.3571-101.3526-101.3526-101.3331-101.3192-101.3186-101.3118
  -100.9262-100.9257-100.9222-100.9218-100.9046-100.9033-100.9005-100.8991
   -61.8074 -61.8052 -61.8015 -61.7996 -61.7889 -61.7881 -61.7773 -61.7720
   -61.7687 -61.7630 -61.7490 -61.7485 -61.7408 -61.7318 -61.7243 -61.7235
   -61.7143 -61.7136 -61.7059 -61.7057 -61.6988 -61.6981 -61.6965 -61.6871
   -61.3992 -61.3986 -61.3813 -61.3795 -61.3786 -61.3781 -61.3776 -61.3762
   -61.3643 -61.3609 -61.3588 -61.3581 -61.3533 -61.3500 -61.3365 -61.3355
   -61.2655 -61.2653 -61.2626 -61.2624 -61.2442 -61.2431 -61.2408 -61.2398
   -10.0190  -4.6063  -4.6058  -3.4702  -3.4693  -3.1731  -3.1332  -2.3010
    -2.2738  -1.6938  -1.6933  -1.5135  -1.5134  -1.4924  -1.4908  -1.4737
    -1.4619  -1.1222  -1.1114  -1.0838  -1.0629  -0.8344  -0.8232  -0.8069
    -0.7882  -0.7745  -0.7330  -0.7226  -0.7147  -0.6510  -0.6111  -0.5661
    -0.5235  -0.4190  -0.3981  -0.3934  -0.2001  -0.1885  -0.1814  -0.1532
     0.0173   0.0279   0.2445   0.2580   0.2955   0.3105   0.3914   0.4138
     0.4212   0.4402   0.5257   0.5273   0.5378   0.5485   0.5584   0.5764
     0.5818   0.5968   0.6156   0.6291   0.7016   0.7100   0.8012   0.8151
     0.8991   0.9208   0.9213   0.9395   0.9625   0.9890   1.0137   1.0444
     1.1359   1.1361   1.1740   1.1932   1.2985   1.3181   1.3183   1.3354
     1.3500   1.3516   1.6711   1.6716   1.7131   1.7229   1.7248   1.7300
     2.2353   2.2527   2.2734   2.3082   2.7152   2.7333   3.7679   3.7781
     4.7152   4.7180   6.0766   6.0853   6.6704   6.6948   8.2023   8.2275
     8.3225   8.3459   8.4419   8.4691   8.5078   8.5138   9.1201   9.1479

     occupation numbers 
     1.0000   1.0000   1.0000   1.0000   1.0000   1.0000   1.0000   1.0000
     1.0000   1.0000   1.0000   1.0000   1.0000   1.0000   1.0000   1.0000
     1.0000   1.0000   1.0000   1.0000   1.0000   1.0000   1.0000   1.0000
     1.0000   1.0000   1.0000   1.0000   1.0000   1.0000   1.0000   1.0000
     1.0000   1.0000   1.0000   1.0000   1.0000   1.0000   1.0000   1.0000
     1.0000   1.0000   1.0000   1.0000   1.0000   1.0000   1.0000   1.0000
     1.0000   1.0000   1.0000   1.0000   1.0000   1.0000   1.0000   1.0000
     1.0000   1.0000   1.0000   1.0000   1.0000   1.0000   1.0000   1.0000
     1.0000   1.0000   1.0000   1.0000   1.0000   1.0000   1.0000   1.0000
     1.0000   1.0000   1.0000   1.0000   1.0000   1.0000   1.0000   1.0000
     1.0000   1.0000   1.0000   1.0000   1.0000   1.0000   1.0000   1.0000
     1.0000   1.0000   1.0000   1.0000   1.0000   1.0000   1.0000   1.0000
     1.0000   1.0000   1.0000   1.0000   1.0000   1.0000   1.0000   1.0000
     1.0000   1.0000   1.0000   1.0000   1.0000   1.0000   1.0000   1.0000
     1.0000   1.0000   1.0000   1.0000   1.0000   1.0000   1.0000   1.0000
     1.0000   1.0000   1.0000   1.0000   1.0000   1.0000   1.0000   1.0000
     1.0000   1.0000   1.0000   1.0000   1.0000   0.9999   0.9999   0.9998
     0.9986   0.9986   0.9970   0.9956   0.9647   0.9487   0.9485   0.9290
     0.9071   0.9044   0.0156   0.0155   0.0068   0.0056   0.0054   0.0049
     0.0000   0.0000   0.0000   0.0000   0.0000   0.0000   0.0000   0.0000
     0.0000   0.0000   0.0000   0.0000   0.0000   0.0000   0.0000   0.0000
     0.0000   0.0000   0.0000   0.0000   0.0000   0.0000   0.0000   0.0000

          k =-0.5000-0.5000 0.0000 ( 33696 PWs)   bands (ev):

  -101.3549-101.3549-101.3548-101.3548-101.3329-101.3188-101.3188-101.3123
  -100.9245-100.9239-100.9239-100.9237-100.9032-100.9019-100.9019-100.9005
   -61.8042 -61.8015 -61.8015 -61.7992 -61.7766 -61.7728 -61.7728 -61.7680
   -61.7677 -61.7666 -61.7666 -61.7666 -61.7324 -61.7296 -61.7296 -61.7195
   -61.7110 -61.7110 -61.7087 -61.7075 -61.7038 -61.6983 -61.6983 -61.6958
   -61.3802 -61.3796 -61.3796 -61.3795 -61.3783 -61.3783 -61.3777 -61.3770
   -61.3641 -61.3622 -61.3622 -61.3620 -61.3529 -61.3521 -61.3521 -61.3494
   -61.2641 -61.2639 -61.2639 -61.2638 -61.2430 -61.2420 -61.2420 -61.2410
   -10.0182  -4.0671  -4.0669  -4.0669  -4.0655  -2.7463  -2.7079  -2.7079
    -2.6761  -1.4994  -1.4994  -1.4980  -1.4969  -1.4642  -1.4642  -1.4636
    -1.4572  -1.0320  -0.9994  -0.9994  -0.9665  -0.8390  -0.8385  -0.8385
    -0.8339  -0.8004  -0.7230  -0.7204  -0.7204  -0.6702  -0.6702  -0.6467
    -0.6379  -0.3954  -0.3511  -0.3337  -0.3337  -0.3162  -0.1186  -0.1018
    -0.1018  -0.0902   0.4009   0.4256   0.4278   0.4283   0.4283   0.4297
     0.4448   0.4448   0.4484   0.4484   0.4600   0.4929   0.5474   0.5694
     0.5694   0.6035   0.6485   0.6644   0.6644   0.6869   0.7999   0.7999
     0.8038   0.8067   0.8514   0.8799   0.8799   0.8908   0.9128   0.9351
     0.9351   0.9811   1.2327   1.2446   1.2446   1.2598   1.2663   1.2833
     1.2833   1.2880   1.7159   1.7234   1.7234   1.7307   1.8983   1.9084
     1.9084   1.9144   2.2804   2.2804   3.1778   3.1971   3.1971   3.2062
     5.3443   5.3443   5.3444   5.3543   7.3618   7.3857   7.3857   7.4084
     8.7849   8.9670   8.9670   8.9991   9.0368   9.1113   9.1705   9.1705

     occupation numbers 
     1.0000   1.0000   1.0000   1.0000   1.0000   1.0000   1.0000   1.0000
     1.0000   1.0000   1.0000   1.0000   1.0000   1.0000   1.0000   1.0000
     1.0000   1.0000   1.0000   1.0000   1.0000   1.0000   1.0000   1.0000
     1.0000   1.0000   1.0000   1.0000   1.0000   1.0000   1.0000   1.0000
     1.0000   1.0000   1.0000   1.0000   1.0000   1.0000   1.0000   1.0000
     1.0000   1.0000   1.0000   1.0000   1.0000   1.0000   1.0000   1.0000
     1.0000   1.0000   1.0000   1.0000   1.0000   1.0000   1.0000   1.0000
     1.0000   1.0000   1.0000   1.0000   1.0000   1.0000   1.0000   1.0000
     1.0000   1.0000   1.0000   1.0000   1.0000   1.0000   1.0000   1.0000
     1.0000   1.0000   1.0000   1.0000   1.0000   1.0000   1.0000   1.0000
     1.0000   1.0000   1.0000   1.0000   1.0000   1.0000   1.0000   1.0000
     1.0000   1.0000   1.0000   1.0000   1.0000   1.0000   1.0000   1.0000
     1.0000   1.0000   1.0000   1.0000   1.0000   1.0000   1.0000   1.0000
     1.0000   1.0000   1.0000   1.0000   1.0000   1.0000   1.0000   1.0000
     1.0000   1.0000   1.0000   1.0000   1.0000   1.0000   1.0000   1.0000
     1.0000   1.0000   1.0000   1.0000   1.0000   1.0000   1.0000   1.0000
     1.0000   1.0000   1.0000   1.0000   1.0000   1.0000   1.0000   1.0000
     1.0000   0.9999   0.9903   0.9877   0.9877   0.9834   0.9812   0.9737
     0.9737   0.9712   0.0064   0.0055   0.0055   0.0048   0.0002   0.0001
     0.0001   0.0001   0.0000   0.0000   0.0000   0.0000   0.0000   0.0000
     0.0000   0.0000   0.0000   0.0000   0.0000   0.0000   0.0000   0.0000
     0.0000   0.0000   0.0000   0.0000   0.0000   0.0000   0.0000   0.0000

     the Fermi energy is     1.4639 ev

!    total energy              =   -5521.11702865 Ry
     estimated scf accuracy    <       0.00000070 Ry
     smearing contrib. (-TS)   =      -0.01943959 Ry
     internal energy E=F+TS    =   -5521.09758906 Ry

     The total energy is F=E-TS. E is the sum of the following terms:
     one-electron contribution =  -50876.50824899 Ry
     hartree contribution      =   25454.95763539 Ry
     xc contribution           =    -575.17854316 Ry
     ewald contribution        =   20483.72796800 Ry
     one-center paw contrib.   =      -8.09640030 Ry
      -> PAW hartree energy AE =       0.00000000 Ry
      -> PAW hartree energy PS =       0.00000000 Ry
      -> PAW xc energy AE      =       0.00000000 Ry
      -> PAW xc energy PS      =       0.00000000 Ry
      -> total E_H with PAW    =   25454.95763539 Ry
      -> total E_XC with PAW   =    -575.17854316 Ry

     total magnetization       =    12.34 Bohr mag/cell
     absolute magnetization    =    15.16 Bohr mag/cell

     convergence has been achieved in 494 iterations

     negative rho (up, down):  2.034E-04 2.134E-04

     Forces acting on atoms (cartesian axes, Ry/au):

     atom    1 type  1   force =     0.00000000    0.00000000    0.00940201
     atom    2 type  1   force =     0.00000000    0.00000000    0.00948723
     atom    3 type  1   force =     0.00000000    0.00000000    0.00948723
     atom    4 type  1   force =     0.00000000    0.00000000    0.00959838
     atom    5 type  1   force =    -0.00226358   -0.00226358   -0.01190426
     atom    6 type  1   force =     0.00226358   -0.00226358   -0.01190426
     atom    7 type  1   force =    -0.00226358    0.00226358   -0.01190426
     atom    8 type  1   force =     0.00226358    0.00226358   -0.01190426
     atom    9 type  1   force =     0.00000000    0.00000000    0.03182005
     atom   10 type  1   force =     0.00000000    0.00000000    0.02061314
     atom   11 type  1   force =     0.00000000    0.00000000    0.02061314
     atom   12 type  1   force =     0.00000000    0.00000000    0.00452451
     atom   13 type  1   force =     0.00560435    0.00560435   -0.01689126
     atom   14 type  1   force =    -0.00560435    0.00560435   -0.01689126
     atom   15 type  1   force =     0.00560435   -0.00560435   -0.01689126
     atom   16 type  1   force =    -0.00560435   -0.00560435   -0.01689126
     atom   17 type  2   force =     0.00000000    0.00000000   -0.00036360
     The non-local contrib.  to forces
     atom    1 type  1   force =     0.00000000    0.00000000   -0.35600513
     atom    2 type  1   force =     0.00000000    0.00000000   -0.35465882
     atom    3 type  1   force =     0.00000000    0.00000000   -0.35465882
     atom    4 type  1   force =     0.00000000    0.00000000   -0.35465412
     atom    5 type  1   force =    -0.00197867   -0.00197867    0.01916779
     atom    6 type  1   force =     0.00197867   -0.00197867    0.01916779
     atom    7 type  1   force =    -0.00197867    0.00197867    0.01916779
     atom    8 type  1   force =     0.00197867    0.00197867    0.01916779
     atom    9 type  1   force =     0.00000000    0.00000000   -0.01039558
     atom   10 type  1   force =     0.00000000    0.00000000   -0.01758760
     atom   11 type  1   force =     0.00000000    0.00000000   -0.01758760
     atom   12 type  1   force =     0.00000000    0.00000000   -0.02533978
     atom   13 type  1   force =     0.01215084    0.01215084    0.35685307
     atom   14 type  1   force =    -0.01215084    0.01215084    0.35685307
     atom   15 type  1   force =     0.01215084   -0.01215084    0.35685307
     atom   16 type  1   force =    -0.01215084   -0.01215084    0.35685307
     atom   17 type  2   force =     0.00000000    0.00000000   -0.00615416
     The ionic contribution  to forces
     atom    1 type  1   force =     0.00000000    0.00000000 -386.61644622
     atom    2 type  1   force =    -0.00000000    0.00000000 -386.43558719
     atom    3 type  1   force =     0.00000000   -0.00000000 -386.43558719
     atom    4 type  1   force =    -0.00000000   -0.00000000 -386.22878760
     atom    5 type  1   force =    -0.74374368   -0.74374368 -133.70316138
     atom    6 type  1   force =     0.74374368   -0.74374368 -133.70316138
     atom    7 type  1   force =    -0.74374368    0.74374368 -133.70316138
     atom    8 type  1   force =     0.74374368    0.74374368 -133.70316138
     atom    9 type  1   force =     0.00000000    0.00000000  123.40965220
     atom   10 type  1   force =    -0.00000000    0.00000000  125.12821722
     atom   11 type  1   force =     0.00000000   -0.00000000  125.12821722
     atom   12 type  1   force =    -0.00000000   -0.00000000  128.19897280
     atom   13 type  1   force =     2.30830720    2.30830720  376.87938502
     atom   14 type  1   force =    -2.30830720    2.30830720  376.87938502
     atom   15 type  1   force =     2.30830720   -2.30830720  376.87938502
     atom   16 type  1   force =    -2.30830720   -2.30830720  376.87938501
     atom   17 type  2   force =     0.00000000    0.00000000   71.14645421
     The local contribution  to forces
     atom    1 type  1   force =    -0.00000000   -0.00000000  386.97924769
     atom    2 type  1   force =    -0.00000004   -0.00000000  386.79725054
     atom    3 type  1   force =    -0.00000000   -0.00000004  386.79725054
     atom    4 type  1   force =    -0.00000004   -0.00000004  386.59066565
     atom    5 type  1   force =     0.74342881    0.74342881  133.67255175
     atom    6 type  1   force =    -0.74342881    0.74342881  133.67255175
     atom    7 type  1   force =     0.74342881   -0.74342881  133.67255175
     atom    8 type  1   force =    -0.74342881   -0.74342881  133.67255175
     atom    9 type  1   force =    -0.00000000   -0.00000000 -123.36782742
     atom   10 type  1   force =    -0.00000004   -0.00000000 -125.09021114
     atom   11 type  1   force =    -0.00000000   -0.00000004 -125.09021114
     atom   12 type  1   force =    -0.00000004   -0.00000004 -128.16894930
     atom   13 type  1   force =    -2.31495091   -2.31495091 -377.24992969
     atom   14 type  1   force =     2.31495091   -2.31495091 -377.24992969
     atom   15 type  1   force =    -2.31495091    2.31495091 -377.24992969
     atom   16 type  1   force =     2.31495091    2.31495091 -377.24992969
     atom   17 type  2   force =     0.00000000    0.00000000  -71.14062144
     The core correction contribution to forces
     atom    1 type  1   force =    -0.00000000   -0.00000000    0.00197013
     atom    2 type  1   force =    -0.00000000   -0.00000000    0.00185999
     atom    3 type  1   force =    -0.00000000   -0.00000000    0.00185999
     atom    4 type  1   force =    -0.00000000   -0.00000000    0.00176185
     atom    5 type  1   force =    -0.00001282   -0.00001282   -0.00049556
     atom    6 type  1   force =     0.00001282   -0.00001282   -0.00049556
     atom    7 type  1   force =    -0.00001282    0.00001282   -0.00049556
     atom    8 type  1   force =     0.00001282    0.00001282   -0.00049556
     atom    9 type  1   force =    -0.00000000   -0.00000000    0.00083865
     atom   10 type  1   force =    -0.00000000   -0.00000000    0.00064766
     atom   11 type  1   force =    -0.00000000   -0.00000000    0.00064766
     atom   12 type  1   force =    -0.00000000   -0.00000000    0.00030098
     atom   13 type  1   force =     0.00006075    0.00006075   -0.00184356
     atom   14 type  1   force =    -0.00006075    0.00006075   -0.00184356
     atom   15 type  1   force =     0.00006075   -0.00006075   -0.00184356
     atom   16 type  1   force =    -0.00006075   -0.00006075   -0.00184356
     atom   17 type  2   force =    -0.00000000   -0.00000000    0.00002827
     The Hubbard contrib.    to forces
     atom    1 type  1   force =     0.00000000    0.00000000    0.00000000
     atom    2 type  1   force =     0.00000000    0.00000000    0.00000000
     atom    3 type  1   force =     0.00000000    0.00000000    0.00000000
     atom    4 type  1   force =     0.00000000    0.00000000    0.00000000
     atom    5 type  1   force =     0.00000000    0.00000000    0.00000000
     atom    6 type  1   force =     0.00000000    0.00000000    0.00000000
     atom    7 type  1   force =     0.00000000    0.00000000    0.00000000
     atom    8 type  1   force =     0.00000000    0.00000000    0.00000000
     atom    9 type  1   force =     0.00000000    0.00000000    0.00000000
     atom   10 type  1   force =     0.00000000    0.00000000    0.00000000
     atom   11 type  1   force =     0.00000000    0.00000000    0.00000000
     atom   12 type  1   force =     0.00000000    0.00000000    0.00000000
     atom   13 type  1   force =     0.00000000    0.00000000    0.00000000
     atom   14 type  1   force =     0.00000000    0.00000000    0.00000000
     atom   15 type  1   force =     0.00000000    0.00000000    0.00000000
     atom   16 type  1   force =     0.00000000    0.00000000    0.00000000
     atom   17 type  2   force =     0.00000000    0.00000000    0.00000000
     The SCF correction term to forces
     atom    1 type  1   force =    -0.00000000    0.00000000    0.00000000
     atom    2 type  1   force =     0.00000000    0.00000000    0.00000000
     atom    3 type  1   force =    -0.00000000    0.00000000    0.00000000
     atom    4 type  1   force =    -0.00000000   -0.00000000    0.00000000
     atom    5 type  1   force =     0.00000000    0.00000000   -0.00000000
     atom    6 type  1   force =    -0.00000000    0.00000000   -0.00000000
     atom    7 type  1   force =     0.00000000   -0.00000000   -0.00000000
     atom    8 type  1   force =    -0.00000000   -0.00000000   -0.00000000
     atom    9 type  1   force =    -0.00000000   -0.00000000   -0.00058521
     atom   10 type  1   force =     0.00000000   -0.00000000   -0.00059043
     atom   11 type  1   force =    -0.00000000    0.00000000   -0.00059043
     atom   12 type  1   force =     0.00000000    0.00000000   -0.00059761
     atom   13 type  1   force =     0.00003646    0.00003646   -0.00149352
     atom   14 type  1   force =    -0.00003646    0.00003646   -0.00149352
     atom   15 type  1   force =     0.00003646   -0.00003646   -0.00149352
     atom   16 type  1   force =    -0.00003646   -0.00003646   -0.00149352
     atom   17 type  2   force =     0.00000000    0.00000000   -0.00000000

     Total force =     0.057230     Total SCF correction =     0.003214


     Computing stress (Cartesian axis) and pressure


     negative rho (up, down):  2.034E-04 2.134E-04
          total   stress  (Ry/bohr**3)                   (kbar)     P=      -21.05
  -0.00015845   0.00000000   0.00000000          -23.31        0.00        0.00
   0.00000000  -0.00015845   0.00000000            0.00      -23.31        0.00
   0.00000000   0.00000000  -0.00011229            0.00        0.00      -16.52

     kinetic stress (kbar)  17197.56      0.00      0.00
                                0.00  17197.56      0.00
                                0.00      0.00  17280.41

     local   stress (kbar)**********     -0.00     -0.00
                               -0.00**********     -0.00
                               -0.00     -0.001633207.73

     nonloc. stress (kbar)   7948.35      0.00      0.00
                                0.00   7948.35      0.00
                                0.00      0.00   7980.81

     hartree stress (kbar) 832144.68      0.00     -0.00
                                0.00 832144.68     -0.00
                               -0.00     -0.00-790622.29

     exc-cor stress (kbar)  -5232.56      0.00      0.00
                                0.00  -5232.56      0.00
                                0.00      0.00  -5241.84

     corecor stress (kbar)  -1013.69     -0.00     -0.00
                               -0.00  -1013.69     -0.00
                               -0.00     -0.00  -1014.40

     ewald   stress (kbar) 782325.53      0.00      0.00
                                0.00 782325.53      0.00
                                0.00      0.00-861606.93

     hubbard stress (kbar)      0.00      0.00      0.00
                                0.00      0.00      0.00
                                0.00      0.00      0.00

     DFT-D   stress (kbar)      0.00      0.00      0.00
                                0.00      0.00      0.00
                                0.00      0.00      0.00

     XDM     stress (kbar)      0.00      0.00      0.00
                                0.00      0.00      0.00
                                0.00      0.00      0.00

     dft-nl  stress (kbar)      0.00      0.00      0.00
                                0.00      0.00      0.00
                                0.00      0.00      0.00

     TS-vdW  stress (kbar)      0.00      0.00      0.00
                                0.00      0.00      0.00
                                0.00      0.00      0.00

     MDB     stress (kbar)      0.00      0.00      0.00
                                0.00      0.00      0.00
                                0.00      0.00      0.00

     3D-RISM stress (kbar)      0.00      0.00      0.00
                                0.00      0.00      0.00
                                0.00      0.00      0.00


     Writing all to output data dir ./output_vc/n-ni100-5.5A.save/ :
     XML data file, charge density, pseudopotentials, collected wavefunctions

     init_run     :     33.33s CPU     34.00s WALL (       1 calls)
     electrons    : 175060.18s CPU 176226.07s WALL (       1 calls)
     forces       :     13.63s CPU     13.76s WALL (       1 calls)
     stress       :     46.92s CPU     47.22s WALL (       1 calls)

     Called by init_run:
     wfcinit      :     30.95s CPU     31.43s WALL (       1 calls)
     wfcinit:atom :      0.25s CPU      0.26s WALL (      30 calls)
     wfcinit:wfcr :     28.83s CPU     29.25s WALL (      30 calls)
     potinit      :      0.94s CPU      0.99s WALL (       1 calls)
     hinit0       :      0.26s CPU      0.27s WALL (       1 calls)

     Called by electrons:
     c_bands      : 169795.79s CPU 170864.90s WALL (     494 calls)
     sum_band     :   4397.45s CPU   4462.81s WALL (     494 calls)
     v_of_rho     :    294.94s CPU    295.88s WALL (     495 calls)
     v_h          :      7.44s CPU      7.46s WALL (     495 calls)
     v_xc         :    288.62s CPU    289.55s WALL (     497 calls)
     newd         :    347.15s CPU    371.97s WALL (     495 calls)
     PAW_pot      :    128.95s CPU    129.05s WALL (     495 calls)
     mix_rho      :     77.34s CPU     77.58s WALL (     494 calls)

     Called by c_bands:
     init_us_2    :    377.73s CPU    379.69s WALL (   29730 calls)
     ccgdiagg     : 155961.41s CPU 156874.44s WALL (   15775 calls)
     wfcrot       :  13516.33s CPU  13578.05s WALL (   15775 calls)

     Called by sum_band:
     sum_band:wei :      4.08s CPU      4.10s WALL (     494 calls)
     sum_band:loo :   3709.55s CPU   3732.14s WALL (     494 calls)
     sum_band:buf :     79.25s CPU     79.94s WALL (   14820 calls)
     sum_band:ini :    187.13s CPU    188.00s WALL (   14820 calls)
     sum_band:cal :   1296.93s CPU   1299.00s WALL (   14820 calls)
     sum_band:bec :     13.92s CPU     14.04s WALL (   14820 calls)
     addusdens    :    650.47s CPU    692.86s WALL (     494 calls)
                                        0.00s GPU  (     494 calls)
     addusd:skk   :      4.33s CPU      4.35s WALL (     988 calls)
                                        0.00s GPU  (     988 calls)

     Called by *cgdiagg:
     h_psi        :  80800.10s CPU  81307.11s WALL ( 6855771 calls)
     s_psi        :  42331.15s CPU  42585.29s WALL (13695767 calls)

     Called by h_psi:
     h_psi:calbec :  27232.09s CPU  27385.51s WALL ( 6855771 calls)
     vloc_psi     :  24747.58s CPU  24958.65s WALL ( 6855771 calls)
     add_vuspsi   :  28543.66s CPU  28702.85s WALL ( 6855771 calls)
     hs_1psi      :  92940.42s CPU  93489.94s WALL ( 6839996 calls)
     s_1psi       :  40451.98s CPU  40669.67s WALL ( 6839996 calls)

     General routines
     calbec       :  48624.11s CPU  48944.26s WALL (13711097 calls)
     fft          :    117.27s CPU    117.67s WALL (   12413 calls)
     ffts         :      3.24s CPU      3.26s WALL (    1978 calls)
     fftw         :  18936.34s CPU  19084.73s WALL (21843272 calls)
     interpolate  :     12.11s CPU     12.17s WALL (     990 calls)

     Parallel routines

     PAW routines
     PAW_pot      :    128.95s CPU    129.05s WALL (     495 calls)
     PAW_symme    :      0.27s CPU      0.27s WALL (     989 calls)

     PWSCF        :   2d 0h39m CPU   2d 1h 1m WALL


   This run was terminated on:  12:31: 5  30Jul2026            

=------------------------------------------------------------------------------=
   JOB DONE.
=------------------------------------------------------------------------------=
