
     Program PWSCF v.7.4.1 starts on  9Jun2026 at  9:48:53 

     This program is part of the open-source Quantum ESPRESSO suite
     for quantum simulation of materials; please cite
         "P. Giannozzi et al., J. Phys.:Condens. Matter 21 395502 (2009);
         "P. Giannozzi et al., J. Phys.:Condens. Matter 29 465901 (2017);
         "P. Giannozzi et al., J. Chem. Phys. 152 154105 (2020);
          URL http://www.quantum-espresso.org", 
     in publications or presentations arising from this work. More details at
     http://www.quantum-espresso.org/quote

     Parallel version (MPI), running on    20 processors

     MPI processes distributed on     1 nodes
     454133 MiB available memory on the printing compute node when the environment starts

     Reading input from pt-o-4.7A.in

     Current dimensions of program PWSCF are:
     Max number of different atomic species (ntypx) = 10
     Max number of k-points (npk) =  40000
     Max angular momentum in pseudopotentials (lmaxx) =  4
     Presently stress not available with electric field and gates

     file Pt.pbe-spn-kjpaw_psl.1.0.0.UPF: wavefunction(s)  5P 5D renormalized
     file O.pbe-n-kjpaw_psl.1.0.0.UPF: wavefunction(s)  2S 2P renormalized

     IMPORTANT: XC functional enforced from input :
     Exchange-correlation= RPBE
                           (   1   4  44   4   0   0   0)
     Any further DFT definition will be discarded
     Please, verify this is what you really want


     R & G space division:  proc/nbgrp/npool/nimage =      20
     Subspace diagonalization in iterative solution of the eigenvalue problem:
     one sub-group per band group will be used
     custom distributed-memory algorithm (size of sub-group:  4*  4 procs)


     Parallelization info
     --------------------
     sticks:   dense  smooth     PW     G-vecs:    dense   smooth      PW
     Min         528     211     57               139422    35261    4999
     Max         529     212     59               139436    35272    5008
     Sum       10561    4231   1159              2788561   705305  100061

     Using Slab Decomposition



     bravais-lattice index     =            0
     lattice parameter (alat)  =      15.9739  a.u.
     unit-cell volume          =   11233.9610 (a.u.)^3
     number of atoms/cell      =           37
     number of atomic types    =            2
     number of electrons       =       654.00
     number of Kohn-Sham states=          392
     kinetic-energy cutoff     =      60.0000  Ry
     charge density cutoff     =     600.0000  Ry
     scf convergence threshold =      1.0E-06
     mixing beta               =       0.7000
     number of iterations used =           12  local-TF  mixing
     Exchange-correlation= RPBE
                           (   1   4  44   4   0   0   0)

     celldm(1)=  15.973885  celldm(2)=   0.000000  celldm(3)=   0.000000
     celldm(4)=   0.000000  celldm(5)=   0.000000  celldm(6)=   0.000000

     crystal axes: (cart. coord. in units of alat)
               a(1) = (   1.000000   0.000000   0.000000 )  
               a(2) = (   0.500000   0.866025   0.000000 )  
               a(3) = (   0.000000   0.000000   3.182516 )  

     reciprocal axes: (cart. coord. in units 2 pi/alat)
               b(1) = (  1.000000 -0.577350  0.000000 )  
               b(2) = (  0.000000  1.154701  0.000000 )  
               b(3) = (  0.000000  0.000000  0.314217 )  


     PseudoPot. # 1 for Pt read from file:
     ./pseudo/Pt.pbe-spn-kjpaw_psl.1.0.0.UPF
     MD5 check sum: f62f2ab5688b80eb25add38ff45b0645
     Pseudo is Projector augmented-wave + core cor, Zval = 18.0
     Generated using &quot;atomic&quot; code by A. Dal Corso  v.6.3
     Shape of augmentation charge: PSQ
     Using radial grid of 1277 points,  6 beta functions with: 
                l(1) =   0
                l(2) =   0
                l(3) =   1
                l(4) =   1
                l(5) =   2
                l(6) =   2
     Q(r) pseudized with 0 coefficients 


     PseudoPot. # 2 for O  read from file:
     ./pseudo/O.pbe-n-kjpaw_psl.1.0.0.UPF
     MD5 check sum: 9aa21d4642c1c2a0b5c883e051f79e44
     Pseudo is Projector augmented-wave + core cor, Zval =  6.0
     Generated using &quot;atomic&quot; code by A. Dal Corso  v.6.3
     Shape of augmentation charge: PSQ
     Using radial grid of 1095 points,  4 beta functions with: 
                l(1) =   0
                l(2) =   0
                l(3) =   1
                l(4) =   1
     Q(r) pseudized with 0 coefficients 


     atomic species   valence    mass     pseudopotential
     Pt               18.00   195.08000     Pt( 1.00)
     O                 6.00    15.99900     O ( 1.00)

     Starting magnetic structure 
     atomic species   magnetization
     Pt              0.000
     O               0.167

     No symmetry found


                                    s                        frac. trans.

      isym =  1     identity                                     

 cryst.   s( 1) = (     1          0          0      )
                  (     0          1          0      )
                  (     0          0          1      )

 cart.    s( 1) = (  1.0000000  0.0000000  0.0000000 )
                  (  0.0000000  1.0000000  0.0000000 )
                  (  0.0000000  0.0000000  1.0000000 )


   Cartesian axes

     site n.     atom                  positions (alat units)
         1        Pt     tau(   1) = (   0.0000000   0.0000000   0.2366019  )
         2        Pt     tau(   2) = (   0.3333333   0.0000000   0.2366019  )
         3        Pt     tau(   3) = (   0.6666667   0.0000000   0.2366019  )
         4        Pt     tau(   4) = (   0.1666667   0.2886751   0.2366019  )
         5        Pt     tau(   5) = (   0.5000000   0.2886751   0.2366019  )
         6        Pt     tau(   6) = (   0.8333333   0.2886751   0.2366019  )
         7        Pt     tau(   7) = (   0.3333333   0.5773503   0.2366019  )
         8        Pt     tau(   8) = (   0.6666667   0.5773503   0.2366019  )
         9        Pt     tau(   9) = (   1.0000000   0.5773503   0.2366019  )
        10        Pt     tau(  10) = (   0.1666667   0.0962250   0.5087675  )
        11        Pt     tau(  11) = (   0.5000000   0.0962250   0.5087675  )
        12        Pt     tau(  12) = (   0.8333333   0.0962250   0.5087675  )
        13        Pt     tau(  13) = (   0.3333333   0.3849002   0.5087675  )
        14        Pt     tau(  14) = (   0.6666667   0.3849002   0.5087675  )
        15        Pt     tau(  15) = (   1.0000000   0.3849002   0.5087675  )
        16        Pt     tau(  16) = (   0.5000000   0.6735753   0.5087675  )
        17        Pt     tau(  17) = (   0.8333333   0.6735753   0.5087675  )
        18        Pt     tau(  18) = (   1.1666667   0.6735753   0.5087675  )
        19        Pt     tau(  19) = (  -0.0009359   0.1939773   0.7797341  )
        20        Pt     tau(  20) = (   0.3342811   0.1939797   0.7797400  )
        21        Pt     tau(  21) = (   0.6666698   0.1927223   0.7818215  )
        22        Pt     tau(  22) = (   0.1666723   0.4815496   0.7765130  )
        23        Pt     tau(  23) = (   0.4995880   0.4800739   0.7796991  )
        24        Pt     tau(  24) = (   0.8337578   0.4800763   0.7796924  )
        25        Pt     tau(  25) = (   0.3318220   0.7704796   0.7799570  )
        26        Pt     tau(  26) = (   0.6666729   0.7701750   0.7746330  )
        27        Pt     tau(  27) = (   1.0015233   0.7704771   0.7799565  )
        28        Pt     tau(  28) = (   0.0025323  -0.0008167   1.0509928  )
        29        Pt     tau(  29) = (   0.3308207  -0.0008161   1.0509913  )
        30        Pt     tau(  30) = (   0.6666770  -0.0089227   1.0664244  )
        31        Pt     tau(  31) = (   0.1666822   0.2891436   1.0515803  )
        32        Pt     tau(  32) = (   0.4916503   0.2940997   1.0660716  )
        33        Pt     tau(  33) = (   0.8417051   0.2941009   1.0660670  )
        34        Pt     tau(  34) = (   0.3335135   0.5781048   1.0514827  )
        35        Pt     tau(  35) = (   0.6666759   0.5811172   1.0510875  )
        36        Pt     tau(  36) = (   0.9998420   0.5781091   1.0514850  )
        37        O      tau(  37) = (   0.6666775   0.1930926   1.6222022  )

     Fixed atoms
     site n.  direction
         1    0   0   0
         2    0   0   0
         3    0   0   0
         4    0   0   0
         5    0   0   0
         6    0   0   0
         7    0   0   0
         8    0   0   0
         9    0   0   0
        10    0   0   0
        11    0   0   0
        12    0   0   0
        13    0   0   0
        14    0   0   0
        15    0   0   0
        16    0   0   0
        17    0   0   0
        18    0   0   0
        19    1   1   1
        20    1   1   1
        21    1   1   1
        22    1   1   1
        23    1   1   1
        24    1   1   1
        25    1   1   1
        26    1   1   1
        27    1   1   1
        28    1   1   1
        29    1   1   1
        30    1   1   1
        31    1   1   1
        32    1   1   1
        33    1   1   1
        34    1   1   1
        35    1   1   1
        36    1   1   1
        37    1   1   1

   Crystallographic axes

     site n.     atom                  positions (cryst. coord.)
         1        Pt     tau(   1) = (  0.0000000  0.0000000  0.0743443  )
         2        Pt     tau(   2) = (  0.3333333  0.0000000  0.0743443  )
         3        Pt     tau(   3) = (  0.6666667  0.0000000  0.0743443  )
         4        Pt     tau(   4) = (  0.0000000  0.3333333  0.0743443  )
         5        Pt     tau(   5) = (  0.3333333  0.3333333  0.0743443  )
         6        Pt     tau(   6) = (  0.6666667  0.3333333  0.0743443  )
         7        Pt     tau(   7) = ( -0.0000000  0.6666667  0.0743443  )
         8        Pt     tau(   8) = (  0.3333333  0.6666667  0.0743443  )
         9        Pt     tau(   9) = (  0.6666667  0.6666667  0.0743443  )
        10        Pt     tau(  10) = (  0.1111111  0.1111111  0.1598633  )
        11        Pt     tau(  11) = (  0.4444444  0.1111111  0.1598633  )
        12        Pt     tau(  12) = (  0.7777778  0.1111111  0.1598633  )
        13        Pt     tau(  13) = (  0.1111111  0.4444444  0.1598633  )
        14        Pt     tau(  14) = (  0.4444444  0.4444444  0.1598633  )
        15        Pt     tau(  15) = (  0.7777778  0.4444444  0.1598633  )
        16        Pt     tau(  16) = (  0.1111111  0.7777778  0.1598633  )
        17        Pt     tau(  17) = (  0.4444444  0.7777778  0.1598633  )
        18        Pt     tau(  18) = (  0.7777778  0.7777778  0.1598633  )
        19        Pt     tau(  19) = ( -0.1129288  0.2239857  0.2450056  )
        20        Pt     tau(  20) = (  0.2222869  0.2239884  0.2450074  )
        21        Pt     tau(  21) = (  0.5554015  0.2225365  0.2456615  )
        22        Pt     tau(  22) = ( -0.1113505  0.5560455  0.2439934  )
        23        Pt     tau(  23) = (  0.2224172  0.5543415  0.2449946  )
        24        Pt     tau(  24) = (  0.5565855  0.5543444  0.2449925  )
        25        Pt     tau(  25) = ( -0.1130146  0.8896732  0.2450756  )
        26        Pt     tau(  26) = (  0.2220122  0.8893215  0.2434027  )
        27        Pt     tau(  27) = (  0.5566882  0.8896703  0.2450754  )
        28        Pt     tau(  28) = (  0.0030038 -0.0009431  0.3302396  )
        29        Pt     tau(  29) = (  0.3312919 -0.0009424  0.3302391  )
        30        Pt     tau(  30) = (  0.6718285 -0.0103030  0.3350885  )
        31        Pt     tau(  31) = ( -0.0002549  0.3338743  0.3304242  )
        32        Pt     tau(  32) = (  0.3218517  0.3395971  0.3349776  )
        33        Pt     tau(  33) = (  0.6719059  0.3395984  0.3349762  )
        34        Pt     tau(  34) = ( -0.0002555  0.6675379  0.3303935  )
        35        Pt     tau(  35) = (  0.3311678  0.6710163  0.3302694  )
        36        Pt     tau(  36) = (  0.6660705  0.6675429  0.3303943  )
        37        O      tau(  37) = (  0.5551954  0.2229642  0.5097232  )

     number of k points=    20  Fermi-Dirac smearing, width (Ry)=  0.0037
                       cart. coord. in units 2pi/alat
        k(    1) = (   0.0000000   0.0000000   0.0000000), wk =   0.0277778
        k(    2) = (   0.0000000   0.1924501   0.0000000), wk =   0.0555556
        k(    3) = (   0.0000000   0.3849002   0.0000000), wk =   0.0555556
        k(    4) = (   0.0000000  -0.5773503   0.0000000), wk =   0.0277778
        k(    5) = (   0.1666667  -0.0962250   0.0000000), wk =   0.0555556
        k(    6) = (   0.1666667   0.0962250   0.0000000), wk =   0.0555556
        k(    7) = (   0.1666667   0.2886751   0.0000000), wk =   0.0555556
        k(    8) = (   0.1666667  -0.6735753   0.0000000), wk =   0.0555556
        k(    9) = (   0.1666667  -0.4811252   0.0000000), wk =   0.0555556
        k(   10) = (   0.1666667  -0.2886751   0.0000000), wk =   0.0555556
        k(   11) = (   0.3333333  -0.1924501   0.0000000), wk =   0.0555556
        k(   12) = (   0.3333333   0.0000000   0.0000000), wk =   0.0555556
        k(   13) = (   0.3333333   0.1924501   0.0000000), wk =   0.0555556
        k(   14) = (   0.3333333  -0.7698004   0.0000000), wk =   0.0555556
        k(   15) = (   0.3333333  -0.5773503   0.0000000), wk =   0.0555556
        k(   16) = (   0.3333333  -0.3849002   0.0000000), wk =   0.0555556
        k(   17) = (  -0.5000000   0.2886751   0.0000000), wk =   0.0277778
        k(   18) = (  -0.5000000   0.4811252   0.0000000), wk =   0.0555556
        k(   19) = (  -0.5000000   0.6735753   0.0000000), wk =   0.0555556
        k(   20) = (  -0.5000000  -0.2886751   0.0000000), wk =   0.0277778

                       cryst. coord.
        k(    1) = (   0.0000000   0.0000000   0.0000000), wk =   0.0277778
        k(    2) = (   0.0000000   0.1666667   0.0000000), wk =   0.0555556
        k(    3) = (   0.0000000   0.3333333   0.0000000), wk =   0.0555556
        k(    4) = (   0.0000000  -0.5000000   0.0000000), wk =   0.0277778
        k(    5) = (   0.1666667  -0.0000000   0.0000000), wk =   0.0555556
        k(    6) = (   0.1666667   0.1666667   0.0000000), wk =   0.0555556
        k(    7) = (   0.1666667   0.3333333   0.0000000), wk =   0.0555556
        k(    8) = (   0.1666667  -0.5000000   0.0000000), wk =   0.0555556
        k(    9) = (   0.1666667  -0.3333333   0.0000000), wk =   0.0555556
        k(   10) = (   0.1666667  -0.1666667   0.0000000), wk =   0.0555556
        k(   11) = (   0.3333333  -0.0000000   0.0000000), wk =   0.0555556
        k(   12) = (   0.3333333   0.1666667   0.0000000), wk =   0.0555556
        k(   13) = (   0.3333333   0.3333333   0.0000000), wk =   0.0555556
        k(   14) = (   0.3333333  -0.5000000   0.0000000), wk =   0.0555556
        k(   15) = (   0.3333333  -0.3333333   0.0000000), wk =   0.0555556
        k(   16) = (   0.3333333  -0.1666667   0.0000000), wk =   0.0555556
        k(   17) = (  -0.5000000   0.0000000   0.0000000), wk =   0.0277778
        k(   18) = (  -0.5000000   0.1666667   0.0000000), wk =   0.0555556
        k(   19) = (  -0.5000000   0.3333333   0.0000000), wk =   0.0555556
        k(   20) = (  -0.5000000  -0.5000000   0.0000000), wk =   0.0277778

     Dense  grid:  2788561 G-vectors     FFT dimensions: ( 125, 125, 400)

     Smooth grid:   705305 G-vectors     FFT dimensions: (  80,  80, 256)

     Dynamical RAM for                 wfc:      26.37 MB

     Dynamical RAM for     wfc (w. buffer):    1081.01 MB

     Dynamical RAM for           str. fact:       4.25 MB

     Dynamical RAM for           local pot:       0.00 MB

     Dynamical RAM for          nlocal pot:      44.12 MB

     Dynamical RAM for                qrad:       3.93 MB

     Dynamical RAM for          rho,v,vnew:      27.07 MB

     Dynamical RAM for               rhoin:       9.02 MB

     Dynamical RAM for            rho*nmix:     102.12 MB

     Dynamical RAM for           G-vectors:       8.25 MB

     Dynamical RAM for          h,s,v(r/c):       1.76 MB

     Dynamical RAM for          <psi|beta>:       3.92 MB

     Dynamical RAM for                 psi:      52.73 MB

     Dynamical RAM for                hpsi:      52.73 MB

     Dynamical RAM for                spsi:      52.73 MB

     Dynamical RAM for      wfcinit/wfcrot:      56.25 MB

     Dynamical RAM for           addusdens:     474.41 MB

     Dynamical RAM for          addusforce:     623.61 MB

     Estimated static dynamical RAM per process >       1.17 GB

     Estimated max dynamical RAM per process >       1.88 GB

     Estimated total dynamical RAM >      37.58 GB
     Generating pointlists ...
     new r_m :   0.1342 (alat units)  2.1437 (a.u.) for type    1
     new r_m :   0.2439 (alat units)  3.8966 (a.u.) for type    2

     Initial potential from superposition of free atoms

     starting charge     653.9952, renormalised to     654.0000

     negative rho (up, down):  2.254E-04 2.244E-04

     Adding external electric field

     Computed dipole along edir(3) : 
        Elec. dipole        -10.0167 Ry au,        -25.4599 Debye
        Ion. dipole         -10.0214 Ry au,        -25.4719 Debye
        Dipole               -4.1982 Ry au,        -10.6708 Debye
        Dipole field         -0.0047 Ry au, 

        Potential amp.        0.4536 Ry
        Total length         48.2953 bohr


     Adding external electric field

     Computed dipole along edir(3) : 
        Elec. dipole        -10.0167 Ry au,        -25.4599 Debye
        Ion. dipole         -10.0214 Ry au,        -25.4719 Debye
        Dipole               -4.1982 Ry au,        -10.6708 Debye
        Dipole field         -0.0047 Ry au, 

        Potential amp.        0.4536 Ry
        Total length         48.2953 bohr

     Starting wfcs are  364 randomized atomic wfcs +   28 random wfcs
     Checking if some PAW data can be deallocated... 
       PAW data deallocated on    1 nodes for type:  1
       PAW data deallocated on   19 nodes for type:  2

     total cpu time spent up to now is      340.6 secs

     per-process dynamical memory:  1260.3 Mb

     Self-consistent Calculation

     iteration #  1     ecut=    60.00 Ry     beta= 0.70
     Davidson diagonalization with overlap

---- Real-time Memory Report at c_bands before calling an iterative solver
          1276 MiB given to the printing process from OS
          1236 MiB allocation reported by mallinfo(arena+hblkhd)
        430077 MiB available memory on the node where the printing process lives
------------------
     ethr =  1.00E-02,  avg # of iterations =  4.0

     negative rho (up, down):  2.933E-06 2.854E-06

     Adding external electric field

     Computed dipole along edir(3) : 
        Elec. dipole        -10.0171 Ry au,        -25.4610 Debye
        Ion. dipole         -10.0214 Ry au,        -25.4719 Debye
        Dipole               -3.8096 Ry au,         -9.6831 Debye
        Dipole field         -0.0043 Ry au, 

        Potential amp.        0.4116 Ry
        Total length         48.2953 bohr


     Adding external electric field

     Computed dipole along edir(3) : 
        Elec. dipole        -10.0171 Ry au,        -25.4610 Debye
        Ion. dipole         -10.0214 Ry au,        -25.4719 Debye
        Dipole               -3.8096 Ry au,         -9.6831 Debye
        Dipole field         -0.0043 Ry au, 

        Potential amp.        0.4116 Ry
        Total length         48.2953 bohr


     total cpu time spent up to now is     1658.8 secs

     total energy              =  -33080.32225220 Ry
     estimated scf accuracy    <      79.37719854 Ry

     total magnetization       =     3.00 Bohr mag/cell
     absolute magnetization    =     3.02 Bohr mag/cell

     iteration #  2     ecut=    60.00 Ry     beta= 0.70
     Davidson diagonalization with overlap

---- Real-time Memory Report at c_bands before calling an iterative solver
          1770 MiB given to the printing process from OS
          1313 MiB allocation reported by mallinfo(arena+hblkhd)
        428324 MiB available memory on the node where the printing process lives
------------------
     ethr =  1.00E-02,  avg # of iterations =  1.0

     negative rho (up, down):  1.225E-06 3.031E-06

     Adding external electric field

     Computed dipole along edir(3) : 
        Elec. dipole        -10.0167 Ry au,        -25.4598 Debye
        Ion. dipole         -10.0214 Ry au,        -25.4719 Debye
        Dipole               -4.2515 Ry au,        -10.8062 Debye
        Dipole field         -0.0048 Ry au, 

        Potential amp.        0.4594 Ry
        Total length         48.2953 bohr


     Adding external electric field

     Computed dipole along edir(3) : 
        Elec. dipole        -10.0167 Ry au,        -25.4598 Debye
        Ion. dipole         -10.0214 Ry au,        -25.4719 Debye
        Dipole               -4.2515 Ry au,        -10.8062 Debye
        Dipole field         -0.0048 Ry au, 

        Potential amp.        0.4594 Ry
        Total length         48.2953 bohr


     total cpu time spent up to now is     2556.1 secs

     total energy              =  -33080.73811981 Ry
     estimated scf accuracy    <      67.85814546 Ry

     total magnetization       =    -0.00 Bohr mag/cell
     absolute magnetization    =     0.24 Bohr mag/cell

     iteration #  3     ecut=    60.00 Ry     beta= 0.70
     Davidson diagonalization with overlap

---- Real-time Memory Report at c_bands before calling an iterative solver
          1771 MiB given to the printing process from OS
          1315 MiB allocation reported by mallinfo(arena+hblkhd)
        428257 MiB available memory on the node where the printing process lives
------------------
     ethr =  1.00E-02,  avg # of iterations =  1.0

     negative rho (up, down):  1.183E-06 1.548E-06

     Adding external electric field

     Computed dipole along edir(3) : 
        Elec. dipole        -10.0169 Ry au,        -25.4604 Debye
        Ion. dipole         -10.0214 Ry au,        -25.4719 Debye
        Dipole               -4.0430 Ry au,        -10.2763 Debye
        Dipole field         -0.0045 Ry au, 

        Potential amp.        0.4368 Ry
        Total length         48.2953 bohr


     Adding external electric field

     Computed dipole along edir(3) : 
        Elec. dipole        -10.0169 Ry au,        -25.4604 Debye
        Ion. dipole         -10.0214 Ry au,        -25.4719 Debye
        Dipole               -4.0430 Ry au,        -10.2763 Debye
        Dipole field         -0.0045 Ry au, 

        Potential amp.        0.4368 Ry
        Total length         48.2953 bohr


     total cpu time spent up to now is     3453.7 secs

     total energy              =  -33081.88394119 Ry
     estimated scf accuracy    <      14.74579335 Ry

     total magnetization       =     3.00 Bohr mag/cell
     absolute magnetization    =     3.01 Bohr mag/cell

     iteration #  4     ecut=    60.00 Ry     beta= 0.70
     Davidson diagonalization with overlap

---- Real-time Memory Report at c_bands before calling an iterative solver
          1773 MiB given to the printing process from OS
          1318 MiB allocation reported by mallinfo(arena+hblkhd)
        428269 MiB available memory on the node where the printing process lives
------------------
     ethr =  2.25E-03,  avg # of iterations =  1.1

     negative rho (up, down):  1.380E-06 2.375E-06

     Adding external electric field

     Computed dipole along edir(3) : 
        Elec. dipole        -10.0169 Ry au,        -25.4605 Debye
        Ion. dipole         -10.0214 Ry au,        -25.4719 Debye
        Dipole               -4.0162 Ry au,        -10.2082 Debye
        Dipole field         -0.0045 Ry au, 

        Potential amp.        0.4339 Ry
        Total length         48.2953 bohr


     Adding external electric field

     Computed dipole along edir(3) : 
        Elec. dipole        -10.0169 Ry au,        -25.4605 Debye
        Ion. dipole         -10.0214 Ry au,        -25.4719 Debye
        Dipole               -4.0162 Ry au,        -10.2082 Debye
        Dipole field         -0.0045 Ry au, 

        Potential amp.        0.4339 Ry
        Total length         48.2953 bohr


     total cpu time spent up to now is     4363.6 secs

     total energy              =  -33081.89881361 Ry
     estimated scf accuracy    <       5.89428922 Ry

     total magnetization       =     3.00 Bohr mag/cell
     absolute magnetization    =     3.00 Bohr mag/cell

     iteration #  5     ecut=    60.00 Ry     beta= 0.70
     Davidson diagonalization with overlap

---- Real-time Memory Report at c_bands before calling an iterative solver
          1775 MiB given to the printing process from OS
          1320 MiB allocation reported by mallinfo(arena+hblkhd)
        428197 MiB available memory on the node where the printing process lives
------------------
     ethr =  9.01E-04,  avg # of iterations =  1.6

     negative rho (up, down):  2.805E-06 2.756E-06

     Adding external electric field

     Computed dipole along edir(3) : 
        Elec. dipole        -10.0171 Ry au,        -25.4610 Debye
        Ion. dipole         -10.0214 Ry au,        -25.4719 Debye
        Dipole               -3.8076 Ry au,         -9.6780 Debye
        Dipole field         -0.0043 Ry au, 

        Potential amp.        0.4114 Ry
        Total length         48.2953 bohr


     Adding external electric field

     Computed dipole along edir(3) : 
        Elec. dipole        -10.0171 Ry au,        -25.4610 Debye
        Ion. dipole         -10.0214 Ry au,        -25.4719 Debye
        Dipole               -3.8076 Ry au,         -9.6780 Debye
        Dipole field         -0.0043 Ry au, 

        Potential amp.        0.4114 Ry
        Total length         48.2953 bohr


     total cpu time spent up to now is     5330.5 secs

     total energy              =  -33081.73379081 Ry
     estimated scf accuracy    <       5.75518354 Ry

     total magnetization       =     3.00 Bohr mag/cell
     absolute magnetization    =     3.00 Bohr mag/cell

     iteration #  6     ecut=    60.00 Ry     beta= 0.70
     Davidson diagonalization with overlap

---- Real-time Memory Report at c_bands before calling an iterative solver
          1778 MiB given to the printing process from OS
          1322 MiB allocation reported by mallinfo(arena+hblkhd)
        428188 MiB available memory on the node where the printing process lives
------------------
     ethr =  8.80E-04,  avg # of iterations =  2.8

     negative rho (up, down):  5.213E-07 6.979E-07

     Adding external electric field

     Computed dipole along edir(3) : 
        Elec. dipole        -10.0173 Ry au,        -25.4615 Debye
        Ion. dipole         -10.0214 Ry au,        -25.4719 Debye
        Dipole               -3.6553 Ry au,         -9.2909 Debye
        Dipole field         -0.0041 Ry au, 

        Potential amp.        0.3949 Ry
        Total length         48.2953 bohr


     Adding external electric field

     Computed dipole along edir(3) : 
        Elec. dipole        -10.0173 Ry au,        -25.4615 Debye
        Ion. dipole         -10.0214 Ry au,        -25.4719 Debye
        Dipole               -3.6553 Ry au,         -9.2909 Debye
        Dipole field         -0.0041 Ry au, 

        Potential amp.        0.3949 Ry
        Total length         48.2953 bohr


     total cpu time spent up to now is     6351.8 secs

     total energy              =  -33081.74165141 Ry
     estimated scf accuracy    <       4.31600779 Ry

     total magnetization       =     0.00 Bohr mag/cell
     absolute magnetization    =     0.36 Bohr mag/cell

     iteration #  7     ecut=    60.00 Ry     beta= 0.70
     Davidson diagonalization with overlap

---- Real-time Memory Report at c_bands before calling an iterative solver
          1782 MiB given to the printing process from OS
          1325 MiB allocation reported by mallinfo(arena+hblkhd)
        428074 MiB available memory on the node where the printing process lives
------------------
     ethr =  6.60E-04,  avg # of iterations =  2.2

     negative rho (up, down):  2.984E-07 3.586E-07

     Adding external electric field

     Computed dipole along edir(3) : 
        Elec. dipole        -10.0173 Ry au,        -25.4615 Debye
        Ion. dipole         -10.0214 Ry au,        -25.4719 Debye
        Dipole               -3.6581 Ry au,         -9.2978 Debye
        Dipole field         -0.0041 Ry au, 

        Potential amp.        0.3952 Ry
        Total length         48.2953 bohr


     Adding external electric field

     Computed dipole along edir(3) : 
        Elec. dipole        -10.0173 Ry au,        -25.4615 Debye
        Ion. dipole         -10.0214 Ry au,        -25.4719 Debye
        Dipole               -3.6581 Ry au,         -9.2978 Debye
        Dipole field         -0.0041 Ry au, 

        Potential amp.        0.3952 Ry
        Total length         48.2953 bohr


     total cpu time spent up to now is     7380.7 secs

     total energy              =  -33081.86625660 Ry
     estimated scf accuracy    <       1.38753544 Ry

     total magnetization       =     2.98 Bohr mag/cell
     absolute magnetization    =     2.99 Bohr mag/cell

     iteration #  8     ecut=    60.00 Ry     beta= 0.70
     Davidson diagonalization with overlap

---- Real-time Memory Report at c_bands before calling an iterative solver
          1784 MiB given to the printing process from OS
          1327 MiB allocation reported by mallinfo(arena+hblkhd)
        428054 MiB available memory on the node where the printing process lives
------------------
     ethr =  2.12E-04,  avg # of iterations =  4.8

     negative rho (up, down):  7.962E-07 1.054E-06

     Adding external electric field

     Computed dipole along edir(3) : 
        Elec. dipole        -10.0175 Ry au,        -25.4619 Debye
        Ion. dipole         -10.0214 Ry au,        -25.4719 Debye
        Dipole               -3.5005 Ry au,         -8.8973 Debye
        Dipole field         -0.0039 Ry au, 

        Potential amp.        0.3782 Ry
        Total length         48.2953 bohr


     Adding external electric field

     Computed dipole along edir(3) : 
        Elec. dipole        -10.0175 Ry au,        -25.4619 Debye
        Ion. dipole         -10.0214 Ry au,        -25.4719 Debye
        Dipole               -3.5005 Ry au,         -8.8973 Debye
        Dipole field         -0.0039 Ry au, 

        Potential amp.        0.3782 Ry
        Total length         48.2953 bohr


     total cpu time spent up to now is     8458.1 secs

     total energy              =  -33081.85758082 Ry
     estimated scf accuracy    <       2.24225029 Ry

     total magnetization       =     3.00 Bohr mag/cell
     absolute magnetization    =     3.00 Bohr mag/cell

     iteration #  9     ecut=    60.00 Ry     beta= 0.70
     Davidson diagonalization with overlap

---- Real-time Memory Report at c_bands before calling an iterative solver
          1786 MiB given to the printing process from OS
          1329 MiB allocation reported by mallinfo(arena+hblkhd)
        427986 MiB available memory on the node where the printing process lives
------------------
     ethr =  2.12E-04,  avg # of iterations =  2.9

     negative rho (up, down):  8.621E-07 1.082E-06

     Adding external electric field

     Computed dipole along edir(3) : 
        Elec. dipole        -10.0178 Ry au,        -25.4626 Debye
        Ion. dipole         -10.0214 Ry au,        -25.4719 Debye
        Dipole               -3.2475 Ry au,         -8.2543 Debye
        Dipole field         -0.0036 Ry au, 

        Potential amp.        0.3509 Ry
        Total length         48.2953 bohr


     Adding external electric field

     Computed dipole along edir(3) : 
        Elec. dipole        -10.0178 Ry au,        -25.4626 Debye
        Ion. dipole         -10.0214 Ry au,        -25.4719 Debye
        Dipole               -3.2475 Ry au,         -8.2543 Debye
        Dipole field         -0.0036 Ry au, 

        Potential amp.        0.3509 Ry
        Total length         48.2953 bohr


     total cpu time spent up to now is     9492.9 secs

     total energy              =  -33081.79587887 Ry
     estimated scf accuracy    <       1.50430241 Ry

     total magnetization       =     3.00 Bohr mag/cell
     absolute magnetization    =     3.00 Bohr mag/cell

     iteration # 10     ecut=    60.00 Ry     beta= 0.70
     Davidson diagonalization with overlap

---- Real-time Memory Report at c_bands before calling an iterative solver
          1794 MiB given to the printing process from OS
          1332 MiB allocation reported by mallinfo(arena+hblkhd)
        427917 MiB available memory on the node where the printing process lives
------------------
     ethr =  2.12E-04,  avg # of iterations =  5.0

     negative rho (up, down):  1.913E-07 1.895E-07

     Adding external electric field

     Computed dipole along edir(3) : 
        Elec. dipole        -10.0178 Ry au,        -25.4626 Debye
        Ion. dipole         -10.0214 Ry au,        -25.4719 Debye
        Dipole               -3.2661 Ry au,         -8.3016 Debye
        Dipole field         -0.0037 Ry au, 

        Potential amp.        0.3529 Ry
        Total length         48.2953 bohr


     Adding external electric field

     Computed dipole along edir(3) : 
        Elec. dipole        -10.0178 Ry au,        -25.4626 Debye
        Ion. dipole         -10.0214 Ry au,        -25.4719 Debye
        Dipole               -3.2661 Ry au,         -8.3016 Debye
        Dipole field         -0.0037 Ry au, 

        Potential amp.        0.3529 Ry
        Total length         48.2953 bohr


     total cpu time spent up to now is    10556.8 secs

     total energy              =  -33081.79852188 Ry
     estimated scf accuracy    <       3.31449908 Ry

     total magnetization       =     0.46 Bohr mag/cell
     absolute magnetization    =     0.60 Bohr mag/cell

     iteration # 11     ecut=    60.00 Ry     beta= 0.70
     Davidson diagonalization with overlap

---- Real-time Memory Report at c_bands before calling an iterative solver
          1796 MiB given to the printing process from OS
          1334 MiB allocation reported by mallinfo(arena+hblkhd)
        427867 MiB available memory on the node where the printing process lives
------------------
     ethr =  2.12E-04,  avg # of iterations =  2.7

     negative rho (up, down):  3.735E-04 2.454E-04

     Adding external electric field

     Computed dipole along edir(3) : 
        Elec. dipole        -10.0179 Ry au,        -25.4630 Debye
        Ion. dipole         -10.0214 Ry au,        -25.4719 Debye
        Dipole               -3.1315 Ry au,         -7.9594 Debye
        Dipole field         -0.0035 Ry au, 

        Potential amp.        0.3383 Ry
        Total length         48.2953 bohr


     Adding external electric field

     Computed dipole along edir(3) : 
        Elec. dipole        -10.0179 Ry au,        -25.4630 Debye
        Ion. dipole         -10.0214 Ry au,        -25.4719 Debye
        Dipole               -3.1315 Ry au,         -7.9594 Debye
        Dipole field         -0.0035 Ry au, 

        Potential amp.        0.3383 Ry
        Total length         48.2953 bohr


     total cpu time spent up to now is    11545.5 secs

     total energy              =  -33081.81011861 Ry
     estimated scf accuracy    <       0.58232575 Ry

     total magnetization       =     2.67 Bohr mag/cell
     absolute magnetization    =     2.67 Bohr mag/cell

     iteration # 12     ecut=    60.00 Ry     beta= 0.70
     Davidson diagonalization with overlap

---- Real-time Memory Report at c_bands before calling an iterative solver
          1798 MiB given to the printing process from OS
          1336 MiB allocation reported by mallinfo(arena+hblkhd)
        427817 MiB available memory on the node where the printing process lives
------------------
     ethr =  8.90E-05,  avg # of iterations =  7.0

     negative rho (up, down):  6.551E-04 5.290E-04

     Adding external electric field

     Computed dipole along edir(3) : 
        Elec. dipole        -10.0180 Ry au,        -25.4631 Debye
        Ion. dipole         -10.0214 Ry au,        -25.4719 Debye
        Dipole               -3.0766 Ry au,         -7.8199 Debye
        Dipole field         -0.0034 Ry au, 

        Potential amp.        0.3324 Ry
        Total length         48.2953 bohr


     Adding external electric field

     Computed dipole along edir(3) : 
        Elec. dipole        -10.0180 Ry au,        -25.4631 Debye
        Ion. dipole         -10.0214 Ry au,        -25.4719 Debye
        Dipole               -3.0766 Ry au,         -7.8199 Debye
        Dipole field         -0.0034 Ry au, 

        Potential amp.        0.3324 Ry
        Total length         48.2953 bohr


     total cpu time spent up to now is    12644.1 secs

     total energy              =  -33081.81016623 Ry
     estimated scf accuracy    <       0.12381391 Ry

     total magnetization       =     1.70 Bohr mag/cell
     absolute magnetization    =     1.71 Bohr mag/cell

     iteration # 13     ecut=    60.00 Ry     beta= 0.70
     Davidson diagonalization with overlap

---- Real-time Memory Report at c_bands before calling an iterative solver
          1802 MiB given to the printing process from OS
          1339 MiB allocation reported by mallinfo(arena+hblkhd)
        427836 MiB available memory on the node where the printing process lives
------------------
     c_bands:  1 eigenvalues not converged
     ethr =  1.89E-05,  avg # of iterations =  9.1

     negative rho (up, down):  2.217E-03 2.175E-03

     Adding external electric field

     Computed dipole along edir(3) : 
        Elec. dipole        -10.0182 Ry au,        -25.4636 Debye
        Ion. dipole         -10.0214 Ry au,        -25.4719 Debye
        Dipole               -2.9085 Ry au,         -7.3926 Debye
        Dipole field         -0.0033 Ry au, 

        Potential amp.        0.3143 Ry
        Total length         48.2953 bohr


     Adding external electric field

     Computed dipole along edir(3) : 
        Elec. dipole        -10.0182 Ry au,        -25.4636 Debye
        Ion. dipole         -10.0214 Ry au,        -25.4719 Debye
        Dipole               -2.9085 Ry au,         -7.3926 Debye
        Dipole field         -0.0033 Ry au, 

        Potential amp.        0.3143 Ry
        Total length         48.2953 bohr


     total cpu time spent up to now is    13775.9 secs

     total energy              =  -33081.82598990 Ry
     estimated scf accuracy    <       1.06473759 Ry

     total magnetization       =     2.93 Bohr mag/cell
     absolute magnetization    =     2.93 Bohr mag/cell

     iteration # 14     ecut=    60.00 Ry     beta= 0.70
     Davidson diagonalization with overlap

---- Real-time Memory Report at c_bands before calling an iterative solver
          1803 MiB given to the printing process from OS
          1341 MiB allocation reported by mallinfo(arena+hblkhd)
        427768 MiB available memory on the node where the printing process lives
------------------
     c_bands:  3 eigenvalues not converged
     c_bands:  1 eigenvalues not converged
     c_bands:  1 eigenvalues not converged
     c_bands:  2 eigenvalues not converged
     ethr =  1.89E-05,  avg # of iterations =  4.7

     negative rho (up, down):  7.745E-03 7.837E-03

     Adding external electric field

     Computed dipole along edir(3) : 
        Elec. dipole        -10.0185 Ry au,        -25.4645 Debye
        Ion. dipole         -10.0214 Ry au,        -25.4719 Debye
        Dipole               -2.6061 Ry au,         -6.6240 Debye
        Dipole field         -0.0029 Ry au, 

        Potential amp.        0.2816 Ry
        Total length         48.2953 bohr


     Adding external electric field

     Computed dipole along edir(3) : 
        Elec. dipole        -10.0185 Ry au,        -25.4645 Debye
        Ion. dipole         -10.0214 Ry au,        -25.4719 Debye
        Dipole               -2.6061 Ry au,         -6.6240 Debye
        Dipole field         -0.0029 Ry au, 

        Potential amp.        0.2816 Ry
        Total length         48.2953 bohr


     total cpu time spent up to now is    14847.3 secs

     total energy              =  -33081.82992922 Ry
     estimated scf accuracy    <       1.14248044 Ry

     total magnetization       =     2.96 Bohr mag/cell
     absolute magnetization    =     2.97 Bohr mag/cell

     iteration # 15     ecut=    60.00 Ry     beta= 0.70
     Davidson diagonalization with overlap

---- Real-time Memory Report at c_bands before calling an iterative solver
          1803 MiB given to the printing process from OS
          1341 MiB allocation reported by mallinfo(arena+hblkhd)
        427728 MiB available memory on the node where the printing process lives
------------------
     ethr =  1.89E-05,  avg # of iterations =  7.8

     negative rho (up, down):  1.030E-02 1.044E-02

     Adding external electric field

     Computed dipole along edir(3) : 
        Elec. dipole        -10.0187 Ry au,        -25.4650 Debye
        Ion. dipole         -10.0214 Ry au,        -25.4719 Debye
        Dipole               -2.4335 Ry au,         -6.1853 Debye
        Dipole field         -0.0027 Ry au, 

        Potential amp.        0.2629 Ry
        Total length         48.2953 bohr


     Adding external electric field

     Computed dipole along edir(3) : 
        Elec. dipole        -10.0187 Ry au,        -25.4650 Debye
        Ion. dipole         -10.0214 Ry au,        -25.4719 Debye
        Dipole               -2.4335 Ry au,         -6.1853 Debye
        Dipole field         -0.0027 Ry au, 

        Potential amp.        0.2629 Ry
        Total length         48.2953 bohr


     total cpu time spent up to now is    15971.3 secs

     total energy              =  -33081.81461896 Ry
     estimated scf accuracy    <       1.33076131 Ry

     total magnetization       =     2.98 Bohr mag/cell
     absolute magnetization    =     2.99 Bohr mag/cell

     iteration # 16     ecut=    60.00 Ry     beta= 0.70
     Davidson diagonalization with overlap

---- Real-time Memory Report at c_bands before calling an iterative solver
          1803 MiB given to the printing process from OS
          1341 MiB allocation reported by mallinfo(arena+hblkhd)
        427769 MiB available memory on the node where the printing process lives
------------------
     ethr =  1.89E-05,  avg # of iterations =  2.7

     negative rho (up, down):  9.610E-03 9.662E-03

     Adding external electric field

     Computed dipole along edir(3) : 
        Elec. dipole        -10.0187 Ry au,        -25.4650 Debye
        Ion. dipole         -10.0214 Ry au,        -25.4719 Debye
        Dipole               -2.4107 Ry au,         -6.1274 Debye
        Dipole field         -0.0027 Ry au, 

        Potential amp.        0.2605 Ry
        Total length         48.2953 bohr


     Adding external electric field

     Computed dipole along edir(3) : 
        Elec. dipole        -10.0187 Ry au,        -25.4650 Debye
        Ion. dipole         -10.0214 Ry au,        -25.4719 Debye
        Dipole               -2.4107 Ry au,         -6.1274 Debye
        Dipole field         -0.0027 Ry au, 

        Potential amp.        0.2605 Ry
        Total length         48.2953 bohr


     total cpu time spent up to now is    17016.2 secs

     total energy              =  -33081.80967431 Ry
     estimated scf accuracy    <       0.35770521 Ry

     total magnetization       =     2.49 Bohr mag/cell
     absolute magnetization    =     2.50 Bohr mag/cell

     iteration # 17     ecut=    60.00 Ry     beta= 0.70
     Davidson diagonalization with overlap

---- Real-time Memory Report at c_bands before calling an iterative solver
          1803 MiB given to the printing process from OS
          1341 MiB allocation reported by mallinfo(arena+hblkhd)
        427733 MiB available memory on the node where the printing process lives
------------------
     ethr =  1.89E-05,  avg # of iterations =  2.5

     negative rho (up, down):  9.209E-03 9.219E-03

     Adding external electric field

     Computed dipole along edir(3) : 
        Elec. dipole        -10.0187 Ry au,        -25.4650 Debye
        Ion. dipole         -10.0214 Ry au,        -25.4719 Debye
        Dipole               -2.4246 Ry au,         -6.1628 Debye
        Dipole field         -0.0027 Ry au, 

        Potential amp.        0.2620 Ry
        Total length         48.2953 bohr


     Adding external electric field

     Computed dipole along edir(3) : 
        Elec. dipole        -10.0187 Ry au,        -25.4650 Debye
        Ion. dipole         -10.0214 Ry au,        -25.4719 Debye
        Dipole               -2.4246 Ry au,         -6.1628 Debye
        Dipole field         -0.0027 Ry au, 

        Potential amp.        0.2620 Ry
        Total length         48.2953 bohr


     total cpu time spent up to now is    18051.4 secs

     total energy              =  -33081.81723141 Ry
     estimated scf accuracy    <       0.63506522 Ry

     total magnetization       =     1.26 Bohr mag/cell
     absolute magnetization    =     1.30 Bohr mag/cell

     iteration # 18     ecut=    60.00 Ry     beta= 0.70
     Davidson diagonalization with overlap

---- Real-time Memory Report at c_bands before calling an iterative solver
          1803 MiB given to the printing process from OS
          1341 MiB allocation reported by mallinfo(arena+hblkhd)
        427674 MiB available memory on the node where the printing process lives
------------------
     ethr =  1.89E-05,  avg # of iterations =  1.2

     negative rho (up, down):  9.495E-03 9.439E-03

     Adding external electric field

     Computed dipole along edir(3) : 
        Elec. dipole        -10.0187 Ry au,        -25.4649 Debye
        Ion. dipole         -10.0214 Ry au,        -25.4719 Debye
        Dipole               -2.4527 Ry au,         -6.2341 Debye
        Dipole field         -0.0027 Ry au, 

        Potential amp.        0.2650 Ry
        Total length         48.2953 bohr


     Adding external electric field

     Computed dipole along edir(3) : 
        Elec. dipole        -10.0187 Ry au,        -25.4649 Debye
        Ion. dipole         -10.0214 Ry au,        -25.4719 Debye
        Dipole               -2.4527 Ry au,         -6.2341 Debye
        Dipole field         -0.0027 Ry au, 

        Potential amp.        0.2650 Ry
        Total length         48.2953 bohr


     total cpu time spent up to now is    18968.8 secs

     total energy              =  -33081.81519470 Ry
     estimated scf accuracy    <       0.39412606 Ry

     total magnetization       =     1.43 Bohr mag/cell
     absolute magnetization    =     1.47 Bohr mag/cell

     iteration # 19     ecut=    60.00 Ry     beta= 0.70
     Davidson diagonalization with overlap

---- Real-time Memory Report at c_bands before calling an iterative solver
          1803 MiB given to the printing process from OS
          1341 MiB allocation reported by mallinfo(arena+hblkhd)
        427713 MiB available memory on the node where the printing process lives
------------------
     ethr =  1.89E-05,  avg # of iterations =  1.1

     negative rho (up, down):  9.855E-03 9.714E-03

     Adding external electric field

     Computed dipole along edir(3) : 
        Elec. dipole        -10.0187 Ry au,        -25.4649 Debye
        Ion. dipole         -10.0214 Ry au,        -25.4719 Debye
        Dipole               -2.4403 Ry au,         -6.2025 Debye
        Dipole field         -0.0027 Ry au, 

        Potential amp.        0.2637 Ry
        Total length         48.2953 bohr


     Adding external electric field

     Computed dipole along edir(3) : 
        Elec. dipole        -10.0187 Ry au,        -25.4649 Debye
        Ion. dipole         -10.0214 Ry au,        -25.4719 Debye
        Dipole               -2.4403 Ry au,         -6.2025 Debye
        Dipole field         -0.0027 Ry au, 

        Potential amp.        0.2637 Ry
        Total length         48.2953 bohr


     total cpu time spent up to now is    19869.8 secs

     total energy              =  -33081.81377405 Ry
     estimated scf accuracy    <       0.08206972 Ry

     total magnetization       =     1.79 Bohr mag/cell
     absolute magnetization    =     1.81 Bohr mag/cell

     iteration # 20     ecut=    60.00 Ry     beta= 0.70
     Davidson diagonalization with overlap

---- Real-time Memory Report at c_bands before calling an iterative solver
          1803 MiB given to the printing process from OS
          1341 MiB allocation reported by mallinfo(arena+hblkhd)
        427757 MiB available memory on the node where the printing process lives
------------------
     ethr =  1.25E-05,  avg # of iterations =  1.7

     negative rho (up, down):  8.258E-03 8.214E-03

     Adding external electric field

     Computed dipole along edir(3) : 
        Elec. dipole        -10.0187 Ry au,        -25.4649 Debye
        Ion. dipole         -10.0214 Ry au,        -25.4719 Debye
        Dipole               -2.4399 Ry au,         -6.2016 Debye
        Dipole field         -0.0027 Ry au, 

        Potential amp.        0.2636 Ry
        Total length         48.2953 bohr


     Adding external electric field

     Computed dipole along edir(3) : 
        Elec. dipole        -10.0187 Ry au,        -25.4649 Debye
        Ion. dipole         -10.0214 Ry au,        -25.4719 Debye
        Dipole               -2.4399 Ry au,         -6.2016 Debye
        Dipole field         -0.0027 Ry au, 

        Potential amp.        0.2636 Ry
        Total length         48.2953 bohr


     total cpu time spent up to now is    20854.3 secs

     total energy              =  -33081.80278858 Ry
     estimated scf accuracy    <       0.97753174 Ry

     total magnetization       =     1.08 Bohr mag/cell
     absolute magnetization    =     1.13 Bohr mag/cell

     iteration # 21     ecut=    60.00 Ry     beta= 0.70
     Davidson diagonalization with overlap

---- Real-time Memory Report at c_bands before calling an iterative solver
          1803 MiB given to the printing process from OS
          1341 MiB allocation reported by mallinfo(arena+hblkhd)
        427767 MiB available memory on the node where the printing process lives
------------------
     ethr =  1.25E-05,  avg # of iterations =  2.3

     negative rho (up, down):  8.421E-03 8.351E-03

     Adding external electric field

     Computed dipole along edir(3) : 
        Elec. dipole        -10.0188 Ry au,        -25.4652 Debye
        Ion. dipole         -10.0214 Ry au,        -25.4719 Debye
        Dipole               -2.3299 Ry au,         -5.9220 Debye
        Dipole field         -0.0026 Ry au, 

        Potential amp.        0.2517 Ry
        Total length         48.2953 bohr


     Adding external electric field

     Computed dipole along edir(3) : 
        Elec. dipole        -10.0188 Ry au,        -25.4652 Debye
        Ion. dipole         -10.0214 Ry au,        -25.4719 Debye
        Dipole               -2.3299 Ry au,         -5.9220 Debye
        Dipole field         -0.0026 Ry au, 

        Potential amp.        0.2517 Ry
        Total length         48.2953 bohr


     total cpu time spent up to now is    21895.1 secs

     total energy              =  -33081.81290050 Ry
     estimated scf accuracy    <       0.20945778 Ry

     total magnetization       =     2.38 Bohr mag/cell
     absolute magnetization    =     2.38 Bohr mag/cell

     iteration # 22     ecut=    60.00 Ry     beta= 0.70
     Davidson diagonalization with overlap

---- Real-time Memory Report at c_bands before calling an iterative solver
          1803 MiB given to the printing process from OS
          1341 MiB allocation reported by mallinfo(arena+hblkhd)
        427745 MiB available memory on the node where the printing process lives
------------------
     ethr =  1.25E-05,  avg # of iterations =  2.4

     negative rho (up, down):  8.807E-03 8.616E-03

     Adding external electric field

     Computed dipole along edir(3) : 
        Elec. dipole        -10.0189 Ry au,        -25.4654 Debye
        Ion. dipole         -10.0214 Ry au,        -25.4719 Debye
        Dipole               -2.2701 Ry au,         -5.7701 Debye
        Dipole field         -0.0025 Ry au, 

        Potential amp.        0.2453 Ry
        Total length         48.2953 bohr


     Adding external electric field

     Computed dipole along edir(3) : 
        Elec. dipole        -10.0189 Ry au,        -25.4654 Debye
        Ion. dipole         -10.0214 Ry au,        -25.4719 Debye
        Dipole               -2.2701 Ry au,         -5.7701 Debye
        Dipole field         -0.0025 Ry au, 

        Potential amp.        0.2453 Ry
        Total length         48.2953 bohr


     total cpu time spent up to now is    22935.0 secs

     total energy              =  -33081.81063373 Ry
     estimated scf accuracy    <       0.05284478 Ry

     total magnetization       =     1.80 Bohr mag/cell
     absolute magnetization    =     1.81 Bohr mag/cell

     iteration # 23     ecut=    60.00 Ry     beta= 0.70
     Davidson diagonalization with overlap

---- Real-time Memory Report at c_bands before calling an iterative solver
          1803 MiB given to the printing process from OS
          1341 MiB allocation reported by mallinfo(arena+hblkhd)
        427769 MiB available memory on the node where the printing process lives
------------------
     ethr =  8.08E-06,  avg # of iterations =  3.2

     negative rho (up, down):  8.818E-03 8.708E-03

     Adding external electric field

     Computed dipole along edir(3) : 
        Elec. dipole        -10.0189 Ry au,        -25.4654 Debye
        Ion. dipole         -10.0214 Ry au,        -25.4719 Debye
        Dipole               -2.2808 Ry au,         -5.7972 Debye
        Dipole field         -0.0026 Ry au, 

        Potential amp.        0.2464 Ry
        Total length         48.2953 bohr


     Adding external electric field

     Computed dipole along edir(3) : 
        Elec. dipole        -10.0189 Ry au,        -25.4654 Debye
        Ion. dipole         -10.0214 Ry au,        -25.4719 Debye
        Dipole               -2.2808 Ry au,         -5.7972 Debye
        Dipole field         -0.0026 Ry au, 

        Potential amp.        0.2464 Ry
        Total length         48.2953 bohr


     total cpu time spent up to now is    23984.9 secs

     total energy              =  -33081.81352060 Ry
     estimated scf accuracy    <       0.93334929 Ry

     total magnetization       =     1.09 Bohr mag/cell
     absolute magnetization    =     1.13 Bohr mag/cell

     iteration # 24     ecut=    60.00 Ry     beta= 0.70
     Davidson diagonalization with overlap

---- Real-time Memory Report at c_bands before calling an iterative solver
          1803 MiB given to the printing process from OS
          1341 MiB allocation reported by mallinfo(arena+hblkhd)
        427770 MiB available memory on the node where the printing process lives
------------------
     ethr =  8.08E-06,  avg # of iterations =  2.1

     negative rho (up, down):  7.693E-03 7.689E-03

     Adding external electric field

     Computed dipole along edir(3) : 
        Elec. dipole        -10.0189 Ry au,        -25.4655 Debye
        Ion. dipole         -10.0214 Ry au,        -25.4719 Debye
        Dipole               -2.2481 Ry au,         -5.7141 Debye
        Dipole field         -0.0025 Ry au, 

        Potential amp.        0.2429 Ry
        Total length         48.2953 bohr


     Adding external electric field

     Computed dipole along edir(3) : 
        Elec. dipole        -10.0189 Ry au,        -25.4655 Debye
        Ion. dipole         -10.0214 Ry au,        -25.4719 Debye
        Dipole               -2.2481 Ry au,         -5.7141 Debye
        Dipole field         -0.0025 Ry au, 

        Potential amp.        0.2429 Ry
        Total length         48.2953 bohr


     total cpu time spent up to now is    25018.7 secs

     total energy              =  -33081.81803446 Ry
     estimated scf accuracy    <       0.72363594 Ry

     total magnetization       =     1.19 Bohr mag/cell
     absolute magnetization    =     1.23 Bohr mag/cell

     iteration # 25     ecut=    60.00 Ry     beta= 0.70
     Davidson diagonalization with overlap

---- Real-time Memory Report at c_bands before calling an iterative solver
          1803 MiB given to the printing process from OS
          1341 MiB allocation reported by mallinfo(arena+hblkhd)
        427755 MiB available memory on the node where the printing process lives
------------------
     ethr =  8.08E-06,  avg # of iterations =  2.9

     negative rho (up, down):  6.915E-03 6.865E-03

     Adding external electric field

     Computed dipole along edir(3) : 
        Elec. dipole        -10.0189 Ry au,        -25.4655 Debye
        Ion. dipole         -10.0214 Ry au,        -25.4719 Debye
        Dipole               -2.2483 Ry au,         -5.7146 Debye
        Dipole field         -0.0025 Ry au, 

        Potential amp.        0.2429 Ry
        Total length         48.2953 bohr


     Adding external electric field

     Computed dipole along edir(3) : 
        Elec. dipole        -10.0189 Ry au,        -25.4655 Debye
        Ion. dipole         -10.0214 Ry au,        -25.4719 Debye
        Dipole               -2.2483 Ry au,         -5.7146 Debye
        Dipole field         -0.0025 Ry au, 

        Potential amp.        0.2429 Ry
        Total length         48.2953 bohr


     total cpu time spent up to now is    26066.9 secs

     total energy              =  -33081.81078519 Ry
     estimated scf accuracy    <       0.86151002 Ry

     total magnetization       =     1.12 Bohr mag/cell
     absolute magnetization    =     1.20 Bohr mag/cell

     iteration # 26     ecut=    60.00 Ry     beta= 0.70
     Davidson diagonalization with overlap

---- Real-time Memory Report at c_bands before calling an iterative solver
          1803 MiB given to the printing process from OS
          1341 MiB allocation reported by mallinfo(arena+hblkhd)
        427724 MiB available memory on the node where the printing process lives
------------------
     ethr =  8.08E-06,  avg # of iterations =  2.0

     negative rho (up, down):  5.452E-03 5.380E-03

     Adding external electric field

     Computed dipole along edir(3) : 
        Elec. dipole        -10.0189 Ry au,        -25.4654 Debye
        Ion. dipole         -10.0214 Ry au,        -25.4719 Debye
        Dipole               -2.2626 Ry au,         -5.7511 Debye
        Dipole field         -0.0025 Ry au, 

        Potential amp.        0.2445 Ry
        Total length         48.2953 bohr


     Adding external electric field

     Computed dipole along edir(3) : 
        Elec. dipole        -10.0189 Ry au,        -25.4654 Debye
        Ion. dipole         -10.0214 Ry au,        -25.4719 Debye
        Dipole               -2.2626 Ry au,         -5.7511 Debye
        Dipole field         -0.0025 Ry au, 

        Potential amp.        0.2445 Ry
        Total length         48.2953 bohr


     total cpu time spent up to now is    27098.7 secs

     total energy              =  -33081.81086414 Ry
     estimated scf accuracy    <       0.10873856 Ry

     total magnetization       =     1.66 Bohr mag/cell
     absolute magnetization    =     1.67 Bohr mag/cell

     iteration # 27     ecut=    60.00 Ry     beta= 0.70
     Davidson diagonalization with overlap

---- Real-time Memory Report at c_bands before calling an iterative solver
          1803 MiB given to the printing process from OS
          1341 MiB allocation reported by mallinfo(arena+hblkhd)
        427766 MiB available memory on the node where the printing process lives
------------------
     ethr =  8.08E-06,  avg # of iterations =  1.6

     negative rho (up, down):  2.309E-03 2.244E-03

     Adding external electric field

     Computed dipole along edir(3) : 
        Elec. dipole        -10.0188 Ry au,        -25.4652 Debye
        Ion. dipole         -10.0214 Ry au,        -25.4719 Debye
        Dipole               -2.3622 Ry au,         -6.0040 Debye
        Dipole field         -0.0026 Ry au, 

        Potential amp.        0.2552 Ry
        Total length         48.2953 bohr


     Adding external electric field

     Computed dipole along edir(3) : 
        Elec. dipole        -10.0188 Ry au,        -25.4652 Debye
        Ion. dipole         -10.0214 Ry au,        -25.4719 Debye
        Dipole               -2.3622 Ry au,         -6.0040 Debye
        Dipole field         -0.0026 Ry au, 

        Potential amp.        0.2552 Ry
        Total length         48.2953 bohr


     total cpu time spent up to now is    28075.9 secs

     total energy              =  -33081.81385341 Ry
     estimated scf accuracy    <       0.25550435 Ry

     total magnetization       =     2.41 Bohr mag/cell
     absolute magnetization    =     2.41 Bohr mag/cell

     iteration # 28     ecut=    60.00 Ry     beta= 0.70
     Davidson diagonalization with overlap

---- Real-time Memory Report at c_bands before calling an iterative solver
          1803 MiB given to the printing process from OS
          1341 MiB allocation reported by mallinfo(arena+hblkhd)
        427756 MiB available memory on the node where the printing process lives
------------------
     ethr =  8.08E-06,  avg # of iterations =  5.6

     negative rho (up, down):  9.404E-04 9.559E-04

     Adding external electric field

     Computed dipole along edir(3) : 
        Elec. dipole        -10.0188 Ry au,        -25.4653 Debye
        Ion. dipole         -10.0214 Ry au,        -25.4719 Debye
        Dipole               -2.3231 Ry au,         -5.9047 Debye
        Dipole field         -0.0026 Ry au, 

        Potential amp.        0.2510 Ry
        Total length         48.2953 bohr


     Adding external electric field

     Computed dipole along edir(3) : 
        Elec. dipole        -10.0188 Ry au,        -25.4653 Debye
        Ion. dipole         -10.0214 Ry au,        -25.4719 Debye
        Dipole               -2.3231 Ry au,         -5.9047 Debye
        Dipole field         -0.0026 Ry au, 

        Potential amp.        0.2510 Ry
        Total length         48.2953 bohr


     total cpu time spent up to now is    29156.3 secs

     total energy              =  -33081.81233933 Ry
     estimated scf accuracy    <       0.50015201 Ry

     total magnetization       =     2.60 Bohr mag/cell
     absolute magnetization    =     2.60 Bohr mag/cell

     iteration # 29     ecut=    60.00 Ry     beta= 0.70
     Davidson diagonalization with overlap

---- Real-time Memory Report at c_bands before calling an iterative solver
          1804 MiB given to the printing process from OS
          1341 MiB allocation reported by mallinfo(arena+hblkhd)
        427742 MiB available memory on the node where the printing process lives
------------------
     ethr =  8.08E-06,  avg # of iterations =  2.5

     negative rho (up, down):  7.703E-04 7.653E-04

     Adding external electric field

     Computed dipole along edir(3) : 
        Elec. dipole        -10.0188 Ry au,        -25.4653 Debye
        Ion. dipole         -10.0214 Ry au,        -25.4719 Debye
        Dipole               -2.3035 Ry au,         -5.8549 Debye
        Dipole field         -0.0026 Ry au, 

        Potential amp.        0.2489 Ry
        Total length         48.2953 bohr


     Adding external electric field

     Computed dipole along edir(3) : 
        Elec. dipole        -10.0188 Ry au,        -25.4653 Debye
        Ion. dipole         -10.0214 Ry au,        -25.4719 Debye
        Dipole               -2.3035 Ry au,         -5.8549 Debye
        Dipole field         -0.0026 Ry au, 

        Potential amp.        0.2489 Ry
        Total length         48.2953 bohr


     total cpu time spent up to now is    30199.3 secs

     total energy              =  -33081.81150312 Ry
     estimated scf accuracy    <       0.17728169 Ry

     total magnetization       =     2.32 Bohr mag/cell
     absolute magnetization    =     2.32 Bohr mag/cell

     iteration # 30     ecut=    60.00 Ry     beta= 0.70
     Davidson diagonalization with overlap

---- Real-time Memory Report at c_bands before calling an iterative solver
          1805 MiB given to the printing process from OS
          1341 MiB allocation reported by mallinfo(arena+hblkhd)
        427760 MiB available memory on the node where the printing process lives
------------------
     ethr =  8.08E-06,  avg # of iterations =  1.2

     negative rho (up, down):  1.075E-03 1.012E-03

     Adding external electric field

     Computed dipole along edir(3) : 
        Elec. dipole        -10.0189 Ry au,        -25.4654 Debye
        Ion. dipole         -10.0214 Ry au,        -25.4719 Debye
        Dipole               -2.2765 Ry au,         -5.7862 Debye
        Dipole field         -0.0025 Ry au, 

        Potential amp.        0.2460 Ry
        Total length         48.2953 bohr


     Adding external electric field

     Computed dipole along edir(3) : 
        Elec. dipole        -10.0189 Ry au,        -25.4654 Debye
        Ion. dipole         -10.0214 Ry au,        -25.4719 Debye
        Dipole               -2.2765 Ry au,         -5.7862 Debye
        Dipole field         -0.0025 Ry au, 

        Potential amp.        0.2460 Ry
        Total length         48.2953 bohr


     total cpu time spent up to now is    31123.8 secs

     total energy              =  -33081.81199524 Ry
     estimated scf accuracy    <       0.01850699 Ry

     total magnetization       =     1.83 Bohr mag/cell
     absolute magnetization    =     1.84 Bohr mag/cell

     iteration # 31     ecut=    60.00 Ry     beta= 0.70
     Davidson diagonalization with overlap

---- Real-time Memory Report at c_bands before calling an iterative solver
          1805 MiB given to the printing process from OS
          1341 MiB allocation reported by mallinfo(arena+hblkhd)
        427757 MiB available memory on the node where the printing process lives
------------------
     c_bands:  1 eigenvalues not converged
     c_bands:  1 eigenvalues not converged
     ethr =  2.83E-06,  avg # of iterations =  4.4

     negative rho (up, down):  6.744E-04 6.515E-04

     Adding external electric field

     Computed dipole along edir(3) : 
        Elec. dipole        -10.0189 Ry au,        -25.4654 Debye
        Ion. dipole         -10.0214 Ry au,        -25.4719 Debye
        Dipole               -2.2728 Ry au,         -5.7768 Debye
        Dipole field         -0.0025 Ry au, 

        Potential amp.        0.2456 Ry
        Total length         48.2953 bohr


     Adding external electric field

     Computed dipole along edir(3) : 
        Elec. dipole        -10.0189 Ry au,        -25.4654 Debye
        Ion. dipole         -10.0214 Ry au,        -25.4719 Debye
        Dipole               -2.2728 Ry au,         -5.7768 Debye
        Dipole field         -0.0025 Ry au, 

        Potential amp.        0.2456 Ry
        Total length         48.2953 bohr


     total cpu time spent up to now is    32189.3 secs

     total energy              =  -33081.81218447 Ry
     estimated scf accuracy    <       0.00808806 Ry

     total magnetization       =     2.00 Bohr mag/cell
     absolute magnetization    =     2.01 Bohr mag/cell

     iteration # 32     ecut=    60.00 Ry     beta= 0.70
     Davidson diagonalization with overlap

---- Real-time Memory Report at c_bands before calling an iterative solver
          1805 MiB given to the printing process from OS
          1341 MiB allocation reported by mallinfo(arena+hblkhd)
        427745 MiB available memory on the node where the printing process lives
------------------
     c_bands:  1 eigenvalues not converged
     c_bands:  1 eigenvalues not converged
     ethr =  1.24E-06,  avg # of iterations =  2.6

     negative rho (up, down):  6.935E-04 6.723E-04

     Adding external electric field

     Computed dipole along edir(3) : 
        Elec. dipole        -10.0189 Ry au,        -25.4654 Debye
        Ion. dipole         -10.0214 Ry au,        -25.4719 Debye
        Dipole               -2.2738 Ry au,         -5.7793 Debye
        Dipole field         -0.0025 Ry au, 

        Potential amp.        0.2457 Ry
        Total length         48.2953 bohr


     Adding external electric field

     Computed dipole along edir(3) : 
        Elec. dipole        -10.0189 Ry au,        -25.4654 Debye
        Ion. dipole         -10.0214 Ry au,        -25.4719 Debye
        Dipole               -2.2738 Ry au,         -5.7793 Debye
        Dipole field         -0.0025 Ry au, 

        Potential amp.        0.2457 Ry
        Total length         48.2953 bohr


     total cpu time spent up to now is    33195.2 secs

     total energy              =  -33081.81218858 Ry
     estimated scf accuracy    <       0.00175478 Ry

     total magnetization       =     1.92 Bohr mag/cell
     absolute magnetization    =     1.93 Bohr mag/cell

     iteration # 33     ecut=    60.00 Ry     beta= 0.70
     Davidson diagonalization with overlap

---- Real-time Memory Report at c_bands before calling an iterative solver
          1805 MiB given to the printing process from OS
          1341 MiB allocation reported by mallinfo(arena+hblkhd)
        427721 MiB available memory on the node where the printing process lives
------------------
     ethr =  2.68E-07,  avg # of iterations =  2.0

     negative rho (up, down):  8.523E-04 8.173E-04

     Adding external electric field

     Computed dipole along edir(3) : 
        Elec. dipole        -10.0189 Ry au,        -25.4654 Debye
        Ion. dipole         -10.0214 Ry au,        -25.4719 Debye
        Dipole               -2.2625 Ry au,         -5.7507 Debye
        Dipole field         -0.0025 Ry au, 

        Potential amp.        0.2445 Ry
        Total length         48.2953 bohr


     Adding external electric field

     Computed dipole along edir(3) : 
        Elec. dipole        -10.0189 Ry au,        -25.4654 Debye
        Ion. dipole         -10.0214 Ry au,        -25.4719 Debye
        Dipole               -2.2625 Ry au,         -5.7507 Debye
        Dipole field         -0.0025 Ry au, 

        Potential amp.        0.2445 Ry
        Total length         48.2953 bohr


     total cpu time spent up to now is    34170.0 secs

     total energy              =  -33081.81208187 Ry
     estimated scf accuracy    <       0.00214710 Ry

     total magnetization       =     1.96 Bohr mag/cell
     absolute magnetization    =     1.96 Bohr mag/cell

     iteration # 34     ecut=    60.00 Ry     beta= 0.70
     Davidson diagonalization with overlap

---- Real-time Memory Report at c_bands before calling an iterative solver
          1805 MiB given to the printing process from OS
          1341 MiB allocation reported by mallinfo(arena+hblkhd)
        427759 MiB available memory on the node where the printing process lives
------------------
     ethr =  2.68E-07,  avg # of iterations =  2.1

     negative rho (up, down):  6.917E-04 6.452E-04

     Adding external electric field

     Computed dipole along edir(3) : 
        Elec. dipole        -10.0189 Ry au,        -25.4654 Debye
        Ion. dipole         -10.0214 Ry au,        -25.4719 Debye
        Dipole               -2.2761 Ry au,         -5.7852 Debye
        Dipole field         -0.0025 Ry au, 

        Potential amp.        0.2459 Ry
        Total length         48.2953 bohr


     Adding external electric field

     Computed dipole along edir(3) : 
        Elec. dipole        -10.0189 Ry au,        -25.4654 Debye
        Ion. dipole         -10.0214 Ry au,        -25.4719 Debye
        Dipole               -2.2761 Ry au,         -5.7852 Debye
        Dipole field         -0.0025 Ry au, 

        Potential amp.        0.2459 Ry
        Total length         48.2953 bohr


     total cpu time spent up to now is    35202.8 secs

     total energy              =  -33081.81211928 Ry
     estimated scf accuracy    <       0.00072171 Ry

     total magnetization       =     1.94 Bohr mag/cell
     absolute magnetization    =     1.94 Bohr mag/cell

     iteration # 35     ecut=    60.00 Ry     beta= 0.70
     Davidson diagonalization with overlap

---- Real-time Memory Report at c_bands before calling an iterative solver
          1805 MiB given to the printing process from OS
          1341 MiB allocation reported by mallinfo(arena+hblkhd)
        427763 MiB available memory on the node where the printing process lives
------------------
     ethr =  1.10E-07,  avg # of iterations =  1.9

     negative rho (up, down):  7.069E-04 6.719E-04

     Adding external electric field

     Computed dipole along edir(3) : 
        Elec. dipole        -10.0189 Ry au,        -25.4654 Debye
        Ion. dipole         -10.0214 Ry au,        -25.4719 Debye
        Dipole               -2.2692 Ry au,         -5.7677 Debye
        Dipole field         -0.0025 Ry au, 

        Potential amp.        0.2452 Ry
        Total length         48.2953 bohr


     Adding external electric field

     Computed dipole along edir(3) : 
        Elec. dipole        -10.0189 Ry au,        -25.4654 Debye
        Ion. dipole         -10.0214 Ry au,        -25.4719 Debye
        Dipole               -2.2692 Ry au,         -5.7677 Debye
        Dipole field         -0.0025 Ry au, 

        Potential amp.        0.2452 Ry
        Total length         48.2953 bohr


     total cpu time spent up to now is    36213.7 secs

     total energy              =  -33081.81209898 Ry
     estimated scf accuracy    <       0.00062430 Ry

     total magnetization       =     1.94 Bohr mag/cell
     absolute magnetization    =     1.95 Bohr mag/cell

     iteration # 36     ecut=    60.00 Ry     beta= 0.70
     Davidson diagonalization with overlap

---- Real-time Memory Report at c_bands before calling an iterative solver
          1805 MiB given to the printing process from OS
          1341 MiB allocation reported by mallinfo(arena+hblkhd)
        427760 MiB available memory on the node where the printing process lives
------------------
     ethr =  9.55E-08,  avg # of iterations =  2.0

     negative rho (up, down):  6.193E-04 5.967E-04

     Adding external electric field

     Computed dipole along edir(3) : 
        Elec. dipole        -10.0189 Ry au,        -25.4654 Debye
        Ion. dipole         -10.0214 Ry au,        -25.4719 Debye
        Dipole               -2.2629 Ry au,         -5.7517 Debye
        Dipole field         -0.0025 Ry au, 

        Potential amp.        0.2445 Ry
        Total length         48.2953 bohr


     Adding external electric field

     Computed dipole along edir(3) : 
        Elec. dipole        -10.0189 Ry au,        -25.4654 Debye
        Ion. dipole         -10.0214 Ry au,        -25.4719 Debye
        Dipole               -2.2629 Ry au,         -5.7517 Debye
        Dipole field         -0.0025 Ry au, 

        Potential amp.        0.2445 Ry
        Total length         48.2953 bohr


     total cpu time spent up to now is    37248.9 secs

     total energy              =  -33081.81194918 Ry
     estimated scf accuracy    <       0.00223474 Ry

     total magnetization       =     1.97 Bohr mag/cell
     absolute magnetization    =     1.98 Bohr mag/cell

     iteration # 37     ecut=    60.00 Ry     beta= 0.70
     Davidson diagonalization with overlap

---- Real-time Memory Report at c_bands before calling an iterative solver
          1805 MiB given to the printing process from OS
          1341 MiB allocation reported by mallinfo(arena+hblkhd)
        427758 MiB available memory on the node where the printing process lives
------------------
     c_bands:  1 eigenvalues not converged
     ethr =  9.55E-08,  avg # of iterations =  3.0

     negative rho (up, down):  6.566E-04 6.278E-04

     Adding external electric field

     Computed dipole along edir(3) : 
        Elec. dipole        -10.0189 Ry au,        -25.4654 Debye
        Ion. dipole         -10.0214 Ry au,        -25.4719 Debye
        Dipole               -2.2621 Ry au,         -5.7496 Debye
        Dipole field         -0.0025 Ry au, 

        Potential amp.        0.2444 Ry
        Total length         48.2953 bohr


     Adding external electric field

     Computed dipole along edir(3) : 
        Elec. dipole        -10.0189 Ry au,        -25.4654 Debye
        Ion. dipole         -10.0214 Ry au,        -25.4719 Debye
        Dipole               -2.2621 Ry au,         -5.7496 Debye
        Dipole field         -0.0025 Ry au, 

        Potential amp.        0.2444 Ry
        Total length         48.2953 bohr


     total cpu time spent up to now is    38295.6 secs

     total energy              =  -33081.81205707 Ry
     estimated scf accuracy    <       0.00018196 Ry

     total magnetization       =     1.94 Bohr mag/cell
     absolute magnetization    =     1.95 Bohr mag/cell

     iteration # 38     ecut=    60.00 Ry     beta= 0.70
     Davidson diagonalization with overlap

---- Real-time Memory Report at c_bands before calling an iterative solver
          1805 MiB given to the printing process from OS
          1341 MiB allocation reported by mallinfo(arena+hblkhd)
        427762 MiB available memory on the node where the printing process lives
------------------
     ethr =  2.78E-08,  avg # of iterations =  2.0

     negative rho (up, down):  6.580E-04 6.280E-04

     Adding external electric field

     Computed dipole along edir(3) : 
        Elec. dipole        -10.0189 Ry au,        -25.4654 Debye
        Ion. dipole         -10.0214 Ry au,        -25.4719 Debye
        Dipole               -2.2622 Ry au,         -5.7498 Debye
        Dipole field         -0.0025 Ry au, 

        Potential amp.        0.2444 Ry
        Total length         48.2953 bohr


     Adding external electric field

     Computed dipole along edir(3) : 
        Elec. dipole        -10.0189 Ry au,        -25.4654 Debye
        Ion. dipole         -10.0214 Ry au,        -25.4719 Debye
        Dipole               -2.2622 Ry au,         -5.7498 Debye
        Dipole field         -0.0025 Ry au, 

        Potential amp.        0.2444 Ry
        Total length         48.2953 bohr


     total cpu time spent up to now is    39329.4 secs

     total energy              =  -33081.81206855 Ry
     estimated scf accuracy    <       0.00007371 Ry

     total magnetization       =     1.93 Bohr mag/cell
     absolute magnetization    =     1.93 Bohr mag/cell

     iteration # 39     ecut=    60.00 Ry     beta= 0.70
     Davidson diagonalization with overlap

---- Real-time Memory Report at c_bands before calling an iterative solver
          1805 MiB given to the printing process from OS
          1341 MiB allocation reported by mallinfo(arena+hblkhd)
        427755 MiB available memory on the node where the printing process lives
------------------
     ethr =  1.13E-08,  avg # of iterations =  2.1

     negative rho (up, down):  7.447E-04 7.110E-04

     Adding external electric field

     Computed dipole along edir(3) : 
        Elec. dipole        -10.0189 Ry au,        -25.4655 Debye
        Ion. dipole         -10.0214 Ry au,        -25.4719 Debye
        Dipole               -2.2593 Ry au,         -5.7426 Debye
        Dipole field         -0.0025 Ry au, 

        Potential amp.        0.2441 Ry
        Total length         48.2953 bohr


     Adding external electric field

     Computed dipole along edir(3) : 
        Elec. dipole        -10.0189 Ry au,        -25.4655 Debye
        Ion. dipole         -10.0214 Ry au,        -25.4719 Debye
        Dipole               -2.2593 Ry au,         -5.7426 Debye
        Dipole field         -0.0025 Ry au, 

        Potential amp.        0.2441 Ry
        Total length         48.2953 bohr


     total cpu time spent up to now is    40361.7 secs

     total energy              =  -33081.81206886 Ry
     estimated scf accuracy    <       0.00013378 Ry

     total magnetization       =     1.92 Bohr mag/cell
     absolute magnetization    =     1.93 Bohr mag/cell

     iteration # 40     ecut=    60.00 Ry     beta= 0.70
     Davidson diagonalization with overlap

---- Real-time Memory Report at c_bands before calling an iterative solver
          1805 MiB given to the printing process from OS
          1341 MiB allocation reported by mallinfo(arena+hblkhd)
        427760 MiB available memory on the node where the printing process lives
------------------
     ethr =  1.13E-08,  avg # of iterations =  1.0

     negative rho (up, down):  7.220E-04 6.882E-04

     Adding external electric field

     Computed dipole along edir(3) : 
        Elec. dipole        -10.0189 Ry au,        -25.4654 Debye
        Ion. dipole         -10.0214 Ry au,        -25.4719 Debye
        Dipole               -2.2600 Ry au,         -5.7444 Debye
        Dipole field         -0.0025 Ry au, 

        Potential amp.        0.2442 Ry
        Total length         48.2953 bohr


     Adding external electric field

     Computed dipole along edir(3) : 
        Elec. dipole        -10.0189 Ry au,        -25.4654 Debye
        Ion. dipole         -10.0214 Ry au,        -25.4719 Debye
        Dipole               -2.2600 Ry au,         -5.7444 Debye
        Dipole field         -0.0025 Ry au, 

        Potential amp.        0.2442 Ry
        Total length         48.2953 bohr


     total cpu time spent up to now is    41258.6 secs

     total energy              =  -33081.81206813 Ry
     estimated scf accuracy    <       0.00002417 Ry

     total magnetization       =     1.93 Bohr mag/cell
     absolute magnetization    =     1.94 Bohr mag/cell

     iteration # 41     ecut=    60.00 Ry     beta= 0.70
     Davidson diagonalization with overlap

---- Real-time Memory Report at c_bands before calling an iterative solver
          1805 MiB given to the printing process from OS
          1341 MiB allocation reported by mallinfo(arena+hblkhd)
        427756 MiB available memory on the node where the printing process lives
------------------
     ethr =  3.70E-09,  avg # of iterations =  2.0

     negative rho (up, down):  7.019E-04 6.673E-04

     Adding external electric field

     Computed dipole along edir(3) : 
        Elec. dipole        -10.0189 Ry au,        -25.4654 Debye
        Ion. dipole         -10.0214 Ry au,        -25.4719 Debye
        Dipole               -2.2607 Ry au,         -5.7461 Debye
        Dipole field         -0.0025 Ry au, 

        Potential amp.        0.2443 Ry
        Total length         48.2953 bohr


     Adding external electric field

     Computed dipole along edir(3) : 
        Elec. dipole        -10.0189 Ry au,        -25.4654 Debye
        Ion. dipole         -10.0214 Ry au,        -25.4719 Debye
        Dipole               -2.2607 Ry au,         -5.7461 Debye
        Dipole field         -0.0025 Ry au, 

        Potential amp.        0.2443 Ry
        Total length         48.2953 bohr


     total cpu time spent up to now is    42292.6 secs

     total energy              =  -33081.81206863 Ry
     estimated scf accuracy    <       0.00003663 Ry

     total magnetization       =     1.93 Bohr mag/cell
     absolute magnetization    =     1.94 Bohr mag/cell

     iteration # 42     ecut=    60.00 Ry     beta= 0.70
     Davidson diagonalization with overlap

---- Real-time Memory Report at c_bands before calling an iterative solver
          1805 MiB given to the printing process from OS
          1341 MiB allocation reported by mallinfo(arena+hblkhd)
        427756 MiB available memory on the node where the printing process lives
------------------
     ethr =  3.70E-09,  avg # of iterations =  1.0

     negative rho (up, down):  6.658E-04 6.316E-04

     Adding external electric field

     Computed dipole along edir(3) : 
        Elec. dipole        -10.0189 Ry au,        -25.4654 Debye
        Ion. dipole         -10.0214 Ry au,        -25.4719 Debye
        Dipole               -2.2623 Ry au,         -5.7502 Debye
        Dipole field         -0.0025 Ry au, 

        Potential amp.        0.2444 Ry
        Total length         48.2953 bohr


     Adding external electric field

     Computed dipole along edir(3) : 
        Elec. dipole        -10.0189 Ry au,        -25.4654 Debye
        Ion. dipole         -10.0214 Ry au,        -25.4719 Debye
        Dipole               -2.2623 Ry au,         -5.7502 Debye
        Dipole field         -0.0025 Ry au, 

        Potential amp.        0.2444 Ry
        Total length         48.2953 bohr


     total cpu time spent up to now is    43186.0 secs

     total energy              =  -33081.81206827 Ry
     estimated scf accuracy    <       0.00003962 Ry

     total magnetization       =     1.93 Bohr mag/cell
     absolute magnetization    =     1.94 Bohr mag/cell

     iteration # 43     ecut=    60.00 Ry     beta= 0.70
     Davidson diagonalization with overlap

---- Real-time Memory Report at c_bands before calling an iterative solver
          1805 MiB given to the printing process from OS
          1341 MiB allocation reported by mallinfo(arena+hblkhd)
        427756 MiB available memory on the node where the printing process lives
------------------
     ethr =  3.70E-09,  avg # of iterations =  1.0

     negative rho (up, down):  5.928E-04 5.596E-04

     Adding external electric field

     Computed dipole along edir(3) : 
        Elec. dipole        -10.0189 Ry au,        -25.4654 Debye
        Ion. dipole         -10.0214 Ry au,        -25.4719 Debye
        Dipole               -2.2653 Ry au,         -5.7577 Debye
        Dipole field         -0.0025 Ry au, 

        Potential amp.        0.2448 Ry
        Total length         48.2953 bohr


     Adding external electric field

     Computed dipole along edir(3) : 
        Elec. dipole        -10.0189 Ry au,        -25.4654 Debye
        Ion. dipole         -10.0214 Ry au,        -25.4719 Debye
        Dipole               -2.2653 Ry au,         -5.7577 Debye
        Dipole field         -0.0025 Ry au, 

        Potential amp.        0.2448 Ry
        Total length         48.2953 bohr


     total cpu time spent up to now is    44079.8 secs

     total energy              =  -33081.81206764 Ry
     estimated scf accuracy    <       0.00000655 Ry

     total magnetization       =     1.93 Bohr mag/cell
     absolute magnetization    =     1.94 Bohr mag/cell

     iteration # 44     ecut=    60.00 Ry     beta= 0.70
     Davidson diagonalization with overlap

---- Real-time Memory Report at c_bands before calling an iterative solver
          1805 MiB given to the printing process from OS
          1341 MiB allocation reported by mallinfo(arena+hblkhd)
        427741 MiB available memory on the node where the printing process lives
------------------
     ethr =  1.00E-09,  avg # of iterations =  1.2

     negative rho (up, down):  5.887E-04 5.559E-04

     Adding external electric field

     Computed dipole along edir(3) : 
        Elec. dipole        -10.0189 Ry au,        -25.4655 Debye
        Ion. dipole         -10.0214 Ry au,        -25.4719 Debye
        Dipole               -2.2582 Ry au,         -5.7399 Debye
        Dipole field         -0.0025 Ry au, 

        Potential amp.        0.2440 Ry
        Total length         48.2953 bohr


     Adding external electric field

     Computed dipole along edir(3) : 
        Elec. dipole        -10.0189 Ry au,        -25.4655 Debye
        Ion. dipole         -10.0214 Ry au,        -25.4719 Debye
        Dipole               -2.2582 Ry au,         -5.7399 Debye
        Dipole field         -0.0025 Ry au, 

        Potential amp.        0.2440 Ry
        Total length         48.2953 bohr


     Magnetic moment per site  (integrated on atomic sphere of radius R)
     atom   1 (R=0.134)  charge= 15.8689  magn=  0.0001
     atom   2 (R=0.134)  charge= 15.8690  magn=  0.0001
     atom   3 (R=0.134)  charge= 15.8688  magn=  0.0002
     atom   4 (R=0.134)  charge= 15.8692  magn=  0.0002
     atom   5 (R=0.134)  charge= 15.8688  magn=  0.0002
     atom   6 (R=0.134)  charge= 15.8688  magn=  0.0002
     atom   7 (R=0.134)  charge= 15.8692  magn=  0.0002
     atom   8 (R=0.134)  charge= 15.8690  magn=  0.0001
     atom   9 (R=0.134)  charge= 15.8692  magn=  0.0002
     atom  10 (R=0.134)  charge= 15.9207  magn=  0.0005
     atom  11 (R=0.134)  charge= 15.9178  magn=  0.0004
     atom  12 (R=0.134)  charge= 15.9177  magn=  0.0004
     atom  13 (R=0.134)  charge= 15.9221  magn=  0.0007
     atom  14 (R=0.134)  charge= 15.9180  magn=  0.0004
     atom  15 (R=0.134)  charge= 15.9222  magn=  0.0007
     atom  16 (R=0.134)  charge= 15.9205  magn=  0.0005
     atom  17 (R=0.134)  charge= 15.9206  magn=  0.0005
     atom  18 (R=0.134)  charge= 15.9219  magn=  0.0007
     atom  19 (R=0.134)  charge= 15.9114  magn=  0.0009
     atom  20 (R=0.134)  charge= 15.9114  magn=  0.0009
     atom  21 (R=0.134)  charge= 15.8908  magn=  0.0001
     atom  22 (R=0.134)  charge= 15.9227  magn=  0.0005
     atom  23 (R=0.134)  charge= 15.9113  magn=  0.0009
     atom  24 (R=0.134)  charge= 15.9113  magn=  0.0009
     atom  25 (R=0.134)  charge= 15.9113  magn=  0.0009
     atom  26 (R=0.134)  charge= 15.9188  magn=  0.0014
     atom  27 (R=0.134)  charge= 15.9114  magn=  0.0009
     atom  28 (R=0.134)  charge= 15.8640  magn=  0.0003
     atom  29 (R=0.134)  charge= 15.8640  magn=  0.0003
     atom  30 (R=0.134)  charge= 15.8366  magn=  0.0015
     atom  31 (R=0.134)  charge= 15.8731  magn=  0.0002
     atom  32 (R=0.134)  charge= 15.8366  magn=  0.0014
     atom  33 (R=0.134)  charge= 15.8367  magn=  0.0014
     atom  34 (R=0.134)  charge= 15.8732  magn=  0.0002
     atom  35 (R=0.134)  charge= 15.8637  magn=  0.0003
     atom  36 (R=0.134)  charge= 15.8732  magn=  0.0002
     atom  37 (R=0.244)  charge=  6.0625  magn=  1.9181

     total cpu time spent up to now is    44995.2 secs

     End of self-consistent calculation

 ------ SPIN UP ------------


          k = 0.0000 0.0000 0.0000 ( 88097 PWs)   bands (ev):

   -95.5417 -95.5334 -95.5292 -95.5292 -95.5287 -95.5236 -95.5225 -95.5220
   -95.5093 -95.5042 -95.5039 -95.5027 -95.4992 -95.4991 -95.4974 -95.4973
   -95.4929 -95.3953 -95.1410 -95.1343 -95.1337 -95.1010 -95.0938 -95.0919
   -95.0906 -95.0798 -95.0795 -95.0793 -95.0760 -95.0759 -95.0725 -95.0674
   -95.0671 -94.8946 -94.8922 -94.8903 -49.8109 -49.7974 -49.7885 -49.7870
   -49.7816 -49.7802 -49.7789 -49.7742 -49.7741 -49.7676 -49.7667 -49.7666
   -49.7603 -49.7587 -49.7539 -49.7533 -49.7373 -49.7371 -49.7344 -49.7005
   -49.7001 -49.6920 -49.6843 -49.6837 -49.6648 -49.6646 -49.6637 -49.6225
   -49.6222 -49.6195 -49.6100 -49.6059 -49.6058 -49.6052 -49.6000 -49.5905
   -49.5902 -49.5884 -49.5872 -49.5870 -49.5863 -49.5837 -49.5835 -49.5571
   -49.5563 -49.5532 -49.5424 -49.5393 -49.5383 -49.5248 -49.5238 -49.4790
   -49.4782 -49.4672 -49.4510 -49.4509 -49.4338 -49.4225 -49.4219 -49.4167
   -49.4077 -49.3957 -49.3935 -49.3935 -49.3920 -49.3918 -49.3917 -49.3844
   -49.3831 -49.3757 -49.3757 -49.3101 -49.3088 -49.2723 -49.2513 -49.2506
   -49.2342 -49.2339 -49.2336 -49.2311 -49.2310 -49.2293 -49.1847 -49.1769
   -49.1766 -49.1282 -49.1281 -49.0976 -49.0729 -49.0728 -49.0512 -49.0393
   -49.0385 -49.0233 -49.0212 -49.0102 -49.0084 -49.0048 -49.0045 -49.0043
   -48.9998 -48.9997 -48.9964 -48.9880 -48.9876 -48.8090 -48.8039 -48.8015
   -15.0429  -6.2023  -4.8986  -3.8121  -3.7612  -3.7233  -3.7221  -3.7143
    -3.7023  -3.7022  -3.6627  -3.1521  -3.1511  -3.1483  -3.1198  -3.1192
    -3.0775  -2.6690  -2.6683  -2.6593  -2.6286  -2.6286  -2.6000  -2.4333
    -2.4332  -2.4129  -2.4003  -2.3775  -2.3774  -2.2189  -2.2186  -2.2029
    -2.1753  -2.1670  -2.1668  -2.1467  -2.1463  -2.1388  -2.0854  -2.0837
    -2.0348  -1.5592  -1.5585  -1.5086  -1.5086  -1.4821  -1.4820  -1.4731
    -1.3931  -1.3924  -1.3752  -1.3135  -1.3133  -1.1782  -1.1774  -0.7181
    -0.7169  -0.7061  -0.6840  -0.6831  -0.6659  -0.6168  -0.5157  -0.5156
    -0.5066  -0.5000  -0.4895  -0.4893  -0.4777  -0.4672  -0.4672  -0.4505
    -0.4383  -0.4365  -0.4043  -0.3632  -0.3621  -0.2740  -0.2724  -0.2442
    -0.2320  -0.2310  -0.2286  -0.0562  -0.0549  -0.0419  -0.0042  -0.0032
     0.0145   0.0210   0.0397   0.0398   0.0402   0.0408   0.1217   0.1218
     0.1344   0.1355   0.1431   0.1434   0.1886   0.1886   0.1917   0.1997
     0.3304   0.3323   0.3334   0.4022   0.4100   0.4122   0.4256   0.8751
     0.8758   0.9013   0.9117   0.9131   0.9220   0.9465   0.9478   0.9787
     0.9860   1.0059   1.0067   1.0670   1.0686   1.1022   1.1024   1.1658
     1.1750   1.1751   1.3054   1.3733   1.3737   1.4055   1.4099   1.4504
     1.4580   1.6677   1.6933   1.6943   1.7074   1.7082   1.7351   1.8001
     1.8001   1.8930   1.8936   1.9213   1.9311   1.9315   1.9450   2.1026
     2.1160   2.1173   2.1354   2.1428   2.1429   2.1496   2.1503   2.1506
     2.1795   2.1799   2.1799   2.2427   2.2913   2.2913   2.3273   2.3280
     2.3547   2.3606   2.3613   2.3837   2.4338   2.4350   2.4574   2.4574
     2.4826   2.5053   2.5054   2.5378   2.5512   2.5514   2.5758   2.6004
     2.6005   2.6640   2.6642   2.6666   2.6692   2.6810   2.6824   2.6978
     2.8965   2.9009   2.9884   3.0037   3.0041   3.0204   3.0210   3.0220
     3.7363   3.7879   3.7887   3.8281   3.8412   3.8422   3.8462   6.1084
     6.1164   6.1181   6.1617   6.1639   6.1739   7.6345   7.6358   7.6822
     7.6916   7.6919   7.7083   8.3966   8.3968   8.6550   8.9499   8.9520
     8.9824   9.0266   9.0298   9.0671   9.5020   9.5505   9.5508   9.5745
     9.7830  10.2570  10.2582  10.2586  10.7315  10.8100  10.8121  10.9003
    10.9024  10.9151  10.9673  11.3358  11.3601  11.3618  11.3990  11.7419

     occupation numbers 
     1.0000   1.0000   1.0000   1.0000   1.0000   1.0000   1.0000   1.0000
     1.0000   1.0000   1.0000   1.0000   1.0000   1.0000   1.0000   1.0000
     1.0000   1.0000   1.0000   1.0000   1.0000   1.0000   1.0000   1.0000
     1.0000   1.0000   1.0000   1.0000   1.0000   1.0000   1.0000   1.0000
     1.0000   1.0000   1.0000   1.0000   1.0000   1.0000   1.0000   1.0000
     1.0000   1.0000   1.0000   1.0000   1.0000   1.0000   1.0000   1.0000
     1.0000   1.0000   1.0000   1.0000   1.0000   1.0000   1.0000   1.0000
     1.0000   1.0000   1.0000   1.0000   1.0000   1.0000   1.0000   1.0000
     1.0000   1.0000   1.0000   1.0000   1.0000   1.0000   1.0000   1.0000
     1.0000   1.0000   1.0000   1.0000   1.0000   1.0000   1.0000   1.0000
     1.0000   1.0000   1.0000   1.0000   1.0000   1.0000   1.0000   1.0000
     1.0000   1.0000   1.0000   1.0000   1.0000   1.0000   1.0000   1.0000
     1.0000   1.0000   1.0000   1.0000   1.0000   1.0000   1.0000   1.0000
     1.0000   1.0000   1.0000   1.0000   1.0000   1.0000   1.0000   1.0000
     1.0000   1.0000   1.0000   1.0000   1.0000   1.0000   1.0000   1.0000
     1.0000   1.0000   1.0000   1.0000   1.0000   1.0000   1.0000   1.0000
     1.0000   1.0000   1.0000   1.0000   1.0000   1.0000   1.0000   1.0000
     1.0000   1.0000   1.0000   1.0000   1.0000   1.0000   1.0000   1.0000
     1.0000   1.0000   1.0000   1.0000   1.0000   1.0000   1.0000   1.0000
     1.0000   1.0000   1.0000   1.0000   1.0000   1.0000   1.0000   1.0000
     1.0000   1.0000   1.0000   1.0000   1.0000   1.0000   1.0000   1.0000
     1.0000   1.0000   1.0000   1.0000   1.0000   1.0000   1.0000   1.0000
     1.0000   1.0000   1.0000   1.0000   1.0000   1.0000   1.0000   1.0000
     1.0000   1.0000   1.0000   1.0000   1.0000   1.0000   1.0000   1.0000
     1.0000   1.0000   1.0000   1.0000   1.0000   1.0000   1.0000   1.0000
     1.0000   1.0000   1.0000   1.0000   1.0000   1.0000   1.0000   1.0000
     1.0000   1.0000   1.0000   1.0000   1.0000   1.0000   1.0000   1.0000
     1.0000   1.0000   1.0000   1.0000   1.0000   1.0000   1.0000   1.0000
     1.0000   1.0000   1.0000   1.0000   1.0000   1.0000   1.0000   1.0000
     1.0000   1.0000   1.0000   1.0000   1.0000   1.0000   1.0000   1.0000
     1.0000   1.0000   1.0000   1.0000   1.0000   1.0000   1.0000   1.0000
     1.0000   1.0000   1.0000   1.0000   1.0000   1.0000   1.0000   1.0000
     1.0000   1.0000   1.0000   1.0000   1.0000   1.0000   1.0000   1.0000
     1.0000   1.0000   1.0000   1.0000   1.0000   1.0000   1.0000   1.0000
     1.0000   1.0000   1.0000   1.0000   1.0000   1.0000   1.0000   1.0000
     1.0000   1.0000   1.0000   1.0000   1.0000   1.0000   1.0000   1.0000
     1.0000   1.0000   1.0000   1.0000   1.0000   1.0000   1.0000   1.0000
     1.0000   1.0000   1.0000   1.0000   1.0000   1.0000   1.0000   1.0000
     1.0000   1.0000   1.0000   1.0000   1.0000   1.0000   1.0000   1.0000
     1.0000   1.0000   1.0000   1.0000   0.9999   0.9999   0.9999   0.9999
     0.9999   0.9998   0.9998   0.9996   0.9994   0.9994   0.9990   0.9984
     0.9984   0.9944   0.9944   0.9942   0.9938   0.9922   0.9920   0.9891
     0.6310   0.6106   0.2141   0.1670   0.1659   0.1256   0.1243   0.1221
     0.0000   0.0000   0.0000   0.0000   0.0000   0.0000   0.0000   0.0000
     0.0000   0.0000   0.0000   0.0000   0.0000   0.0000   0.0000   0.0000
     0.0000   0.0000   0.0000   0.0000   0.0000   0.0000   0.0000   0.0000
     0.0000   0.0000   0.0000   0.0000   0.0000   0.0000   0.0000   0.0000
     0.0000   0.0000   0.0000   0.0000   0.0000   0.0000   0.0000   0.0000
     0.0000   0.0000   0.0000   0.0000   0.0000   0.0000   0.0000   0.0000

          k = 0.0000 0.1925 0.0000 ( 88230 PWs)   bands (ev):

   -95.5414 -95.5339 -95.5293 -95.5292 -95.5286 -95.5239 -95.5222 -95.5219
   -95.5093 -95.5044 -95.5040 -95.5026 -95.4995 -95.4994 -95.4971 -95.4968
   -95.4932 -95.3953 -95.1409 -95.1343 -95.1338 -95.1010 -95.0938 -95.0920
   -95.0901 -95.0815 -95.0798 -95.0782 -95.0762 -95.0756 -95.0721 -95.0675
   -95.0671 -94.8946 -94.8922 -94.8903 -49.8229 -49.8097 -49.8050 -49.8001
   -49.7911 -49.7871 -49.7851 -49.7819 -49.7800 -49.7665 -49.7646 -49.7635
   -49.7582 -49.7483 -49.7433 -49.7430 -49.7305 -49.7235 -49.7117 -49.6884
   -49.6880 -49.6871 -49.6816 -49.6769 -49.6623 -49.6617 -49.6552 -49.6265
   -49.6261 -49.6163 -49.6132 -49.6132 -49.6066 -49.6053 -49.6035 -49.5934
   -49.5916 -49.5901 -49.5887 -49.5877 -49.5820 -49.5800 -49.5777 -49.5626
   -49.5614 -49.5563 -49.5444 -49.5442 -49.5362 -49.5313 -49.5248 -49.4856
   -49.4796 -49.4680 -49.4603 -49.4575 -49.4458 -49.4289 -49.4241 -49.4215
   -49.4115 -49.4110 -49.4042 -49.4041 -49.3970 -49.3938 -49.3712 -49.3710
   -49.3511 -49.3503 -49.3468 -49.3080 -49.3039 -49.2751 -49.2550 -49.2505
   -49.2432 -49.2427 -49.2410 -49.2308 -49.2302 -49.2199 -49.1858 -49.1788
   -49.1786 -49.1304 -49.1259 -49.0992 -49.0786 -49.0744 -49.0508 -49.0393
   -49.0389 -49.0226 -49.0208 -49.0102 -49.0086 -49.0076 -49.0049 -49.0029
   -49.0001 -48.9990 -48.9952 -48.9882 -48.9878 -48.8091 -48.8039 -48.8015
   -15.0429  -6.0980  -4.7961  -4.1452  -3.8297  -3.8271  -3.7062  -3.6148
    -3.5258  -3.5133  -3.5025  -3.2391  -3.1876  -3.1041  -3.0870  -3.0664
    -3.0414  -2.7018  -2.6202  -2.6183  -2.6111  -2.5824  -2.5588  -2.5366
    -2.4711  -2.4610  -2.3695  -2.3534  -2.3368  -2.2662  -2.2622  -2.2480
    -2.2329  -2.2183  -2.1961  -2.1737  -2.0288  -2.0096  -1.9622  -1.9422
    -1.9072  -1.6430  -1.6398  -1.6124  -1.5682  -1.5554  -1.5151  -1.5024
    -1.3716  -1.3515  -1.2931  -1.2715  -1.2421  -1.1855  -1.1617  -0.9155
    -0.8126  -0.8112  -0.7838  -0.7834  -0.7617  -0.6801  -0.6793  -0.6610
    -0.6324  -0.6292  -0.6102  -0.5645  -0.5306  -0.5024  -0.4798  -0.4638
    -0.4013  -0.3751  -0.3618  -0.3128  -0.3068  -0.3055  -0.2617  -0.1936
    -0.1863  -0.1629  -0.1268  -0.0683  -0.0589  -0.0538  -0.0375  -0.0196
    -0.0016  -0.0001   0.0193   0.0246   0.0399   0.0400   0.0673   0.0708
     0.1056   0.1295   0.1417   0.1656   0.1835   0.2517   0.2624   0.3005
     0.3138   0.3349   0.3830   0.3863   0.3909   0.3960   0.4085   0.4666
     0.4731   0.5043   0.5432   0.6411   0.6786   0.8791   0.9267   0.9454
     0.9482   0.9669   0.9681   1.0193   1.0193   1.1034   1.1347   1.2578
     1.3198   1.3517   1.3777   1.3790   1.3863   1.3978   1.4106   1.4160
     1.4213   1.5255   1.5304   1.5879   1.5934   1.6565   1.6826   1.8034
     1.8086   1.8114   1.8380   1.8684   1.8971   1.9498   1.9501   1.9616
     2.0322   2.0377   2.0599   2.0628   2.0795   2.0837   2.1009   2.1673
     2.1875   2.2261   2.2346   2.3275   2.3586   2.3613   2.3986   2.4164
     2.4562   2.4597   2.5126   2.5185   2.5278   2.5434   2.5497   2.5572
     2.5795   2.5927   2.6102   2.6256   2.6323   2.6943   2.7050   2.8660
     2.8787   2.8816   2.8986   2.9167   2.9174   2.9397   2.9639   2.9698
     2.9763   2.9837   2.9946   2.9964   3.0926   3.1223   3.1234   3.1969
     3.4115   3.7050   3.7187   4.2391   4.2529   4.2928   4.3770   5.5611
     5.9140   5.9182   6.5617   6.5649   6.7587   6.7587   6.8067   7.7551
     7.7711   7.8189   7.8334   8.1583   8.5183   8.5190   8.6981   8.6994
     8.7575   8.9391   8.9654   9.2386   9.3722   9.3832   9.5974   9.6501
     9.8318  10.1379  10.2385  10.3360  10.4942  10.5062  10.5713  10.6245
    10.7991  10.8131  10.8517  10.9113  10.9183  11.0851  11.2553  11.3108

     occupation numbers 
     1.0000   1.0000   1.0000   1.0000   1.0000   1.0000   1.0000   1.0000
     1.0000   1.0000   1.0000   1.0000   1.0000   1.0000   1.0000   1.0000
     1.0000   1.0000   1.0000   1.0000   1.0000   1.0000   1.0000   1.0000
     1.0000   1.0000   1.0000   1.0000   1.0000   1.0000   1.0000   1.0000
     1.0000   1.0000   1.0000   1.0000   1.0000   1.0000   1.0000   1.0000
     1.0000   1.0000   1.0000   1.0000   1.0000   1.0000   1.0000   1.0000
     1.0000   1.0000   1.0000   1.0000   1.0000   1.0000   1.0000   1.0000
     1.0000   1.0000   1.0000   1.0000   1.0000   1.0000   1.0000   1.0000
     1.0000   1.0000   1.0000   1.0000   1.0000   1.0000   1.0000   1.0000
     1.0000   1.0000   1.0000   1.0000   1.0000   1.0000   1.0000   1.0000
     1.0000   1.0000   1.0000   1.0000   1.0000   1.0000   1.0000   1.0000
     1.0000   1.0000   1.0000   1.0000   1.0000   1.0000   1.0000   1.0000
     1.0000   1.0000   1.0000   1.0000   1.0000   1.0000   1.0000   1.0000
     1.0000   1.0000   1.0000   1.0000   1.0000   1.0000   1.0000   1.0000
     1.0000   1.0000   1.0000   1.0000   1.0000   1.0000   1.0000   1.0000
     1.0000   1.0000   1.0000   1.0000   1.0000   1.0000   1.0000   1.0000
     1.0000   1.0000   1.0000   1.0000   1.0000   1.0000   1.0000   1.0000
     1.0000   1.0000   1.0000   1.0000   1.0000   1.0000   1.0000   1.0000
     1.0000   1.0000   1.0000   1.0000   1.0000   1.0000   1.0000   1.0000
     1.0000   1.0000   1.0000   1.0000   1.0000   1.0000   1.0000   1.0000
     1.0000   1.0000   1.0000   1.0000   1.0000   1.0000   1.0000   1.0000
     1.0000   1.0000   1.0000   1.0000   1.0000   1.0000   1.0000   1.0000
     1.0000   1.0000   1.0000   1.0000   1.0000   1.0000   1.0000   1.0000
     1.0000   1.0000   1.0000   1.0000   1.0000   1.0000   1.0000   1.0000
     1.0000   1.0000   1.0000   1.0000   1.0000   1.0000   1.0000   1.0000
     1.0000   1.0000   1.0000   1.0000   1.0000   1.0000   1.0000   1.0000
     1.0000   1.0000   1.0000   1.0000   1.0000   1.0000   1.0000   1.0000
     1.0000   1.0000   1.0000   1.0000   1.0000   1.0000   1.0000   1.0000
     1.0000   1.0000   1.0000   1.0000   1.0000   1.0000   1.0000   1.0000
     1.0000   1.0000   1.0000   1.0000   1.0000   1.0000   1.0000   1.0000
     1.0000   1.0000   1.0000   1.0000   1.0000   1.0000   1.0000   1.0000
     1.0000   1.0000   1.0000   1.0000   1.0000   1.0000   1.0000   1.0000
     1.0000   1.0000   1.0000   1.0000   1.0000   1.0000   1.0000   1.0000
     1.0000   1.0000   1.0000   1.0000   1.0000   1.0000   1.0000   1.0000
     1.0000   1.0000   1.0000   1.0000   1.0000   1.0000   1.0000   1.0000
     1.0000   1.0000   1.0000   1.0000   1.0000   1.0000   1.0000   1.0000
     1.0000   1.0000   1.0000   1.0000   1.0000   1.0000   1.0000   1.0000
     1.0000   1.0000   1.0000   1.0000   1.0000   1.0000   1.0000   1.0000
     1.0000   1.0000   1.0000   1.0000   1.0000   1.0000   1.0000   1.0000
     0.9999   0.9999   0.9997   0.9997   0.9996   0.9995   0.9994   0.9993
     0.9990   0.9987   0.9981   0.9974   0.9970   0.9899   0.9875   0.7592
     0.7096   0.6976   0.6214   0.5332   0.5299   0.4192   0.3078   0.2832
     0.2577   0.2302   0.1940   0.1883   0.0328   0.0184   0.0180   0.0042
     0.0001   0.0000   0.0000   0.0000   0.0000   0.0000   0.0000   0.0000
     0.0000   0.0000   0.0000   0.0000   0.0000   0.0000   0.0000   0.0000
     0.0000   0.0000   0.0000   0.0000   0.0000   0.0000   0.0000   0.0000
     0.0000   0.0000   0.0000   0.0000   0.0000   0.0000   0.0000   0.0000
     0.0000   0.0000   0.0000   0.0000   0.0000   0.0000   0.0000   0.0000
     0.0000   0.0000   0.0000   0.0000   0.0000   0.0000   0.0000   0.0000

          k = 0.0000 0.3849 0.0000 ( 88170 PWs)   bands (ev):

   -95.5404 -95.5351 -95.5295 -95.5293 -95.5285 -95.5242 -95.5218 -95.5217
   -95.5093 -95.5045 -95.5042 -95.5024 -95.5000 -95.4997 -95.4966 -95.4958
   -95.4938 -95.3953 -95.1407 -95.1343 -95.1340 -95.1009 -95.0938 -95.0920
   -95.0888 -95.0839 -95.0801 -95.0782 -95.0759 -95.0750 -95.0715 -95.0677
   -95.0671 -94.8946 -94.8922 -94.8902 -49.8445 -49.8239 -49.8181 -49.8128
   -49.7992 -49.7978 -49.7942 -49.7934 -49.7838 -49.7752 -49.7746 -49.7683
   -49.7536 -49.7422 -49.7257 -49.7246 -49.7001 -49.6971 -49.6812 -49.6782
   -49.6736 -49.6704 -49.6703 -49.6685 -49.6558 -49.6556 -49.6372 -49.6322
   -49.6288 -49.6231 -49.6154 -49.6134 -49.6132 -49.6068 -49.6003 -49.6003
   -49.5934 -49.5922 -49.5909 -49.5878 -49.5806 -49.5805 -49.5725 -49.5719
   -49.5672 -49.5607 -49.5578 -49.5509 -49.5485 -49.5370 -49.5233 -49.5009
   -49.4829 -49.4779 -49.4669 -49.4664 -49.4517 -49.4481 -49.4277 -49.4272
   -49.4235 -49.4228 -49.4193 -49.4192 -49.3794 -49.3605 -49.3524 -49.3522
   -49.3188 -49.3185 -49.3045 -49.3014 -49.2979 -49.2815 -49.2615 -49.2613
   -49.2590 -49.2500 -49.2481 -49.2347 -49.2341 -49.2114 -49.2072 -49.1852
   -49.1660 -49.1330 -49.1206 -49.1034 -49.0937 -49.0775 -49.0499 -49.0398
   -49.0392 -49.0213 -49.0193 -49.0115 -49.0102 -49.0086 -49.0056 -49.0034
   -48.9990 -48.9979 -48.9939 -48.9887 -48.9881 -48.8092 -48.8039 -48.8014
   -15.0429  -5.7938  -4.7330  -4.4989  -3.8757  -3.8747  -3.5820  -3.4687
    -3.4053  -3.3351  -3.2709  -3.2337  -3.2329  -3.0068  -2.9744  -2.9223
    -2.9162  -2.8160  -2.6788  -2.6239  -2.5856  -2.5845  -2.5480  -2.5427
    -2.5230  -2.5138  -2.4693  -2.4385  -2.3597  -2.3358  -2.3203  -2.3068
    -2.1037  -2.1006  -2.0590  -2.0452  -2.0187  -2.0155  -1.8219  -1.8162
    -1.7393  -1.7204  -1.6887  -1.6204  -1.5719  -1.5714  -1.5459  -1.5176
    -1.3831  -1.3778  -1.3208  -1.2953  -1.2795  -1.2747  -1.1865  -1.1574
    -1.1305  -1.0212  -0.9406  -0.9368  -0.9172  -0.8018  -0.7678  -0.7372
    -0.7343  -0.7003  -0.6942  -0.6743  -0.6101  -0.4786  -0.4639  -0.4520
    -0.4426  -0.4130  -0.3878  -0.3796  -0.3456  -0.3139  -0.3120  -0.2461
    -0.2461  -0.2281  -0.2135  -0.1946  -0.1853  -0.1805  -0.1743  -0.1313
    -0.1212  -0.0890  -0.0595  -0.0360  -0.0260   0.0019   0.0222   0.0399
     0.0399   0.1173   0.1361   0.1394   0.1612   0.1686   0.2103   0.2741
     0.2779   0.2939   0.3000   0.3314   0.3968   0.4769   0.4828   0.5379
     0.5468   0.5906   0.6037   0.6867   0.7172   0.8631   0.8847   0.8856
     0.9109   0.9125   0.9303   0.9396   0.9598   0.9604   1.0439   1.0558
     1.0856   1.0865   1.1201   1.1684   1.2321   1.2703   1.2927   1.3242
     1.4579   1.4712   1.4929   1.5015   1.5123   1.5251   1.6768   1.7455
     1.7529   1.7715   1.7720   1.8084   1.8170   1.8514   1.8892   1.9054
     1.9648   1.9821   2.0272   2.0910   2.1041   2.1075   2.1199   2.1269
     2.1500   2.1710   2.3242   2.3632   2.3837   2.4111   2.4265   2.4280
     2.4542   2.5254   2.5430   2.5898   2.6321   2.6349   2.6452   2.6520
     2.7535   2.7759   2.7824   2.8324   2.8398   2.8675   2.8779   2.8947
     2.9195   2.9583   3.0481   3.0895   3.1080   3.1143   3.1292   3.1297
     3.3022   3.3133   3.3503   3.7136   3.7262   3.7991   3.7998   3.8149
     4.0904   4.1206   4.2703   4.9978   5.0454   5.1273   5.1484   5.2176
     5.7894   5.7924   5.8186   5.8221   6.5378   6.5614   7.0123   7.1880
     7.2770   7.2822   7.7322   7.7557   8.2115   8.2253   8.5450   8.5487
     8.5766   8.9388   9.0872   9.1523   9.1721   9.4467   9.4514   9.5512
     9.5553   9.7002   9.9190   9.9861  10.1392  10.1885  10.2561  10.2757
    10.4046  10.4464  10.5538  10.6874  11.0205  11.1303  11.1788  11.2031

     occupation numbers 
     1.0000   1.0000   1.0000   1.0000   1.0000   1.0000   1.0000   1.0000
     1.0000   1.0000   1.0000   1.0000   1.0000   1.0000   1.0000   1.0000
     1.0000   1.0000   1.0000   1.0000   1.0000   1.0000   1.0000   1.0000
     1.0000   1.0000   1.0000   1.0000   1.0000   1.0000   1.0000   1.0000
     1.0000   1.0000   1.0000   1.0000   1.0000   1.0000   1.0000   1.0000
     1.0000   1.0000   1.0000   1.0000   1.0000   1.0000   1.0000   1.0000
     1.0000   1.0000   1.0000   1.0000   1.0000   1.0000   1.0000   1.0000
     1.0000   1.0000   1.0000   1.0000   1.0000   1.0000   1.0000   1.0000
     1.0000   1.0000   1.0000   1.0000   1.0000   1.0000   1.0000   1.0000
     1.0000   1.0000   1.0000   1.0000   1.0000   1.0000   1.0000   1.0000
     1.0000   1.0000   1.0000   1.0000   1.0000   1.0000   1.0000   1.0000
     1.0000   1.0000   1.0000   1.0000   1.0000   1.0000   1.0000   1.0000
     1.0000   1.0000   1.0000   1.0000   1.0000   1.0000   1.0000   1.0000
     1.0000   1.0000   1.0000   1.0000   1.0000   1.0000   1.0000   1.0000
     1.0000   1.0000   1.0000   1.0000   1.0000   1.0000   1.0000   1.0000
     1.0000   1.0000   1.0000   1.0000   1.0000   1.0000   1.0000   1.0000
     1.0000   1.0000   1.0000   1.0000   1.0000   1.0000   1.0000   1.0000
     1.0000   1.0000   1.0000   1.0000   1.0000   1.0000   1.0000   1.0000
     1.0000   1.0000   1.0000   1.0000   1.0000   1.0000   1.0000   1.0000
     1.0000   1.0000   1.0000   1.0000   1.0000   1.0000   1.0000   1.0000
     1.0000   1.0000   1.0000   1.0000   1.0000   1.0000   1.0000   1.0000
     1.0000   1.0000   1.0000   1.0000   1.0000   1.0000   1.0000   1.0000
     1.0000   1.0000   1.0000   1.0000   1.0000   1.0000   1.0000   1.0000
     1.0000   1.0000   1.0000   1.0000   1.0000   1.0000   1.0000   1.0000
     1.0000   1.0000   1.0000   1.0000   1.0000   1.0000   1.0000   1.0000
     1.0000   1.0000   1.0000   1.0000   1.0000   1.0000   1.0000   1.0000
     1.0000   1.0000   1.0000   1.0000   1.0000   1.0000   1.0000   1.0000
     1.0000   1.0000   1.0000   1.0000   1.0000   1.0000   1.0000   1.0000
     1.0000   1.0000   1.0000   1.0000   1.0000   1.0000   1.0000   1.0000
     1.0000   1.0000   1.0000   1.0000   1.0000   1.0000   1.0000   1.0000
     1.0000   1.0000   1.0000   1.0000   1.0000   1.0000   1.0000   1.0000
     1.0000   1.0000   1.0000   1.0000   1.0000   1.0000   1.0000   1.0000
     1.0000   1.0000   1.0000   1.0000   1.0000   1.0000   1.0000   1.0000
     1.0000   1.0000   1.0000   1.0000   1.0000   1.0000   1.0000   1.0000
     1.0000   1.0000   1.0000   1.0000   1.0000   1.0000   1.0000   1.0000
     1.0000   1.0000   1.0000   1.0000   1.0000   1.0000   1.0000   1.0000
     1.0000   1.0000   1.0000   1.0000   1.0000   1.0000   1.0000   1.0000
     1.0000   1.0000   1.0000   1.0000   1.0000   1.0000   1.0000   1.0000
     1.0000   1.0000   1.0000   1.0000   1.0000   1.0000   1.0000   1.0000
     0.9999   0.9997   0.9995   0.9987   0.9971   0.9969   0.9962   0.9956
     0.9676   0.9502   0.9438   0.8605   0.8418   0.7536   0.7129   0.6397
     0.5194   0.3323   0.0762   0.0348   0.0243   0.0215   0.0160   0.0159
     0.0005   0.0004   0.0002   0.0000   0.0000   0.0000   0.0000   0.0000
     0.0000   0.0000   0.0000   0.0000   0.0000   0.0000   0.0000   0.0000
     0.0000   0.0000   0.0000   0.0000   0.0000   0.0000   0.0000   0.0000
     0.0000   0.0000   0.0000   0.0000   0.0000   0.0000   0.0000   0.0000
     0.0000   0.0000   0.0000   0.0000   0.0000   0.0000   0.0000   0.0000
     0.0000   0.0000   0.0000   0.0000   0.0000   0.0000   0.0000   0.0000
     0.0000   0.0000   0.0000   0.0000   0.0000   0.0000   0.0000   0.0000

          k = 0.0000-0.5774 0.0000 ( 88178 PWs)   bands (ev):

   -95.5396 -95.5360 -95.5295 -95.5293 -95.5284 -95.5243 -95.5217 -95.5215
   -95.5093 -95.5046 -95.5042 -95.5024 -95.5001 -95.4998 -95.4964 -95.4950
   -95.4944 -95.3953 -95.1406 -95.1343 -95.1341 -95.1009 -95.0938 -95.0920
   -95.0874 -95.0856 -95.0803 -95.0784 -95.0755 -95.0748 -95.0713 -95.0678
   -95.0671 -94.8947 -94.8922 -94.8902 -49.8527 -49.8303 -49.8226 -49.8174
   -49.8040 -49.8009 -49.7986 -49.7976 -49.7812 -49.7786 -49.7769 -49.7751
   -49.7523 -49.7422 -49.7155 -49.7148 -49.6829 -49.6816 -49.6754 -49.6754
   -49.6726 -49.6658 -49.6635 -49.6591 -49.6545 -49.6451 -49.6405 -49.6311
   -49.6259 -49.6209 -49.6191 -49.6143 -49.6126 -49.6037 -49.6036 -49.5995
   -49.5943 -49.5935 -49.5894 -49.5871 -49.5820 -49.5800 -49.5764 -49.5751
   -49.5706 -49.5646 -49.5644 -49.5594 -49.5548 -49.5408 -49.5209 -49.5097
   -49.4847 -49.4836 -49.4699 -49.4675 -49.4591 -49.4490 -49.4297 -49.4295
   -49.4276 -49.4266 -49.4247 -49.4244 -49.3708 -49.3447 -49.3444 -49.3405
   -49.3090 -49.3035 -49.2894 -49.2891 -49.2864 -49.2861 -49.2851 -49.2578
   -49.2520 -49.2503 -49.2499 -49.2495 -49.2367 -49.2366 -49.1965 -49.1937
   -49.1604 -49.1296 -49.1166 -49.1067 -49.1058 -49.0792 -49.0494 -49.0404
   -49.0392 -49.0209 -49.0171 -49.0145 -49.0101 -49.0087 -49.0058 -49.0037
   -48.9983 -48.9973 -48.9935 -48.9890 -48.9882 -48.8092 -48.8039 -48.8013
   -15.0429  -5.3418  -5.2942  -4.0931  -4.0328  -3.8856  -3.8736  -3.4651
    -3.3050  -3.0285  -2.9995  -2.9643  -2.9521  -2.9351  -2.9245  -2.9159
    -2.8945  -2.8763  -2.8563  -2.8067  -2.7649  -2.7487  -2.7169  -2.7110
    -2.6129  -2.5249  -2.3895  -2.3876  -2.3514  -2.3487  -2.1267  -2.1230
    -2.0989  -2.0696  -2.0440  -2.0351  -1.9688  -1.9644  -1.8296  -1.8196
    -1.7471  -1.7346  -1.7306  -1.6520  -1.6456  -1.5193  -1.5181  -1.4838
    -1.4582  -1.3957  -1.3641  -1.2580  -1.2579  -1.2432  -1.1855  -1.1358
    -1.1271  -1.1003  -1.0960  -0.9908  -0.9774  -0.9174  -0.8766  -0.8522
    -0.8079  -0.7899  -0.6795  -0.6383  -0.6343  -0.6269  -0.5913  -0.5834
    -0.5780  -0.5694  -0.5307  -0.3608  -0.3391  -0.3178  -0.3153  -0.3123
    -0.3110  -0.2805  -0.2659  -0.2638  -0.2285  -0.2116  -0.1432  -0.1405
    -0.0964  -0.0921  -0.0799  -0.0488   0.0164   0.0219   0.0399   0.0399
     0.0747   0.1290   0.1504   0.1614   0.1682   0.1788   0.1827   0.2024
     0.2324   0.2652   0.2877   0.4111   0.4312   0.4373   0.5253   0.6078
     0.6608   0.7139   0.7331   0.7523   0.7608   0.8283   0.8462   0.8563
     0.8709   0.8755   0.8807   0.9022   0.9146   0.9474   0.9621   0.9949
     1.0470   1.0482   1.0708   1.0751   1.1293   1.1849   1.2126   1.2301
     1.2593   1.2902   1.4326   1.4531   1.5870   1.6366   1.6533   1.6598
     1.6599   1.6905   1.7896   1.8166   1.8897   1.8982   1.9104   1.9151
     1.9265   1.9465   2.0170   2.0297   2.0512   2.0518   2.0690   2.1533
     2.1728   2.2268   2.2638   2.3074   2.3916   2.4398   2.4402   2.4495
     2.5388   2.5547   2.6307   2.6319   2.6432   2.6494   2.7016   2.7038
     2.7254   2.7373   2.7464   2.7934   2.9151   2.9255   2.9264   2.9439
     2.9485   2.9551   3.0097   3.1788   3.2034   3.2086   3.2181   3.2212
     3.4265   3.4645   3.7258   3.7387   3.9258   4.3971   4.4407   4.7885
     4.7908   4.7939   4.7990   5.2641   5.2742   5.2864   5.3048   5.3249
     5.6055   5.7844   5.7894   5.9083   6.1744   6.1944   6.3421   6.3647
     6.3789   6.4211   8.2525   8.2554   8.2873   8.3099   8.5117   8.5329
     8.6432   8.7951   8.8268   8.8431   8.8713   8.8963   9.2195   9.3102
     9.3462   9.7629   9.7680   9.8324   9.8838  10.1929  10.3190  10.3404
    10.3919  10.6165  10.7928  10.8576  10.8910  10.8931  10.9066  10.9616

     occupation numbers 
     1.0000   1.0000   1.0000   1.0000   1.0000   1.0000   1.0000   1.0000
     1.0000   1.0000   1.0000   1.0000   1.0000   1.0000   1.0000   1.0000
     1.0000   1.0000   1.0000   1.0000   1.0000   1.0000   1.0000   1.0000
     1.0000   1.0000   1.0000   1.0000   1.0000   1.0000   1.0000   1.0000
     1.0000   1.0000   1.0000   1.0000   1.0000   1.0000   1.0000   1.0000
     1.0000   1.0000   1.0000   1.0000   1.0000   1.0000   1.0000   1.0000
     1.0000   1.0000   1.0000   1.0000   1.0000   1.0000   1.0000   1.0000
     1.0000   1.0000   1.0000   1.0000   1.0000   1.0000   1.0000   1.0000
     1.0000   1.0000   1.0000   1.0000   1.0000   1.0000   1.0000   1.0000
     1.0000   1.0000   1.0000   1.0000   1.0000   1.0000   1.0000   1.0000
     1.0000   1.0000   1.0000   1.0000   1.0000   1.0000   1.0000   1.0000
     1.0000   1.0000   1.0000   1.0000   1.0000   1.0000   1.0000   1.0000
     1.0000   1.0000   1.0000   1.0000   1.0000   1.0000   1.0000   1.0000
     1.0000   1.0000   1.0000   1.0000   1.0000   1.0000   1.0000   1.0000
     1.0000   1.0000   1.0000   1.0000   1.0000   1.0000   1.0000   1.0000
     1.0000   1.0000   1.0000   1.0000   1.0000   1.0000   1.0000   1.0000
     1.0000   1.0000   1.0000   1.0000   1.0000   1.0000   1.0000   1.0000
     1.0000   1.0000   1.0000   1.0000   1.0000   1.0000   1.0000   1.0000
     1.0000   1.0000   1.0000   1.0000   1.0000   1.0000   1.0000   1.0000
     1.0000   1.0000   1.0000   1.0000   1.0000   1.0000   1.0000   1.0000
     1.0000   1.0000   1.0000   1.0000   1.0000   1.0000   1.0000   1.0000
     1.0000   1.0000   1.0000   1.0000   1.0000   1.0000   1.0000   1.0000
     1.0000   1.0000   1.0000   1.0000   1.0000   1.0000   1.0000   1.0000
     1.0000   1.0000   1.0000   1.0000   1.0000   1.0000   1.0000   1.0000
     1.0000   1.0000   1.0000   1.0000   1.0000   1.0000   1.0000   1.0000
     1.0000   1.0000   1.0000   1.0000   1.0000   1.0000   1.0000   1.0000
     1.0000   1.0000   1.0000   1.0000   1.0000   1.0000   1.0000   1.0000
     1.0000   1.0000   1.0000   1.0000   1.0000   1.0000   1.0000   1.0000
     1.0000   1.0000   1.0000   1.0000   1.0000   1.0000   1.0000   1.0000
     1.0000   1.0000   1.0000   1.0000   1.0000   1.0000   1.0000   1.0000
     1.0000   1.0000   1.0000   1.0000   1.0000   1.0000   1.0000   1.0000
     1.0000   1.0000   1.0000   1.0000   1.0000   1.0000   1.0000   1.0000
     1.0000   1.0000   1.0000   1.0000   1.0000   1.0000   1.0000   1.0000
     1.0000   1.0000   1.0000   1.0000   1.0000   1.0000   1.0000   1.0000
     1.0000   1.0000   1.0000   1.0000   1.0000   1.0000   1.0000   1.0000
     1.0000   1.0000   1.0000   1.0000   1.0000   1.0000   1.0000   1.0000
     1.0000   1.0000   1.0000   1.0000   1.0000   1.0000   1.0000   1.0000
     1.0000   1.0000   1.0000   1.0000   1.0000   1.0000   1.0000   1.0000
     1.0000   1.0000   1.0000   1.0000   1.0000   0.9999   0.9999   0.9999
     0.9995   0.9994   0.9971   0.9971   0.9963   0.9958   0.9883   0.9878
     0.9813   0.9764   0.9718   0.9309   0.5414   0.4892   0.4849   0.3986
     0.3768   0.3464   0.1512   0.0060   0.0037   0.0033   0.0027   0.0026
     0.0000   0.0000   0.0000   0.0000   0.0000   0.0000   0.0000   0.0000
     0.0000   0.0000   0.0000   0.0000   0.0000   0.0000   0.0000   0.0000
     0.0000   0.0000   0.0000   0.0000   0.0000   0.0000   0.0000   0.0000
     0.0000   0.0000   0.0000   0.0000   0.0000   0.0000   0.0000   0.0000
     0.0000   0.0000   0.0000   0.0000   0.0000   0.0000   0.0000   0.0000
     0.0000   0.0000   0.0000   0.0000   0.0000   0.0000   0.0000   0.0000
     0.0000   0.0000   0.0000   0.0000   0.0000   0.0000   0.0000   0.0000

          k = 0.1667-0.0962 0.0000 ( 88230 PWs)   bands (ev):

   -95.5414 -95.5339 -95.5294 -95.5291 -95.5287 -95.5238 -95.5225 -95.5217
   -95.5093 -95.5043 -95.5041 -95.5025 -95.4996 -95.4994 -95.4970 -95.4968
   -95.4932 -95.3953 -95.1409 -95.1344 -95.1337 -95.1010 -95.0938 -95.0919
   -95.0901 -95.0815 -95.0799 -95.0781 -95.0762 -95.0757 -95.0721 -95.0674
   -95.0672 -94.8946 -94.8922 -94.8903 -49.8219 -49.8095 -49.8052 -49.8010
   -49.7912 -49.7872 -49.7846 -49.7821 -49.7798 -49.7668 -49.7650 -49.7633
   -49.7584 -49.7486 -49.7435 -49.7428 -49.7301 -49.7239 -49.7116 -49.6884
   -49.6881 -49.6870 -49.6820 -49.6768 -49.6623 -49.6618 -49.6547 -49.6263
   -49.6260 -49.6160 -49.6134 -49.6130 -49.6071 -49.6051 -49.6038 -49.5929
   -49.5916 -49.5902 -49.5885 -49.5875 -49.5824 -49.5796 -49.5783 -49.5623
   -49.5614 -49.5567 -49.5442 -49.5433 -49.5372 -49.5306 -49.5255 -49.4851
   -49.4802 -49.4680 -49.4600 -49.4574 -49.4460 -49.4286 -49.4247 -49.4215
   -49.4116 -49.4111 -49.4043 -49.4041 -49.3970 -49.3934 -49.3714 -49.3711
   -49.3511 -49.3503 -49.3466 -49.3072 -49.3047 -49.2749 -49.2545 -49.2512
   -49.2433 -49.2425 -49.2411 -49.2306 -49.2301 -49.2201 -49.1856 -49.1790
   -49.1785 -49.1303 -49.1259 -49.0993 -49.0788 -49.0742 -49.0508 -49.0397
   -49.0385 -49.0226 -49.0208 -49.0103 -49.0084 -49.0076 -49.0051 -49.0028
   -49.0000 -48.9991 -48.9952 -48.9882 -48.9878 -48.8091 -48.8039 -48.8015
   -15.0429  -6.0980  -4.7961  -4.1462  -3.8289  -3.8266  -3.7062  -3.6148
    -3.5264  -3.5127  -3.5025  -3.2386  -3.1871  -3.1049  -3.0872  -3.0669
    -3.0418  -2.7012  -2.6211  -2.6181  -2.6110  -2.5828  -2.5584  -2.5364
    -2.4709  -2.4605  -2.3699  -2.3546  -2.3366  -2.2659  -2.2617  -2.2484
    -2.2324  -2.2195  -2.1955  -2.1731  -2.0291  -2.0094  -1.9611  -1.9431
    -1.9064  -1.6431  -1.6396  -1.6124  -1.5681  -1.5554  -1.5149  -1.5028
    -1.3713  -1.3512  -1.2933  -1.2717  -1.2420  -1.1852  -1.1621  -0.9139
    -0.8127  -0.8102  -0.7828  -0.7813  -0.7611  -0.6834  -0.6793  -0.6600
    -0.6341  -0.6295  -0.6108  -0.5639  -0.5303  -0.5020  -0.4791  -0.4617
    -0.4015  -0.3774  -0.3640  -0.3150  -0.3082  -0.3050  -0.2623  -0.1915
    -0.1830  -0.1615  -0.1291  -0.0685  -0.0583  -0.0544  -0.0384  -0.0191
    -0.0006   0.0003   0.0193   0.0247   0.0399   0.0400   0.0672   0.0694
     0.1045   0.1289   0.1431   0.1680   0.1832   0.2506   0.2610   0.3007
     0.3137   0.3346   0.3828   0.3851   0.3908   0.3958   0.4078   0.4667
     0.4731   0.5041   0.5433   0.6423   0.6803   0.8797   0.9274   0.9456
     0.9482   0.9654   0.9680   1.0182   1.0196   1.1028   1.1346   1.2569
     1.3183   1.3512   1.3781   1.3812   1.3865   1.3944   1.4101   1.4153
     1.4210   1.5261   1.5323   1.5869   1.5933   1.6565   1.6826   1.8027
     1.8092   1.8111   1.8385   1.8697   1.8973   1.9499   1.9507   1.9615
     2.0320   2.0370   2.0600   2.0628   2.0799   2.0839   2.1015   2.1667
     2.1876   2.2264   2.2354   2.3279   2.3588   2.3607   2.3981   2.4150
     2.4562   2.4595   2.5124   2.5166   2.5282   2.5435   2.5497   2.5576
     2.5789   2.5925   2.6104   2.6260   2.6329   2.6926   2.7032   2.8667
     2.8795   2.8819   2.9012   2.9161   2.9165   2.9403   2.9651   2.9703
     2.9761   2.9848   2.9953   2.9979   3.0929   3.1218   3.1237   3.1964
     3.4094   3.7068   3.7211   4.2385   4.2530   4.2918   4.3758   5.5590
     5.9160   5.9194   6.5619   6.5657   6.7583   6.7586   6.8052   7.7550
     7.7712   7.8181   7.8344   8.1540   8.5171   8.5203   8.6986   8.7024
     8.7587   8.9395   8.9658   9.2354   9.3740   9.3865   9.5973   9.6500
     9.8318  10.1371  10.2395  10.3361  10.4938  10.5053  10.5699  10.6237
    10.7991  10.8119  10.8514  10.9096  10.9174  11.0826  11.2566  11.3108

     occupation numbers 
     1.0000   1.0000   1.0000   1.0000   1.0000   1.0000   1.0000   1.0000
     1.0000   1.0000   1.0000   1.0000   1.0000   1.0000   1.0000   1.0000
     1.0000   1.0000   1.0000   1.0000   1.0000   1.0000   1.0000   1.0000
     1.0000   1.0000   1.0000   1.0000   1.0000   1.0000   1.0000   1.0000
     1.0000   1.0000   1.0000   1.0000   1.0000   1.0000   1.0000   1.0000
     1.0000   1.0000   1.0000   1.0000   1.0000   1.0000   1.0000   1.0000
     1.0000   1.0000   1.0000   1.0000   1.0000   1.0000   1.0000   1.0000
     1.0000   1.0000   1.0000   1.0000   1.0000   1.0000   1.0000   1.0000
     1.0000   1.0000   1.0000   1.0000   1.0000   1.0000   1.0000   1.0000
     1.0000   1.0000   1.0000   1.0000   1.0000   1.0000   1.0000   1.0000
     1.0000   1.0000   1.0000   1.0000   1.0000   1.0000   1.0000   1.0000
     1.0000   1.0000   1.0000   1.0000   1.0000   1.0000   1.0000   1.0000
     1.0000   1.0000   1.0000   1.0000   1.0000   1.0000   1.0000   1.0000
     1.0000   1.0000   1.0000   1.0000   1.0000   1.0000   1.0000   1.0000
     1.0000   1.0000   1.0000   1.0000   1.0000   1.0000   1.0000   1.0000
     1.0000   1.0000   1.0000   1.0000   1.0000   1.0000   1.0000   1.0000
     1.0000   1.0000   1.0000   1.0000   1.0000   1.0000   1.0000   1.0000
     1.0000   1.0000   1.0000   1.0000   1.0000   1.0000   1.0000   1.0000
     1.0000   1.0000   1.0000   1.0000   1.0000   1.0000   1.0000   1.0000
     1.0000   1.0000   1.0000   1.0000   1.0000   1.0000   1.0000   1.0000
     1.0000   1.0000   1.0000   1.0000   1.0000   1.0000   1.0000   1.0000
     1.0000   1.0000   1.0000   1.0000   1.0000   1.0000   1.0000   1.0000
     1.0000   1.0000   1.0000   1.0000   1.0000   1.0000   1.0000   1.0000
     1.0000   1.0000   1.0000   1.0000   1.0000   1.0000   1.0000   1.0000
     1.0000   1.0000   1.0000   1.0000   1.0000   1.0000   1.0000   1.0000
     1.0000   1.0000   1.0000   1.0000   1.0000   1.0000   1.0000   1.0000
     1.0000   1.0000   1.0000   1.0000   1.0000   1.0000   1.0000   1.0000
     1.0000   1.0000   1.0000   1.0000   1.0000   1.0000   1.0000   1.0000
     1.0000   1.0000   1.0000   1.0000   1.0000   1.0000   1.0000   1.0000
     1.0000   1.0000   1.0000   1.0000   1.0000   1.0000   1.0000   1.0000
     1.0000   1.0000   1.0000   1.0000   1.0000   1.0000   1.0000   1.0000
     1.0000   1.0000   1.0000   1.0000   1.0000   1.0000   1.0000   1.0000
     1.0000   1.0000   1.0000   1.0000   1.0000   1.0000   1.0000   1.0000
     1.0000   1.0000   1.0000   1.0000   1.0000   1.0000   1.0000   1.0000
     1.0000   1.0000   1.0000   1.0000   1.0000   1.0000   1.0000   1.0000
     1.0000   1.0000   1.0000   1.0000   1.0000   1.0000   1.0000   1.0000
     1.0000   1.0000   1.0000   1.0000   1.0000   1.0000   1.0000   1.0000
     1.0000   1.0000   1.0000   1.0000   1.0000   1.0000   1.0000   1.0000
     1.0000   1.0000   1.0000   1.0000   1.0000   1.0000   1.0000   1.0000
     0.9999   0.9999   0.9997   0.9997   0.9996   0.9995   0.9994   0.9993
     0.9990   0.9987   0.9981   0.9974   0.9970   0.9902   0.9879   0.7566
     0.7063   0.6964   0.6089   0.5364   0.5344   0.4164   0.3028   0.2813
     0.2583   0.2264   0.1919   0.1837   0.0326   0.0186   0.0179   0.0042
     0.0001   0.0000   0.0000   0.0000   0.0000   0.0000   0.0000   0.0000
     0.0000   0.0000   0.0000   0.0000   0.0000   0.0000   0.0000   0.0000
     0.0000   0.0000   0.0000   0.0000   0.0000   0.0000   0.0000   0.0000
     0.0000   0.0000   0.0000   0.0000   0.0000   0.0000   0.0000   0.0000
     0.0000   0.0000   0.0000   0.0000   0.0000   0.0000   0.0000   0.0000
     0.0000   0.0000   0.0000   0.0000   0.0000   0.0000   0.0000   0.0000

          k = 0.1667 0.0962 0.0000 ( 88230 PWs)   bands (ev):

   -95.5414 -95.5339 -95.5293 -95.5291 -95.5287 -95.5238 -95.5225 -95.5217
   -95.5093 -95.5043 -95.5041 -95.5025 -95.4996 -95.4994 -95.4970 -95.4968
   -95.4932 -95.3953 -95.1409 -95.1344 -95.1337 -95.1010 -95.0938 -95.0919
   -95.0901 -95.0815 -95.0799 -95.0781 -95.0762 -95.0757 -95.0721 -95.0674
   -95.0672 -94.8946 -94.8922 -94.8903 -49.8219 -49.8095 -49.8052 -49.8011
   -49.7912 -49.7872 -49.7846 -49.7822 -49.7798 -49.7668 -49.7650 -49.7633
   -49.7584 -49.7486 -49.7435 -49.7428 -49.7301 -49.7239 -49.7116 -49.6884
   -49.6881 -49.6869 -49.6821 -49.6768 -49.6623 -49.6618 -49.6547 -49.6263
   -49.6260 -49.6160 -49.6134 -49.6130 -49.6071 -49.6051 -49.6038 -49.5928
   -49.5916 -49.5902 -49.5885 -49.5875 -49.5824 -49.5796 -49.5784 -49.5623
   -49.5614 -49.5568 -49.5441 -49.5433 -49.5373 -49.5306 -49.5255 -49.4851
   -49.4802 -49.4680 -49.4600 -49.4574 -49.4460 -49.4286 -49.4247 -49.4215
   -49.4116 -49.4111 -49.4043 -49.4041 -49.3970 -49.3934 -49.3714 -49.3711
   -49.3511 -49.3503 -49.3466 -49.3072 -49.3047 -49.2749 -49.2545 -49.2512
   -49.2433 -49.2425 -49.2411 -49.2306 -49.2301 -49.2201 -49.1856 -49.1790
   -49.1785 -49.1303 -49.1259 -49.0993 -49.0788 -49.0742 -49.0508 -49.0397
   -49.0385 -49.0226 -49.0208 -49.0103 -49.0084 -49.0076 -49.0051 -49.0028
   -49.0000 -48.9991 -48.9952 -48.9882 -48.9878 -48.8091 -48.8039 -48.8015
   -15.0429  -6.0980  -4.7961  -4.1463  -3.8289  -3.8266  -3.7062  -3.6148
    -3.5264  -3.5127  -3.5025  -3.2386  -3.1871  -3.1049  -3.0872  -3.0669
    -3.0418  -2.7012  -2.6211  -2.6181  -2.6110  -2.5828  -2.5584  -2.5364
    -2.4709  -2.4605  -2.3699  -2.3546  -2.3365  -2.2659  -2.2617  -2.2485
    -2.2324  -2.2195  -2.1955  -2.1731  -2.0291  -2.0094  -1.9611  -1.9432
    -1.9063  -1.6431  -1.6396  -1.6124  -1.5681  -1.5553  -1.5149  -1.5028
    -1.3713  -1.3512  -1.2933  -1.2717  -1.2420  -1.1852  -1.1621  -0.9139
    -0.8127  -0.8101  -0.7828  -0.7813  -0.7611  -0.6834  -0.6793  -0.6600
    -0.6341  -0.6295  -0.6108  -0.5638  -0.5303  -0.5020  -0.4791  -0.4616
    -0.4015  -0.3775  -0.3640  -0.3150  -0.3083  -0.3050  -0.2623  -0.1914
    -0.1830  -0.1615  -0.1292  -0.0685  -0.0583  -0.0544  -0.0384  -0.0191
    -0.0006   0.0003   0.0193   0.0247   0.0399   0.0400   0.0672   0.0694
     0.1045   0.1289   0.1432   0.1680   0.1832   0.2506   0.2610   0.3007
     0.3137   0.3346   0.3828   0.3851   0.3908   0.3958   0.4077   0.4667
     0.4731   0.5041   0.5432   0.6423   0.6803   0.8797   0.9274   0.9456
     0.9482   0.9654   0.9680   1.0182   1.0196   1.1028   1.1346   1.2569
     1.3183   1.3512   1.3781   1.3812   1.3865   1.3944   1.4101   1.4152
     1.4210   1.5261   1.5324   1.5869   1.5933   1.6565   1.6826   1.8027
     1.8092   1.8111   1.8385   1.8697   1.8973   1.9499   1.9507   1.9615
     2.0320   2.0370   2.0600   2.0628   2.0799   2.0839   2.1015   2.1667
     2.1876   2.2265   2.2354   2.3279   2.3588   2.3607   2.3981   2.4149
     2.4562   2.4595   2.5124   2.5166   2.5282   2.5435   2.5497   2.5577
     2.5788   2.5925   2.6104   2.6260   2.6329   2.6926   2.7032   2.8667
     2.8795   2.8819   2.9013   2.9161   2.9165   2.9403   2.9651   2.9703
     2.9761   2.9848   2.9953   2.9980   3.0929   3.1218   3.1237   3.1964
     3.4094   3.7068   3.7212   4.2385   4.2530   4.2918   4.3758   5.5589
     5.9160   5.9195   6.5619   6.5657   6.7583   6.7586   6.8051   7.7550
     7.7712   7.8181   7.8345   8.1539   8.5171   8.5203   8.6987   8.7024
     8.7588   8.9395   8.9659   9.2353   9.3740   9.3865   9.5973   9.6500
     9.8318  10.1370  10.2395  10.3361  10.4938  10.5053  10.5699  10.6237
    10.7991  10.8119  10.8514  10.9096  10.9173  11.0825  11.2559  11.3108

     occupation numbers 
     1.0000   1.0000   1.0000   1.0000   1.0000   1.0000   1.0000   1.0000
     1.0000   1.0000   1.0000   1.0000   1.0000   1.0000   1.0000   1.0000
     1.0000   1.0000   1.0000   1.0000   1.0000   1.0000   1.0000   1.0000
     1.0000   1.0000   1.0000   1.0000   1.0000   1.0000   1.0000   1.0000
     1.0000   1.0000   1.0000   1.0000   1.0000   1.0000   1.0000   1.0000
     1.0000   1.0000   1.0000   1.0000   1.0000   1.0000   1.0000   1.0000
     1.0000   1.0000   1.0000   1.0000   1.0000   1.0000   1.0000   1.0000
     1.0000   1.0000   1.0000   1.0000   1.0000   1.0000   1.0000   1.0000
     1.0000   1.0000   1.0000   1.0000   1.0000   1.0000   1.0000   1.0000
     1.0000   1.0000   1.0000   1.0000   1.0000   1.0000   1.0000   1.0000
     1.0000   1.0000   1.0000   1.0000   1.0000   1.0000   1.0000   1.0000
     1.0000   1.0000   1.0000   1.0000   1.0000   1.0000   1.0000   1.0000
     1.0000   1.0000   1.0000   1.0000   1.0000   1.0000   1.0000   1.0000
     1.0000   1.0000   1.0000   1.0000   1.0000   1.0000   1.0000   1.0000
     1.0000   1.0000   1.0000   1.0000   1.0000   1.0000   1.0000   1.0000
     1.0000   1.0000   1.0000   1.0000   1.0000   1.0000   1.0000   1.0000
     1.0000   1.0000   1.0000   1.0000   1.0000   1.0000   1.0000   1.0000
     1.0000   1.0000   1.0000   1.0000   1.0000   1.0000   1.0000   1.0000
     1.0000   1.0000   1.0000   1.0000   1.0000   1.0000   1.0000   1.0000
     1.0000   1.0000   1.0000   1.0000   1.0000   1.0000   1.0000   1.0000
     1.0000   1.0000   1.0000   1.0000   1.0000   1.0000   1.0000   1.0000
     1.0000   1.0000   1.0000   1.0000   1.0000   1.0000   1.0000   1.0000
     1.0000   1.0000   1.0000   1.0000   1.0000   1.0000   1.0000   1.0000
     1.0000   1.0000   1.0000   1.0000   1.0000   1.0000   1.0000   1.0000
     1.0000   1.0000   1.0000   1.0000   1.0000   1.0000   1.0000   1.0000
     1.0000   1.0000   1.0000   1.0000   1.0000   1.0000   1.0000   1.0000
     1.0000   1.0000   1.0000   1.0000   1.0000   1.0000   1.0000   1.0000
     1.0000   1.0000   1.0000   1.0000   1.0000   1.0000   1.0000   1.0000
     1.0000   1.0000   1.0000   1.0000   1.0000   1.0000   1.0000   1.0000
     1.0000   1.0000   1.0000   1.0000   1.0000   1.0000   1.0000   1.0000
     1.0000   1.0000   1.0000   1.0000   1.0000   1.0000   1.0000   1.0000
     1.0000   1.0000   1.0000   1.0000   1.0000   1.0000   1.0000   1.0000
     1.0000   1.0000   1.0000   1.0000   1.0000   1.0000   1.0000   1.0000
     1.0000   1.0000   1.0000   1.0000   1.0000   1.0000   1.0000   1.0000
     1.0000   1.0000   1.0000   1.0000   1.0000   1.0000   1.0000   1.0000
     1.0000   1.0000   1.0000   1.0000   1.0000   1.0000   1.0000   1.0000
     1.0000   1.0000   1.0000   1.0000   1.0000   1.0000   1.0000   1.0000
     1.0000   1.0000   1.0000   1.0000   1.0000   1.0000   1.0000   1.0000
     1.0000   1.0000   1.0000   1.0000   1.0000   1.0000   1.0000   1.0000
     0.9999   0.9999   0.9997   0.9997   0.9996   0.9995   0.9994   0.9993
     0.9990   0.9987   0.9981   0.9974   0.9970   0.9902   0.9879   0.7565
     0.7063   0.6964   0.6087   0.5365   0.5345   0.4164   0.3027   0.2813
     0.2583   0.2263   0.1918   0.1837   0.0326   0.0186   0.0179   0.0042
     0.0001   0.0000   0.0000   0.0000   0.0000   0.0000   0.0000   0.0000
     0.0000   0.0000   0.0000   0.0000   0.0000   0.0000   0.0000   0.0000
     0.0000   0.0000   0.0000   0.0000   0.0000   0.0000   0.0000   0.0000
     0.0000   0.0000   0.0000   0.0000   0.0000   0.0000   0.0000   0.0000
     0.0000   0.0000   0.0000   0.0000   0.0000   0.0000   0.0000   0.0000
     0.0000   0.0000   0.0000   0.0000   0.0000   0.0000   0.0000   0.0000

          k = 0.1667 0.2887 0.0000 ( 88188 PWs)   bands (ev):

   -95.5407 -95.5347 -95.5297 -95.5290 -95.5286 -95.5241 -95.5221 -95.5215
   -95.5093 -95.5045 -95.5042 -95.5024 -95.5000 -95.4996 -95.4965 -95.4962
   -95.4936 -95.3953 -95.1408 -95.1344 -95.1338 -95.1009 -95.0938 -95.0920
   -95.0892 -95.0830 -95.0806 -95.0775 -95.0762 -95.0752 -95.0716 -95.0676
   -95.0671 -94.8946 -94.8922 -94.8903 -49.8349 -49.8287 -49.8166 -49.8079
   -49.8032 -49.7959 -49.7881 -49.7853 -49.7792 -49.7718 -49.7688 -49.7643
   -49.7612 -49.7523 -49.7419 -49.7129 -49.7079 -49.7020 -49.6880 -49.6843
   -49.6803 -49.6760 -49.6735 -49.6673 -49.6582 -49.6481 -49.6429 -49.6311
   -49.6262 -49.6209 -49.6185 -49.6156 -49.6136 -49.6070 -49.6033 -49.5991
   -49.5948 -49.5919 -49.5879 -49.5846 -49.5803 -49.5761 -49.5744 -49.5694
   -49.5668 -49.5621 -49.5575 -49.5470 -49.5401 -49.5350 -49.5275 -49.4952
   -49.4830 -49.4733 -49.4688 -49.4607 -49.4549 -49.4409 -49.4388 -49.4257
   -49.4223 -49.4182 -49.4105 -49.3931 -49.3921 -49.3898 -49.3652 -49.3308
   -49.3260 -49.3246 -49.3229 -49.3061 -49.2992 -49.2791 -49.2597 -49.2520
   -49.2509 -49.2503 -49.2498 -49.2475 -49.2177 -49.2169 -49.2028 -49.1834
   -49.1687 -49.1338 -49.1214 -49.1029 -49.0879 -49.0774 -49.0501 -49.0400
   -49.0389 -49.0216 -49.0199 -49.0104 -49.0100 -49.0085 -49.0067 -49.0018
   -48.9999 -48.9982 -48.9942 -48.9886 -48.9880 -48.8092 -48.8039 -48.8014
   -15.0429  -5.8935  -4.5991  -4.3796  -4.3346  -3.5066  -3.4560  -3.4305
    -3.4161  -3.4135  -3.3999  -3.3393  -3.2648  -3.1687  -3.1536  -2.8771
    -2.8595  -2.7290  -2.7175  -2.5810  -2.5685  -2.5472  -2.5373  -2.5304
    -2.5066  -2.4546  -2.4387  -2.4064  -2.3576  -2.3474  -2.3123  -2.2543
    -2.2357  -2.2137  -2.1753  -2.1027  -2.0261  -1.8939  -1.8488  -1.7906
    -1.7714  -1.7186  -1.6695  -1.6385  -1.6237  -1.5813  -1.5405  -1.4534
    -1.4197  -1.3295  -1.3140  -1.3044  -1.2384  -1.2268  -1.1921  -1.1182
    -1.0714  -0.9085  -0.8734  -0.8456  -0.8348  -0.8236  -0.7673  -0.7412
    -0.7280  -0.7154  -0.6436  -0.6334  -0.5536  -0.5415  -0.5296  -0.5142
    -0.5066  -0.3930  -0.3686  -0.3388  -0.3244  -0.3023  -0.2581  -0.2119
    -0.2035  -0.1825  -0.1725  -0.1688  -0.1563  -0.1251  -0.1176  -0.1034
    -0.0422  -0.0378   0.0207   0.0285   0.0398   0.0399   0.0454   0.0759
     0.0971   0.1238   0.1290   0.1720   0.1883   0.1949   0.2073   0.2290
     0.2499   0.2648   0.2744   0.3359   0.3484   0.3612   0.3921   0.4829
     0.5118   0.5254   0.5408   0.5960   0.6038   0.7614   0.8424   0.8602
     0.8716   0.9198   0.9403   0.9832   1.0100   1.0261   1.0420   1.0512
     1.0685   1.1661   1.1786   1.2654   1.3457   1.4034   1.4083   1.4471
     1.4695   1.5084   1.5338   1.5509   1.5606   1.6860   1.7246   1.7276
     1.7461   1.7726   1.7820   1.8314   1.8395   1.8679   1.8754   1.9093
     1.9310   1.9724   1.9832   1.9949   2.0125   2.0190   2.0609   2.1074
     2.1297   2.1651   2.3253   2.3712   2.3899   2.4649   2.4899   2.5125
     2.5259   2.5940   2.6133   2.6173   2.6275   2.6446   2.6766   2.6828
     2.7178   2.7303   2.7329   2.8417   2.8537   2.8615   2.8785   2.9027
     2.9089   2.9190   2.9304   2.9790   3.0888   3.1034   3.1103   3.1684
     3.1851   3.2039   3.2357   3.3221   3.3406   3.5669   3.5718   3.6480
     3.9856   3.9954   4.2850   4.3089   4.9261   4.9967   5.0126   5.3457
     5.3531   5.7902   6.4593   6.4800   6.5930   6.7818   6.9541   7.2199
     7.2507   7.6595   7.7651   7.7885   7.8370   7.9729   8.8022   8.8189
     8.8696   8.9109   8.9654   9.1888   9.2405   9.3726   9.4554   9.6053
     9.6306   9.6544   9.9221   9.9865  10.0277  10.4051  10.4327  10.4807
    10.5006  10.5177  10.5693  10.9024  11.0070  11.0166  11.0633  11.0950

     occupation numbers 
     1.0000   1.0000   1.0000   1.0000   1.0000   1.0000   1.0000   1.0000
     1.0000   1.0000   1.0000   1.0000   1.0000   1.0000   1.0000   1.0000
     1.0000   1.0000   1.0000   1.0000   1.0000   1.0000   1.0000   1.0000
     1.0000   1.0000   1.0000   1.0000   1.0000   1.0000   1.0000   1.0000
     1.0000   1.0000   1.0000   1.0000   1.0000   1.0000   1.0000   1.0000
     1.0000   1.0000   1.0000   1.0000   1.0000   1.0000   1.0000   1.0000
     1.0000   1.0000   1.0000   1.0000   1.0000   1.0000   1.0000   1.0000
     1.0000   1.0000   1.0000   1.0000   1.0000   1.0000   1.0000   1.0000
     1.0000   1.0000   1.0000   1.0000   1.0000   1.0000   1.0000   1.0000
     1.0000   1.0000   1.0000   1.0000   1.0000   1.0000   1.0000   1.0000
     1.0000   1.0000   1.0000   1.0000   1.0000   1.0000   1.0000   1.0000
     1.0000   1.0000   1.0000   1.0000   1.0000   1.0000   1.0000   1.0000
     1.0000   1.0000   1.0000   1.0000   1.0000   1.0000   1.0000   1.0000
     1.0000   1.0000   1.0000   1.0000   1.0000   1.0000   1.0000   1.0000
     1.0000   1.0000   1.0000   1.0000   1.0000   1.0000   1.0000   1.0000
     1.0000   1.0000   1.0000   1.0000   1.0000   1.0000   1.0000   1.0000
     1.0000   1.0000   1.0000   1.0000   1.0000   1.0000   1.0000   1.0000
     1.0000   1.0000   1.0000   1.0000   1.0000   1.0000   1.0000   1.0000
     1.0000   1.0000   1.0000   1.0000   1.0000   1.0000   1.0000   1.0000
     1.0000   1.0000   1.0000   1.0000   1.0000   1.0000   1.0000   1.0000
     1.0000   1.0000   1.0000   1.0000   1.0000   1.0000   1.0000   1.0000
     1.0000   1.0000   1.0000   1.0000   1.0000   1.0000   1.0000   1.0000
     1.0000   1.0000   1.0000   1.0000   1.0000   1.0000   1.0000   1.0000
     1.0000   1.0000   1.0000   1.0000   1.0000   1.0000   1.0000   1.0000
     1.0000   1.0000   1.0000   1.0000   1.0000   1.0000   1.0000   1.0000
     1.0000   1.0000   1.0000   1.0000   1.0000   1.0000   1.0000   1.0000
     1.0000   1.0000   1.0000   1.0000   1.0000   1.0000   1.0000   1.0000
     1.0000   1.0000   1.0000   1.0000   1.0000   1.0000   1.0000   1.0000
     1.0000   1.0000   1.0000   1.0000   1.0000   1.0000   1.0000   1.0000
     1.0000   1.0000   1.0000   1.0000   1.0000   1.0000   1.0000   1.0000
     1.0000   1.0000   1.0000   1.0000   1.0000   1.0000   1.0000   1.0000
     1.0000   1.0000   1.0000   1.0000   1.0000   1.0000   1.0000   1.0000
     1.0000   1.0000   1.0000   1.0000   1.0000   1.0000   1.0000   1.0000
     1.0000   1.0000   1.0000   1.0000   1.0000   1.0000   1.0000   1.0000
     1.0000   1.0000   1.0000   1.0000   1.0000   1.0000   1.0000   1.0000
     1.0000   1.0000   1.0000   1.0000   1.0000   1.0000   1.0000   1.0000
     1.0000   1.0000   1.0000   1.0000   1.0000   1.0000   1.0000   1.0000
     1.0000   1.0000   1.0000   1.0000   1.0000   1.0000   1.0000   1.0000
     1.0000   1.0000   1.0000   1.0000   1.0000   0.9999   0.9998   0.9997
     0.9996   0.9986   0.9980   0.9978   0.9973   0.9962   0.9929   0.9919
     0.9839   0.9794   0.9783   0.8367   0.8011   0.7751   0.7103   0.6018
     0.5721   0.5220   0.4651   0.2476   0.0353   0.0266   0.0232   0.0074
     0.0053   0.0036   0.0019   0.0003   0.0002   0.0000   0.0000   0.0000
     0.0000   0.0000   0.0000   0.0000   0.0000   0.0000   0.0000   0.0000
     0.0000   0.0000   0.0000   0.0000   0.0000   0.0000   0.0000   0.0000
     0.0000   0.0000   0.0000   0.0000   0.0000   0.0000   0.0000   0.0000
     0.0000   0.0000   0.0000   0.0000   0.0000   0.0000   0.0000   0.0000
     0.0000   0.0000   0.0000   0.0000   0.0000   0.0000   0.0000   0.0000
     0.0000   0.0000   0.0000   0.0000   0.0000   0.0000   0.0000   0.0000

          k = 0.1667-0.6736 0.0000 ( 88140 PWs)   bands (ev):

   -95.5397 -95.5358 -95.5300 -95.5289 -95.5284 -95.5243 -95.5219 -95.5213
   -95.5093 -95.5046 -95.5043 -95.5023 -95.5003 -95.4997 -95.4961 -95.4954
   -95.4943 -95.3953 -95.1406 -95.1345 -95.1340 -95.1009 -95.0938 -95.0920
   -95.0877 -95.0850 -95.0814 -95.0772 -95.0757 -95.0750 -95.0713 -95.0678
   -95.0671 -94.8947 -94.8922 -94.8902 -49.8484 -49.8345 -49.8283 -49.8183
   -49.8085 -49.8024 -49.7948 -49.7868 -49.7804 -49.7750 -49.7726 -49.7689
   -49.7584 -49.7459 -49.7422 -49.6938 -49.6874 -49.6840 -49.6807 -49.6741
   -49.6712 -49.6657 -49.6600 -49.6528 -49.6472 -49.6443 -49.6378 -49.6328
   -49.6272 -49.6231 -49.6193 -49.6147 -49.6101 -49.6087 -49.6061 -49.6033
   -49.5993 -49.5931 -49.5892 -49.5879 -49.5831 -49.5785 -49.5743 -49.5719
   -49.5686 -49.5678 -49.5651 -49.5595 -49.5485 -49.5406 -49.5272 -49.5036
   -49.4873 -49.4811 -49.4725 -49.4651 -49.4584 -49.4545 -49.4427 -49.4366
   -49.4292 -49.4150 -49.4120 -49.4058 -49.3828 -49.3775 -49.3383 -49.3106
   -49.3099 -49.3028 -49.2977 -49.2951 -49.2828 -49.2773 -49.2742 -49.2693
   -49.2632 -49.2565 -49.2551 -49.2486 -49.2347 -49.2185 -49.2039 -49.1920
   -49.1578 -49.1337 -49.1192 -49.1080 -49.0978 -49.0816 -49.0494 -49.0405
   -49.0391 -49.0209 -49.0175 -49.0133 -49.0102 -49.0086 -49.0081 -49.0014
   -48.9988 -48.9977 -48.9935 -48.9891 -48.9881 -48.8092 -48.8039 -48.8013
   -15.0429  -5.5025  -4.9632  -4.4668  -4.2224  -3.7469  -3.3944  -3.3445
    -3.3336  -3.2284  -3.1904  -3.1300  -3.0767  -3.0146  -3.0031  -2.8865
    -2.8123  -2.8056  -2.7383  -2.6993  -2.6666  -2.6542  -2.6326  -2.5970
    -2.5421  -2.5052  -2.4454  -2.4298  -2.3705  -2.3282  -2.2767  -2.2141
    -2.1939  -2.1726  -2.1234  -2.1059  -2.0051  -1.9626  -1.8847  -1.8395
    -1.7029  -1.6461  -1.6273  -1.5599  -1.5420  -1.5322  -1.5165  -1.4379
    -1.4249  -1.3809  -1.3422  -1.2867  -1.2255  -1.1948  -1.1741  -1.1419
    -1.1222  -1.0964  -1.0466  -1.0186  -0.9793  -0.9318  -0.8729  -0.8496
    -0.8441  -0.7947  -0.7664  -0.6635  -0.6322  -0.6067  -0.5513  -0.5346
    -0.5278  -0.5028  -0.4712  -0.4552  -0.4193  -0.3934  -0.3606  -0.3440
    -0.2736  -0.2520  -0.2333  -0.2099  -0.2057  -0.1699  -0.0894  -0.0667
    -0.0470  -0.0353  -0.0162   0.0215   0.0397   0.0398   0.0406   0.0496
     0.0726   0.0967   0.1055   0.1213   0.1350   0.1565   0.1939   0.2035
     0.2211   0.2346   0.2684   0.3058   0.3330   0.3568   0.3950   0.4494
     0.4814   0.5049   0.5947   0.6114   0.6458   0.7429   0.8151   0.8441
     0.8742   0.9021   0.9248   0.9589   0.9824   0.9887   1.0494   1.0754
     1.0887   1.1100   1.1345   1.1740   1.2126   1.2219   1.2803   1.3218
     1.3600   1.4794   1.5006   1.5174   1.5468   1.5951   1.6338   1.6429
     1.6565   1.6843   1.7110   1.7239   1.7598   1.8285   1.8585   1.8893
     1.9017   1.9121   1.9329   1.9559   1.9702   2.0863   2.1187   2.1778
     2.2435   2.2631   2.3460   2.3754   2.3927   2.4535   2.4617   2.4879
     2.5774   2.6188   2.6496   2.6898   2.7049   2.7154   2.7191   2.7314
     2.8026   2.8283   2.8325   2.8711   2.8805   2.9047   2.9528   2.9645
     3.0307   3.0402   3.1167   3.1282   3.1648   3.1880   3.2078   3.2175
     3.2697   3.2942   3.3417   3.9419   4.2040   4.2249   4.2808   4.3459
     4.6338   4.7890   4.8554   5.1550   5.2023   5.2346   5.2786   5.3733
     5.6300   5.7610   5.8410   6.0793   6.3705   6.4442   6.4987   6.6341
     6.8118   7.1126   7.2918   7.5393   7.5966   7.6168   8.3535   8.6053
     8.6284   8.6876   8.8710   9.1129   9.1308   9.2040   9.4376   9.4885
     9.5273   9.7294   9.8396   9.8889  10.0768  10.0884  10.1387  10.4404
    10.4948  10.7787  10.8313  10.8849  10.9488  10.9666  11.1176  11.1434

     occupation numbers 
     1.0000   1.0000   1.0000   1.0000   1.0000   1.0000   1.0000   1.0000
     1.0000   1.0000   1.0000   1.0000   1.0000   1.0000   1.0000   1.0000
     1.0000   1.0000   1.0000   1.0000   1.0000   1.0000   1.0000   1.0000
     1.0000   1.0000   1.0000   1.0000   1.0000   1.0000   1.0000   1.0000
     1.0000   1.0000   1.0000   1.0000   1.0000   1.0000   1.0000   1.0000
     1.0000   1.0000   1.0000   1.0000   1.0000   1.0000   1.0000   1.0000
     1.0000   1.0000   1.0000   1.0000   1.0000   1.0000   1.0000   1.0000
     1.0000   1.0000   1.0000   1.0000   1.0000   1.0000   1.0000   1.0000
     1.0000   1.0000   1.0000   1.0000   1.0000   1.0000   1.0000   1.0000
     1.0000   1.0000   1.0000   1.0000   1.0000   1.0000   1.0000   1.0000
     1.0000   1.0000   1.0000   1.0000   1.0000   1.0000   1.0000   1.0000
     1.0000   1.0000   1.0000   1.0000   1.0000   1.0000   1.0000   1.0000
     1.0000   1.0000   1.0000   1.0000   1.0000   1.0000   1.0000   1.0000
     1.0000   1.0000   1.0000   1.0000   1.0000   1.0000   1.0000   1.0000
     1.0000   1.0000   1.0000   1.0000   1.0000   1.0000   1.0000   1.0000
     1.0000   1.0000   1.0000   1.0000   1.0000   1.0000   1.0000   1.0000
     1.0000   1.0000   1.0000   1.0000   1.0000   1.0000   1.0000   1.0000
     1.0000   1.0000   1.0000   1.0000   1.0000   1.0000   1.0000   1.0000
     1.0000   1.0000   1.0000   1.0000   1.0000   1.0000   1.0000   1.0000
     1.0000   1.0000   1.0000   1.0000   1.0000   1.0000   1.0000   1.0000
     1.0000   1.0000   1.0000   1.0000   1.0000   1.0000   1.0000   1.0000
     1.0000   1.0000   1.0000   1.0000   1.0000   1.0000   1.0000   1.0000
     1.0000   1.0000   1.0000   1.0000   1.0000   1.0000   1.0000   1.0000
     1.0000   1.0000   1.0000   1.0000   1.0000   1.0000   1.0000   1.0000
     1.0000   1.0000   1.0000   1.0000   1.0000   1.0000   1.0000   1.0000
     1.0000   1.0000   1.0000   1.0000   1.0000   1.0000   1.0000   1.0000
     1.0000   1.0000   1.0000   1.0000   1.0000   1.0000   1.0000   1.0000
     1.0000   1.0000   1.0000   1.0000   1.0000   1.0000   1.0000   1.0000
     1.0000   1.0000   1.0000   1.0000   1.0000   1.0000   1.0000   1.0000
     1.0000   1.0000   1.0000   1.0000   1.0000   1.0000   1.0000   1.0000
     1.0000   1.0000   1.0000   1.0000   1.0000   1.0000   1.0000   1.0000
     1.0000   1.0000   1.0000   1.0000   1.0000   1.0000   1.0000   1.0000
     1.0000   1.0000   1.0000   1.0000   1.0000   1.0000   1.0000   1.0000
     1.0000   1.0000   1.0000   1.0000   1.0000   1.0000   1.0000   1.0000
     1.0000   1.0000   1.0000   1.0000   1.0000   1.0000   1.0000   1.0000
     1.0000   1.0000   1.0000   1.0000   1.0000   1.0000   1.0000   1.0000
     1.0000   1.0000   1.0000   1.0000   1.0000   1.0000   1.0000   1.0000
     1.0000   1.0000   1.0000   1.0000   1.0000   1.0000   1.0000   1.0000
     1.0000   1.0000   1.0000   1.0000   1.0000   0.9999   0.9999   0.9998
     0.9990   0.9977   0.9958   0.9907   0.9875   0.9846   0.9835   0.9789
     0.9180   0.8702   0.8603   0.7399   0.7020   0.5924   0.3571   0.3054
     0.1047   0.0881   0.0205   0.0164   0.0079   0.0050   0.0034   0.0028
     0.0010   0.0006   0.0002   0.0000   0.0000   0.0000   0.0000   0.0000
     0.0000   0.0000   0.0000   0.0000   0.0000   0.0000   0.0000   0.0000
     0.0000   0.0000   0.0000   0.0000   0.0000   0.0000   0.0000   0.0000
     0.0000   0.0000   0.0000   0.0000   0.0000   0.0000   0.0000   0.0000
     0.0000   0.0000   0.0000   0.0000   0.0000   0.0000   0.0000   0.0000
     0.0000   0.0000   0.0000   0.0000   0.0000   0.0000   0.0000   0.0000
     0.0000   0.0000   0.0000   0.0000   0.0000   0.0000   0.0000   0.0000

          k = 0.1667-0.4811 0.0000 ( 88140 PWs)   bands (ev):

   -95.5397 -95.5358 -95.5300 -95.5289 -95.5284 -95.5243 -95.5218 -95.5213
   -95.5093 -95.5046 -95.5043 -95.5023 -95.5003 -95.4997 -95.4961 -95.4954
   -95.4943 -95.3953 -95.1406 -95.1345 -95.1340 -95.1009 -95.0938 -95.0920
   -95.0876 -95.0850 -95.0814 -95.0772 -95.0757 -95.0750 -95.0713 -95.0678
   -95.0671 -94.8947 -94.8922 -94.8902 -49.8484 -49.8345 -49.8283 -49.8183
   -49.8085 -49.8024 -49.7948 -49.7868 -49.7804 -49.7750 -49.7726 -49.7689
   -49.7584 -49.7459 -49.7422 -49.6937 -49.6874 -49.6840 -49.6807 -49.6741
   -49.6712 -49.6657 -49.6600 -49.6528 -49.6472 -49.6443 -49.6378 -49.6328
   -49.6273 -49.6231 -49.6193 -49.6147 -49.6101 -49.6087 -49.6061 -49.6033
   -49.5993 -49.5931 -49.5892 -49.5879 -49.5831 -49.5786 -49.5743 -49.5719
   -49.5686 -49.5678 -49.5651 -49.5595 -49.5484 -49.5406 -49.5272 -49.5036
   -49.4873 -49.4811 -49.4725 -49.4651 -49.4584 -49.4545 -49.4427 -49.4366
   -49.4292 -49.4150 -49.4120 -49.4058 -49.3828 -49.3775 -49.3383 -49.3106
   -49.3099 -49.3027 -49.2978 -49.2951 -49.2828 -49.2773 -49.2742 -49.2693
   -49.2632 -49.2565 -49.2551 -49.2486 -49.2347 -49.2185 -49.2039 -49.1920
   -49.1578 -49.1337 -49.1192 -49.1080 -49.0978 -49.0816 -49.0494 -49.0405
   -49.0391 -49.0209 -49.0175 -49.0133 -49.0102 -49.0086 -49.0081 -49.0014
   -48.9987 -48.9977 -48.9935 -48.9891 -48.9881 -48.8092 -48.8039 -48.8013
   -15.0429  -5.5025  -4.9632  -4.4667  -4.2224  -3.7469  -3.3944  -3.3445
    -3.3336  -3.2284  -3.1904  -3.1300  -3.0767  -3.0146  -3.0032  -2.8865
    -2.8123  -2.8056  -2.7383  -2.6993  -2.6666  -2.6542  -2.6326  -2.5970
    -2.5421  -2.5053  -2.4454  -2.4298  -2.3705  -2.3282  -2.2767  -2.2141
    -2.1939  -2.1726  -2.1234  -2.1059  -2.0051  -1.9626  -1.8847  -1.8395
    -1.7029  -1.6461  -1.6273  -1.5599  -1.5420  -1.5322  -1.5165  -1.4379
    -1.4249  -1.3809  -1.3422  -1.2867  -1.2255  -1.1948  -1.1741  -1.1418
    -1.1222  -1.0964  -1.0466  -1.0186  -0.9793  -0.9318  -0.8729  -0.8496
    -0.8441  -0.7947  -0.7665  -0.6635  -0.6322  -0.6067  -0.5513  -0.5346
    -0.5278  -0.5028  -0.4712  -0.4552  -0.4193  -0.3934  -0.3605  -0.3440
    -0.2736  -0.2520  -0.2333  -0.2099  -0.2057  -0.1699  -0.0894  -0.0667
    -0.0470  -0.0353  -0.0162   0.0215   0.0397   0.0398   0.0406   0.0496
     0.0726   0.0967   0.1055   0.1213   0.1350   0.1565   0.1939   0.2034
     0.2211   0.2346   0.2684   0.3059   0.3330   0.3568   0.3950   0.4494
     0.4814   0.5049   0.5947   0.6114   0.6458   0.7429   0.8151   0.8441
     0.8742   0.9021   0.9248   0.9589   0.9824   0.9887   1.0494   1.0754
     1.0887   1.1100   1.1345   1.1740   1.2126   1.2219   1.2803   1.3218
     1.3600   1.4794   1.5006   1.5174   1.5468   1.5951   1.6338   1.6429
     1.6565   1.6843   1.7109   1.7239   1.7598   1.8285   1.8585   1.8893
     1.9017   1.9121   1.9329   1.9559   1.9702   2.0863   2.1187   2.1778
     2.2435   2.2631   2.3460   2.3755   2.3928   2.4535   2.4617   2.4879
     2.5774   2.6188   2.6496   2.6898   2.7049   2.7154   2.7191   2.7314
     2.8027   2.8283   2.8325   2.8711   2.8805   2.9047   2.9528   2.9645
     3.0307   3.0402   3.1167   3.1282   3.1648   3.1880   3.2077   3.2175
     3.2697   3.2941   3.3417   3.9419   4.2040   4.2250   4.2808   4.3459
     4.6338   4.7890   4.8554   5.1550   5.2023   5.2346   5.2786   5.3733
     5.6300   5.7610   5.8411   6.0793   6.3705   6.4442   6.4987   6.6341
     6.8118   7.1127   7.2918   7.5393   7.5966   7.6168   8.3536   8.6053
     8.6284   8.6876   8.8710   9.1129   9.1308   9.2040   9.4376   9.4885
     9.5273   9.7294   9.8395   9.8889  10.0767  10.0885  10.1387  10.4403
    10.4948  10.7787  10.8313  10.8849  10.9488  10.9666  11.1178  11.1435

     occupation numbers 
     1.0000   1.0000   1.0000   1.0000   1.0000   1.0000   1.0000   1.0000
     1.0000   1.0000   1.0000   1.0000   1.0000   1.0000   1.0000   1.0000
     1.0000   1.0000   1.0000   1.0000   1.0000   1.0000   1.0000   1.0000
     1.0000   1.0000   1.0000   1.0000   1.0000   1.0000   1.0000   1.0000
     1.0000   1.0000   1.0000   1.0000   1.0000   1.0000   1.0000   1.0000
     1.0000   1.0000   1.0000   1.0000   1.0000   1.0000   1.0000   1.0000
     1.0000   1.0000   1.0000   1.0000   1.0000   1.0000   1.0000   1.0000
     1.0000   1.0000   1.0000   1.0000   1.0000   1.0000   1.0000   1.0000
     1.0000   1.0000   1.0000   1.0000   1.0000   1.0000   1.0000   1.0000
     1.0000   1.0000   1.0000   1.0000   1.0000   1.0000   1.0000   1.0000
     1.0000   1.0000   1.0000   1.0000   1.0000   1.0000   1.0000   1.0000
     1.0000   1.0000   1.0000   1.0000   1.0000   1.0000   1.0000   1.0000
     1.0000   1.0000   1.0000   1.0000   1.0000   1.0000   1.0000   1.0000
     1.0000   1.0000   1.0000   1.0000   1.0000   1.0000   1.0000   1.0000
     1.0000   1.0000   1.0000   1.0000   1.0000   1.0000   1.0000   1.0000
     1.0000   1.0000   1.0000   1.0000   1.0000   1.0000   1.0000   1.0000
     1.0000   1.0000   1.0000   1.0000   1.0000   1.0000   1.0000   1.0000
     1.0000   1.0000   1.0000   1.0000   1.0000   1.0000   1.0000   1.0000
     1.0000   1.0000   1.0000   1.0000   1.0000   1.0000   1.0000   1.0000
     1.0000   1.0000   1.0000   1.0000   1.0000   1.0000   1.0000   1.0000
     1.0000   1.0000   1.0000   1.0000   1.0000   1.0000   1.0000   1.0000
     1.0000   1.0000   1.0000   1.0000   1.0000   1.0000   1.0000   1.0000
     1.0000   1.0000   1.0000   1.0000   1.0000   1.0000   1.0000   1.0000
     1.0000   1.0000   1.0000   1.0000   1.0000   1.0000   1.0000   1.0000
     1.0000   1.0000   1.0000   1.0000   1.0000   1.0000   1.0000   1.0000
     1.0000   1.0000   1.0000   1.0000   1.0000   1.0000   1.0000   1.0000
     1.0000   1.0000   1.0000   1.0000   1.0000   1.0000   1.0000   1.0000
     1.0000   1.0000   1.0000   1.0000   1.0000   1.0000   1.0000   1.0000
     1.0000   1.0000   1.0000   1.0000   1.0000   1.0000   1.0000   1.0000
     1.0000   1.0000   1.0000   1.0000   1.0000   1.0000   1.0000   1.0000
     1.0000   1.0000   1.0000   1.0000   1.0000   1.0000   1.0000   1.0000
     1.0000   1.0000   1.0000   1.0000   1.0000   1.0000   1.0000   1.0000
     1.0000   1.0000   1.0000   1.0000   1.0000   1.0000   1.0000   1.0000
     1.0000   1.0000   1.0000   1.0000   1.0000   1.0000   1.0000   1.0000
     1.0000   1.0000   1.0000   1.0000   1.0000   1.0000   1.0000   1.0000
     1.0000   1.0000   1.0000   1.0000   1.0000   1.0000   1.0000   1.0000
     1.0000   1.0000   1.0000   1.0000   1.0000   1.0000   1.0000   1.0000
     1.0000   1.0000   1.0000   1.0000   1.0000   1.0000   1.0000   1.0000
     1.0000   1.0000   1.0000   1.0000   1.0000   0.9999   0.9999   0.9998
     0.9990   0.9977   0.9958   0.9907   0.9875   0.9846   0.9835   0.9790
     0.9179   0.8701   0.8603   0.7398   0.7021   0.5925   0.3570   0.3053
     0.1047   0.0882   0.0205   0.0164   0.0079   0.0050   0.0034   0.0028
     0.0010   0.0006   0.0002   0.0000   0.0000   0.0000   0.0000   0.0000
     0.0000   0.0000   0.0000   0.0000   0.0000   0.0000   0.0000   0.0000
     0.0000   0.0000   0.0000   0.0000   0.0000   0.0000   0.0000   0.0000
     0.0000   0.0000   0.0000   0.0000   0.0000   0.0000   0.0000   0.0000
     0.0000   0.0000   0.0000   0.0000   0.0000   0.0000   0.0000   0.0000
     0.0000   0.0000   0.0000   0.0000   0.0000   0.0000   0.0000   0.0000
     0.0000   0.0000   0.0000   0.0000   0.0000   0.0000   0.0000   0.0000

          k = 0.1667-0.2887 0.0000 ( 88188 PWs)   bands (ev):

   -95.5407 -95.5347 -95.5297 -95.5290 -95.5286 -95.5241 -95.5221 -95.5215
   -95.5093 -95.5045 -95.5042 -95.5024 -95.5000 -95.4996 -95.4965 -95.4962
   -95.4936 -95.3953 -95.1408 -95.1344 -95.1339 -95.1009 -95.0938 -95.0920
   -95.0892 -95.0830 -95.0806 -95.0775 -95.0762 -95.0752 -95.0716 -95.0676
   -95.0671 -94.8946 -94.8922 -94.8903 -49.8350 -49.8287 -49.8166 -49.8079
   -49.8031 -49.7959 -49.7881 -49.7853 -49.7792 -49.7718 -49.7688 -49.7643
   -49.7612 -49.7523 -49.7419 -49.7129 -49.7080 -49.7021 -49.6880 -49.6843
   -49.6802 -49.6760 -49.6735 -49.6673 -49.6582 -49.6481 -49.6430 -49.6311
   -49.6262 -49.6209 -49.6185 -49.6156 -49.6136 -49.6069 -49.6033 -49.5991
   -49.5948 -49.5919 -49.5879 -49.5846 -49.5803 -49.5761 -49.5744 -49.5694
   -49.5668 -49.5620 -49.5575 -49.5470 -49.5401 -49.5350 -49.5275 -49.4952
   -49.4830 -49.4733 -49.4688 -49.4607 -49.4549 -49.4409 -49.4387 -49.4257
   -49.4223 -49.4182 -49.4105 -49.3930 -49.3921 -49.3898 -49.3652 -49.3308
   -49.3260 -49.3246 -49.3229 -49.3061 -49.2992 -49.2791 -49.2597 -49.2520
   -49.2509 -49.2502 -49.2497 -49.2475 -49.2177 -49.2169 -49.2028 -49.1834
   -49.1687 -49.1338 -49.1214 -49.1029 -49.0879 -49.0774 -49.0501 -49.0400
   -49.0389 -49.0216 -49.0199 -49.0104 -49.0100 -49.0085 -49.0067 -49.0018
   -48.9999 -48.9982 -48.9942 -48.9886 -48.9880 -48.8092 -48.8039 -48.8014
   -15.0429  -5.8935  -4.5991  -4.3796  -4.3346  -3.5066  -3.4560  -3.4305
    -3.4161  -3.4135  -3.3999  -3.3393  -3.2648  -3.1687  -3.1536  -2.8770
    -2.8594  -2.7290  -2.7175  -2.5809  -2.5685  -2.5472  -2.5373  -2.5304
    -2.5066  -2.4546  -2.4387  -2.4064  -2.3576  -2.3474  -2.3124  -2.2543
    -2.2357  -2.2136  -2.1753  -2.1027  -2.0260  -1.8939  -1.8488  -1.7906
    -1.7714  -1.7187  -1.6695  -1.6385  -1.6237  -1.5813  -1.5405  -1.4534
    -1.4197  -1.3295  -1.3140  -1.3044  -1.2384  -1.2268  -1.1921  -1.1182
    -1.0714  -0.9085  -0.8734  -0.8457  -0.8348  -0.8236  -0.7674  -0.7411
    -0.7280  -0.7154  -0.6436  -0.6334  -0.5535  -0.5415  -0.5296  -0.5142
    -0.5066  -0.3930  -0.3687  -0.3388  -0.3244  -0.3023  -0.2581  -0.2119
    -0.2035  -0.1825  -0.1725  -0.1688  -0.1563  -0.1251  -0.1176  -0.1034
    -0.0422  -0.0378   0.0207   0.0285   0.0398   0.0399   0.0454   0.0758
     0.0971   0.1238   0.1290   0.1720   0.1882   0.1949   0.2074   0.2290
     0.2499   0.2648   0.2744   0.3359   0.3484   0.3612   0.3920   0.4829
     0.5118   0.5254   0.5408   0.5960   0.6038   0.7614   0.8424   0.8603
     0.8716   0.9198   0.9403   0.9831   1.0100   1.0261   1.0420   1.0512
     1.0685   1.1661   1.1787   1.2653   1.3458   1.4034   1.4083   1.4471
     1.4695   1.5084   1.5338   1.5509   1.5606   1.6860   1.7246   1.7275
     1.7461   1.7727   1.7820   1.8314   1.8395   1.8679   1.8754   1.9093
     1.9310   1.9723   1.9832   1.9949   2.0125   2.0190   2.0609   2.1074
     2.1297   2.1651   2.3253   2.3712   2.3899   2.4649   2.4899   2.5125
     2.5259   2.5940   2.6133   2.6173   2.6275   2.6446   2.6766   2.6828
     2.7178   2.7303   2.7329   2.8417   2.8538   2.8615   2.8786   2.9027
     2.9089   2.9190   2.9304   2.9790   3.0888   3.1034   3.1103   3.1683
     3.1851   3.2039   3.2357   3.3221   3.3405   3.5669   3.5718   3.6480
     3.9856   3.9954   4.2850   4.3089   4.9261   4.9967   5.0126   5.3457
     5.3531   5.7902   6.4593   6.4800   6.5930   6.7818   6.9541   7.2200
     7.2507   7.6595   7.7652   7.7885   7.8370   7.9729   8.8022   8.8189
     8.8696   8.9109   8.9654   9.1888   9.2405   9.3726   9.4553   9.6053
     9.6306   9.6544   9.9221   9.9865  10.0277  10.4051  10.4327  10.4807
    10.5006  10.5177  10.5693  10.9024  11.0071  11.0167  11.0633  11.0950

     occupation numbers 
     1.0000   1.0000   1.0000   1.0000   1.0000   1.0000   1.0000   1.0000
     1.0000   1.0000   1.0000   1.0000   1.0000   1.0000   1.0000   1.0000
     1.0000   1.0000   1.0000   1.0000   1.0000   1.0000   1.0000   1.0000
     1.0000   1.0000   1.0000   1.0000   1.0000   1.0000   1.0000   1.0000
     1.0000   1.0000   1.0000   1.0000   1.0000   1.0000   1.0000   1.0000
     1.0000   1.0000   1.0000   1.0000   1.0000   1.0000   1.0000   1.0000
     1.0000   1.0000   1.0000   1.0000   1.0000   1.0000   1.0000   1.0000
     1.0000   1.0000   1.0000   1.0000   1.0000   1.0000   1.0000   1.0000
     1.0000   1.0000   1.0000   1.0000   1.0000   1.0000   1.0000   1.0000
     1.0000   1.0000   1.0000   1.0000   1.0000   1.0000   1.0000   1.0000
     1.0000   1.0000   1.0000   1.0000   1.0000   1.0000   1.0000   1.0000
     1.0000   1.0000   1.0000   1.0000   1.0000   1.0000   1.0000   1.0000
     1.0000   1.0000   1.0000   1.0000   1.0000   1.0000   1.0000   1.0000
     1.0000   1.0000   1.0000   1.0000   1.0000   1.0000   1.0000   1.0000
     1.0000   1.0000   1.0000   1.0000   1.0000   1.0000   1.0000   1.0000
     1.0000   1.0000   1.0000   1.0000   1.0000   1.0000   1.0000   1.0000
     1.0000   1.0000   1.0000   1.0000   1.0000   1.0000   1.0000   1.0000
     1.0000   1.0000   1.0000   1.0000   1.0000   1.0000   1.0000   1.0000
     1.0000   1.0000   1.0000   1.0000   1.0000   1.0000   1.0000   1.0000
     1.0000   1.0000   1.0000   1.0000   1.0000   1.0000   1.0000   1.0000
     1.0000   1.0000   1.0000   1.0000   1.0000   1.0000   1.0000   1.0000
     1.0000   1.0000   1.0000   1.0000   1.0000   1.0000   1.0000   1.0000
     1.0000   1.0000   1.0000   1.0000   1.0000   1.0000   1.0000   1.0000
     1.0000   1.0000   1.0000   1.0000   1.0000   1.0000   1.0000   1.0000
     1.0000   1.0000   1.0000   1.0000   1.0000   1.0000   1.0000   1.0000
     1.0000   1.0000   1.0000   1.0000   1.0000   1.0000   1.0000   1.0000
     1.0000   1.0000   1.0000   1.0000   1.0000   1.0000   1.0000   1.0000
     1.0000   1.0000   1.0000   1.0000   1.0000   1.0000   1.0000   1.0000
     1.0000   1.0000   1.0000   1.0000   1.0000   1.0000   1.0000   1.0000
     1.0000   1.0000   1.0000   1.0000   1.0000   1.0000   1.0000   1.0000
     1.0000   1.0000   1.0000   1.0000   1.0000   1.0000   1.0000   1.0000
     1.0000   1.0000   1.0000   1.0000   1.0000   1.0000   1.0000   1.0000
     1.0000   1.0000   1.0000   1.0000   1.0000   1.0000   1.0000   1.0000
     1.0000   1.0000   1.0000   1.0000   1.0000   1.0000   1.0000   1.0000
     1.0000   1.0000   1.0000   1.0000   1.0000   1.0000   1.0000   1.0000
     1.0000   1.0000   1.0000   1.0000   1.0000   1.0000   1.0000   1.0000
     1.0000   1.0000   1.0000   1.0000   1.0000   1.0000   1.0000   1.0000
     1.0000   1.0000   1.0000   1.0000   1.0000   1.0000   1.0000   1.0000
     1.0000   1.0000   1.0000   1.0000   1.0000   0.9999   0.9998   0.9997
     0.9996   0.9986   0.9980   0.9978   0.9973   0.9962   0.9929   0.9919
     0.9839   0.9794   0.9783   0.8367   0.8010   0.7752   0.7102   0.6017
     0.5721   0.5221   0.4651   0.2476   0.0353   0.0266   0.0232   0.0074
     0.0053   0.0036   0.0019   0.0003   0.0002   0.0000   0.0000   0.0000
     0.0000   0.0000   0.0000   0.0000   0.0000   0.0000   0.0000   0.0000
     0.0000   0.0000   0.0000   0.0000   0.0000   0.0000   0.0000   0.0000
     0.0000   0.0000   0.0000   0.0000   0.0000   0.0000   0.0000   0.0000
     0.0000   0.0000   0.0000   0.0000   0.0000   0.0000   0.0000   0.0000
     0.0000   0.0000   0.0000   0.0000   0.0000   0.0000   0.0000   0.0000
     0.0000   0.0000   0.0000   0.0000   0.0000   0.0000   0.0000   0.0000

          k = 0.3333-0.1925 0.0000 ( 88170 PWs)   bands (ev):

   -95.5404 -95.5350 -95.5295 -95.5291 -95.5287 -95.5242 -95.5223 -95.5211
   -95.5093 -95.5045 -95.5043 -95.5023 -95.5000 -95.4997 -95.4965 -95.4959
   -95.4938 -95.3953 -95.1407 -95.1346 -95.1338 -95.1009 -95.0939 -95.0919
   -95.0888 -95.0838 -95.0802 -95.0781 -95.0758 -95.0752 -95.0714 -95.0676
   -95.0672 -94.8947 -94.8921 -94.8903 -49.8431 -49.8238 -49.8185 -49.8136
   -49.7998 -49.7973 -49.7943 -49.7930 -49.7836 -49.7753 -49.7746 -49.7682
   -49.7541 -49.7425 -49.7263 -49.7252 -49.7001 -49.6975 -49.6813 -49.6788
   -49.6732 -49.6705 -49.6702 -49.6682 -49.6557 -49.6554 -49.6365 -49.6317
   -49.6282 -49.6229 -49.6151 -49.6141 -49.6133 -49.6064 -49.6005 -49.5997
   -49.5934 -49.5921 -49.5907 -49.5876 -49.5808 -49.5800 -49.5727 -49.5719
   -49.5682 -49.5616 -49.5573 -49.5500 -49.5477 -49.5379 -49.5241 -49.5004
   -49.4834 -49.4776 -49.4669 -49.4663 -49.4515 -49.4482 -49.4283 -49.4272
   -49.4236 -49.4229 -49.4194 -49.4192 -49.3794 -49.3602 -49.3527 -49.3524
   -49.3188 -49.3184 -49.3037 -49.3019 -49.2977 -49.2811 -49.2615 -49.2612
   -49.2588 -49.2509 -49.2483 -49.2345 -49.2339 -49.2112 -49.2074 -49.1854
   -49.1657 -49.1330 -49.1203 -49.1039 -49.0939 -49.0772 -49.0499 -49.0406
   -49.0385 -49.0213 -49.0193 -49.0115 -49.0103 -49.0084 -49.0057 -49.0033
   -48.9989 -48.9980 -48.9939 -48.9886 -48.9882 -48.8092 -48.8038 -48.8014
   -15.0429  -5.7939  -4.7335  -4.4990  -3.8751  -3.8743  -3.5821  -3.4703
    -3.4054  -3.3356  -3.2706  -3.2333  -3.2314  -3.0073  -2.9754  -2.9232
    -2.9164  -2.8157  -2.6797  -2.6240  -2.5858  -2.5838  -2.5484  -2.5424
    -2.5225  -2.5137  -2.4699  -2.4394  -2.3588  -2.3355  -2.3201  -2.3061
    -2.1038  -2.0999  -2.0589  -2.0449  -2.0185  -2.0152  -1.8210  -1.8151
    -1.7392  -1.7203  -1.6882  -1.6185  -1.5724  -1.5717  -1.5468  -1.5179
    -1.3830  -1.3782  -1.3210  -1.2953  -1.2790  -1.2744  -1.1869  -1.1570
    -1.1294  -1.0210  -0.9379  -0.9344  -0.9143  -0.8013  -0.7680  -0.7394
    -0.7357  -0.7002  -0.6947  -0.6750  -0.6073  -0.4825  -0.4677  -0.4531
    -0.4439  -0.4125  -0.3888  -0.3799  -0.3446  -0.3120  -0.3104  -0.2468
    -0.2452  -0.2272  -0.2140  -0.1940  -0.1860  -0.1799  -0.1746  -0.1315
    -0.1211  -0.0883  -0.0594  -0.0344  -0.0274   0.0032   0.0222   0.0398
     0.0400   0.1153   0.1356   0.1390   0.1605   0.1672   0.2102   0.2736
     0.2766   0.2936   0.2985   0.3304   0.3967   0.4766   0.4829   0.5388
     0.5471   0.5913   0.6048   0.6862   0.7172   0.8624   0.8853   0.8874
     0.9104   0.9121   0.9302   0.9392   0.9600   0.9617   1.0429   1.0539
     1.0833   1.0864   1.1186   1.1680   1.2357   1.2696   1.2900   1.3234
     1.4576   1.4701   1.4919   1.5010   1.5123   1.5243   1.6790   1.7461
     1.7545   1.7723   1.7733   1.8066   1.8182   1.8509   1.8898   1.9060
     1.9651   1.9827   2.0269   2.0914   2.1044   2.1075   2.1192   2.1273
     2.1498   2.1716   2.3241   2.3633   2.3828   2.4100   2.4256   2.4270
     2.4537   2.5250   2.5428   2.5899   2.6314   2.6347   2.6449   2.6516
     2.7535   2.7738   2.7805   2.8316   2.8394   2.8677   2.8776   2.8961
     2.9222   2.9604   3.0465   3.0898   3.1093   3.1159   3.1306   3.1325
     3.3022   3.3120   3.3503   3.7156   3.7288   3.7986   3.7991   3.8148
     4.0907   4.1202   4.2728   4.9959   5.0461   5.1264   5.1481   5.2160
     5.7897   5.7926   5.8205   5.8233   6.5378   6.5612   7.0146   7.1848
     7.2765   7.2828   7.7307   7.7552   8.2113   8.2265   8.5446   8.5465
     8.5793   8.9389   9.0864   9.1538   9.1727   9.4475   9.4531   9.5496
     9.5553   9.7009   9.9136   9.9863  10.1413  10.1896  10.2569  10.2764
    10.4032  10.4455  10.5538  10.6880  11.0207  11.1293  11.1793  11.2016

     occupation numbers 
     1.0000   1.0000   1.0000   1.0000   1.0000   1.0000   1.0000   1.0000
     1.0000   1.0000   1.0000   1.0000   1.0000   1.0000   1.0000   1.0000
     1.0000   1.0000   1.0000   1.0000   1.0000   1.0000   1.0000   1.0000
     1.0000   1.0000   1.0000   1.0000   1.0000   1.0000   1.0000   1.0000
     1.0000   1.0000   1.0000   1.0000   1.0000   1.0000   1.0000   1.0000
     1.0000   1.0000   1.0000   1.0000   1.0000   1.0000   1.0000   1.0000
     1.0000   1.0000   1.0000   1.0000   1.0000   1.0000   1.0000   1.0000
     1.0000   1.0000   1.0000   1.0000   1.0000   1.0000   1.0000   1.0000
     1.0000   1.0000   1.0000   1.0000   1.0000   1.0000   1.0000   1.0000
     1.0000   1.0000   1.0000   1.0000   1.0000   1.0000   1.0000   1.0000
     1.0000   1.0000   1.0000   1.0000   1.0000   1.0000   1.0000   1.0000
     1.0000   1.0000   1.0000   1.0000   1.0000   1.0000   1.0000   1.0000
     1.0000   1.0000   1.0000   1.0000   1.0000   1.0000   1.0000   1.0000
     1.0000   1.0000   1.0000   1.0000   1.0000   1.0000   1.0000   1.0000
     1.0000   1.0000   1.0000   1.0000   1.0000   1.0000   1.0000   1.0000
     1.0000   1.0000   1.0000   1.0000   1.0000   1.0000   1.0000   1.0000
     1.0000   1.0000   1.0000   1.0000   1.0000   1.0000   1.0000   1.0000
     1.0000   1.0000   1.0000   1.0000   1.0000   1.0000   1.0000   1.0000
     1.0000   1.0000   1.0000   1.0000   1.0000   1.0000   1.0000   1.0000
     1.0000   1.0000   1.0000   1.0000   1.0000   1.0000   1.0000   1.0000
     1.0000   1.0000   1.0000   1.0000   1.0000   1.0000   1.0000   1.0000
     1.0000   1.0000   1.0000   1.0000   1.0000   1.0000   1.0000   1.0000
     1.0000   1.0000   1.0000   1.0000   1.0000   1.0000   1.0000   1.0000
     1.0000   1.0000   1.0000   1.0000   1.0000   1.0000   1.0000   1.0000
     1.0000   1.0000   1.0000   1.0000   1.0000   1.0000   1.0000   1.0000
     1.0000   1.0000   1.0000   1.0000   1.0000   1.0000   1.0000   1.0000
     1.0000   1.0000   1.0000   1.0000   1.0000   1.0000   1.0000   1.0000
     1.0000   1.0000   1.0000   1.0000   1.0000   1.0000   1.0000   1.0000
     1.0000   1.0000   1.0000   1.0000   1.0000   1.0000   1.0000   1.0000
     1.0000   1.0000   1.0000   1.0000   1.0000   1.0000   1.0000   1.0000
     1.0000   1.0000   1.0000   1.0000   1.0000   1.0000   1.0000   1.0000
     1.0000   1.0000   1.0000   1.0000   1.0000   1.0000   1.0000   1.0000
     1.0000   1.0000   1.0000   1.0000   1.0000   1.0000   1.0000   1.0000
     1.0000   1.0000   1.0000   1.0000   1.0000   1.0000   1.0000   1.0000
     1.0000   1.0000   1.0000   1.0000   1.0000   1.0000   1.0000   1.0000
     1.0000   1.0000   1.0000   1.0000   1.0000   1.0000   1.0000   1.0000
     1.0000   1.0000   1.0000   1.0000   1.0000   1.0000   1.0000   1.0000
     1.0000   1.0000   1.0000   1.0000   1.0000   1.0000   1.0000   1.0000
     1.0000   1.0000   1.0000   1.0000   1.0000   1.0000   1.0000   1.0000
     0.9999   0.9997   0.9995   0.9987   0.9971   0.9969   0.9962   0.9957
     0.9676   0.9522   0.9458   0.8625   0.8429   0.7527   0.7141   0.6329
     0.5061   0.3230   0.0785   0.0346   0.0237   0.0208   0.0156   0.0150
     0.0005   0.0004   0.0002   0.0000   0.0000   0.0000   0.0000   0.0000
     0.0000   0.0000   0.0000   0.0000   0.0000   0.0000   0.0000   0.0000
     0.0000   0.0000   0.0000   0.0000   0.0000   0.0000   0.0000   0.0000
     0.0000   0.0000   0.0000   0.0000   0.0000   0.0000   0.0000   0.0000
     0.0000   0.0000   0.0000   0.0000   0.0000   0.0000   0.0000   0.0000
     0.0000   0.0000   0.0000   0.0000   0.0000   0.0000   0.0000   0.0000
     0.0000   0.0000   0.0000   0.0000   0.0000   0.0000   0.0000   0.0000

          k = 0.3333 0.0000 0.0000 ( 88188 PWs)   bands (ev):

   -95.5407 -95.5347 -95.5297 -95.5290 -95.5287 -95.5241 -95.5224 -95.5212
   -95.5093 -95.5044 -95.5043 -95.5023 -95.5001 -95.4996 -95.4965 -95.4962
   -95.4936 -95.3953 -95.1408 -95.1345 -95.1337 -95.1009 -95.0939 -95.0919
   -95.0892 -95.0830 -95.0807 -95.0773 -95.0763 -95.0753 -95.0716 -95.0675
   -95.0672 -94.8946 -94.8921 -94.8903 -49.8341 -49.8281 -49.8171 -49.8079
   -49.8037 -49.7959 -49.7879 -49.7849 -49.7796 -49.7718 -49.7693 -49.7647
   -49.7611 -49.7525 -49.7423 -49.7137 -49.7074 -49.7018 -49.6882 -49.6845
   -49.6804 -49.6760 -49.6735 -49.6673 -49.6582 -49.6479 -49.6426 -49.6308
   -49.6260 -49.6211 -49.6185 -49.6155 -49.6134 -49.6071 -49.6031 -49.5992
   -49.5948 -49.5917 -49.5876 -49.5845 -49.5804 -49.5761 -49.5747 -49.5690
   -49.5674 -49.5625 -49.5565 -49.5466 -49.5405 -49.5352 -49.5281 -49.4947
   -49.4836 -49.4729 -49.4688 -49.4608 -49.4552 -49.4408 -49.4387 -49.4258
   -49.4225 -49.4183 -49.4103 -49.3933 -49.3925 -49.3901 -49.3647 -49.3310
   -49.3259 -49.3245 -49.3228 -49.3057 -49.2993 -49.2788 -49.2598 -49.2521
   -49.2508 -49.2507 -49.2498 -49.2473 -49.2177 -49.2170 -49.2025 -49.1836
   -49.1686 -49.1335 -49.1216 -49.1032 -49.0879 -49.0773 -49.0501 -49.0404
   -49.0385 -49.0216 -49.0199 -49.0105 -49.0099 -49.0084 -49.0068 -49.0016
   -49.0000 -48.9982 -48.9941 -48.9885 -48.9881 -48.8092 -48.8038 -48.8015
   -15.0429  -5.8936  -4.5991  -4.3797  -4.3352  -3.5067  -3.4545  -3.4305
    -3.4165  -3.4136  -3.3998  -3.3390  -3.2647  -3.1685  -3.1536  -2.8785
    -2.8610  -2.7284  -2.7171  -2.5825  -2.5691  -2.5468  -2.5370  -2.5305
    -2.5070  -2.4537  -2.4380  -2.4058  -2.3573  -2.3463  -2.3121  -2.2539
    -2.2361  -2.2139  -2.1763  -2.1021  -2.0283  -1.8928  -1.8486  -1.7905
    -1.7700  -1.7185  -1.6691  -1.6386  -1.6229  -1.5817  -1.5412  -1.4531
    -1.4196  -1.3289  -1.3142  -1.3039  -1.2375  -1.2272  -1.1924  -1.1178
    -1.0714  -0.9070  -0.8725  -0.8445  -0.8327  -0.8221  -0.7670  -0.7427
    -0.7270  -0.7154  -0.6436  -0.6333  -0.5559  -0.5420  -0.5311  -0.5149
    -0.5080  -0.3908  -0.3677  -0.3384  -0.3250  -0.3040  -0.2573  -0.2135
    -0.2036  -0.1828  -0.1730  -0.1680  -0.1574  -0.1244  -0.1193  -0.1040
    -0.0422  -0.0381   0.0208   0.0292   0.0398   0.0399   0.0462   0.0764
     0.0968   0.1236   0.1291   0.1718   0.1888   0.1939   0.2065   0.2286
     0.2502   0.2642   0.2744   0.3362   0.3474   0.3620   0.3919   0.4830
     0.5116   0.5251   0.5412   0.5955   0.6033   0.7613   0.8432   0.8587
     0.8720   0.9181   0.9408   0.9834   1.0104   1.0258   1.0411   1.0515
     1.0679   1.1659   1.1774   1.2693   1.3422   1.4032   1.4086   1.4462
     1.4689   1.5086   1.5336   1.5507   1.5603   1.6861   1.7242   1.7274
     1.7465   1.7721   1.7821   1.8321   1.8400   1.8689   1.8766   1.9096
     1.9310   1.9736   1.9839   1.9951   2.0131   2.0205   2.0606   2.1068
     2.1306   2.1630   2.3246   2.3699   2.3892   2.4647   2.4894   2.5129
     2.5265   2.5938   2.6130   2.6166   2.6278   2.6458   2.6770   2.6828
     2.7167   2.7294   2.7318   2.8419   2.8526   2.8631   2.8777   2.9026
     2.9082   2.9191   2.9305   2.9786   3.0889   3.1049   3.1108   3.1700
     3.1869   3.2039   3.2352   3.3232   3.3411   3.5667   3.5714   3.6470
     3.9866   3.9966   4.2862   4.3099   4.9247   4.9963   5.0121   5.3458
     5.3525   5.7905   6.4615   6.4812   6.5934   6.7815   6.9532   7.2198
     7.2502   7.6596   7.7640   7.7870   7.8361   7.9709   8.8017   8.8179
     8.8701   8.9151   8.9636   9.1890   9.2406   9.3765   9.4595   9.6056
     9.6303   9.6542   9.9223   9.9867  10.0279  10.4098  10.4316  10.4807
    10.5002  10.5162  10.5661  10.9026  11.0065  11.0158  11.0618  11.0920

     occupation numbers 
     1.0000   1.0000   1.0000   1.0000   1.0000   1.0000   1.0000   1.0000
     1.0000   1.0000   1.0000   1.0000   1.0000   1.0000   1.0000   1.0000
     1.0000   1.0000   1.0000   1.0000   1.0000   1.0000   1.0000   1.0000
     1.0000   1.0000   1.0000   1.0000   1.0000   1.0000   1.0000   1.0000
     1.0000   1.0000   1.0000   1.0000   1.0000   1.0000   1.0000   1.0000
     1.0000   1.0000   1.0000   1.0000   1.0000   1.0000   1.0000   1.0000
     1.0000   1.0000   1.0000   1.0000   1.0000   1.0000   1.0000   1.0000
     1.0000   1.0000   1.0000   1.0000   1.0000   1.0000   1.0000   1.0000
     1.0000   1.0000   1.0000   1.0000   1.0000   1.0000   1.0000   1.0000
     1.0000   1.0000   1.0000   1.0000   1.0000   1.0000   1.0000   1.0000
     1.0000   1.0000   1.0000   1.0000   1.0000   1.0000   1.0000   1.0000
     1.0000   1.0000   1.0000   1.0000   1.0000   1.0000   1.0000   1.0000
     1.0000   1.0000   1.0000   1.0000   1.0000   1.0000   1.0000   1.0000
     1.0000   1.0000   1.0000   1.0000   1.0000   1.0000   1.0000   1.0000
     1.0000   1.0000   1.0000   1.0000   1.0000   1.0000   1.0000   1.0000
     1.0000   1.0000   1.0000   1.0000   1.0000   1.0000   1.0000   1.0000
     1.0000   1.0000   1.0000   1.0000   1.0000   1.0000   1.0000   1.0000
     1.0000   1.0000   1.0000   1.0000   1.0000   1.0000   1.0000   1.0000
     1.0000   1.0000   1.0000   1.0000   1.0000   1.0000   1.0000   1.0000
     1.0000   1.0000   1.0000   1.0000   1.0000   1.0000   1.0000   1.0000
     1.0000   1.0000   1.0000   1.0000   1.0000   1.0000   1.0000   1.0000
     1.0000   1.0000   1.0000   1.0000   1.0000   1.0000   1.0000   1.0000
     1.0000   1.0000   1.0000   1.0000   1.0000   1.0000   1.0000   1.0000
     1.0000   1.0000   1.0000   1.0000   1.0000   1.0000   1.0000   1.0000
     1.0000   1.0000   1.0000   1.0000   1.0000   1.0000   1.0000   1.0000
     1.0000   1.0000   1.0000   1.0000   1.0000   1.0000   1.0000   1.0000
     1.0000   1.0000   1.0000   1.0000   1.0000   1.0000   1.0000   1.0000
     1.0000   1.0000   1.0000   1.0000   1.0000   1.0000   1.0000   1.0000
     1.0000   1.0000   1.0000   1.0000   1.0000   1.0000   1.0000   1.0000
     1.0000   1.0000   1.0000   1.0000   1.0000   1.0000   1.0000   1.0000
     1.0000   1.0000   1.0000   1.0000   1.0000   1.0000   1.0000   1.0000
     1.0000   1.0000   1.0000   1.0000   1.0000   1.0000   1.0000   1.0000
     1.0000   1.0000   1.0000   1.0000   1.0000   1.0000   1.0000   1.0000
     1.0000   1.0000   1.0000   1.0000   1.0000   1.0000   1.0000   1.0000
     1.0000   1.0000   1.0000   1.0000   1.0000   1.0000   1.0000   1.0000
     1.0000   1.0000   1.0000   1.0000   1.0000   1.0000   1.0000   1.0000
     1.0000   1.0000   1.0000   1.0000   1.0000   1.0000   1.0000   1.0000
     1.0000   1.0000   1.0000   1.0000   1.0000   1.0000   1.0000   1.0000
     1.0000   1.0000   1.0000   1.0000   1.0000   0.9999   0.9998   0.9997
     0.9996   0.9986   0.9980   0.9978   0.9973   0.9961   0.9928   0.9919
     0.9842   0.9798   0.9788   0.8363   0.8045   0.7695   0.7138   0.6023
     0.5755   0.5212   0.4643   0.2490   0.0352   0.0258   0.0230   0.0072
     0.0051   0.0036   0.0020   0.0003   0.0002   0.0000   0.0000   0.0000
     0.0000   0.0000   0.0000   0.0000   0.0000   0.0000   0.0000   0.0000
     0.0000   0.0000   0.0000   0.0000   0.0000   0.0000   0.0000   0.0000
     0.0000   0.0000   0.0000   0.0000   0.0000   0.0000   0.0000   0.0000
     0.0000   0.0000   0.0000   0.0000   0.0000   0.0000   0.0000   0.0000
     0.0000   0.0000   0.0000   0.0000   0.0000   0.0000   0.0000   0.0000
     0.0000   0.0000   0.0000   0.0000   0.0000   0.0000   0.0000   0.0000

          k = 0.3333 0.1925 0.0000 ( 88170 PWs)   bands (ev):

   -95.5404 -95.5350 -95.5295 -95.5291 -95.5287 -95.5242 -95.5223 -95.5211
   -95.5093 -95.5045 -95.5043 -95.5023 -95.5001 -95.4997 -95.4965 -95.4959
   -95.4938 -95.3953 -95.1407 -95.1346 -95.1338 -95.1009 -95.0939 -95.0919
   -95.0888 -95.0838 -95.0803 -95.0781 -95.0758 -95.0752 -95.0714 -95.0676
   -95.0673 -94.8947 -94.8921 -94.8903 -49.8431 -49.8238 -49.8185 -49.8136
   -49.7998 -49.7972 -49.7944 -49.7930 -49.7836 -49.7753 -49.7746 -49.7681
   -49.7541 -49.7426 -49.7263 -49.7252 -49.7001 -49.6975 -49.6813 -49.6789
   -49.6732 -49.6705 -49.6702 -49.6682 -49.6557 -49.6554 -49.6365 -49.6316
   -49.6282 -49.6229 -49.6151 -49.6141 -49.6134 -49.6064 -49.6005 -49.5997
   -49.5934 -49.5921 -49.5907 -49.5876 -49.5808 -49.5799 -49.5727 -49.5719
   -49.5682 -49.5616 -49.5573 -49.5500 -49.5477 -49.5379 -49.5241 -49.5003
   -49.4834 -49.4776 -49.4669 -49.4663 -49.4515 -49.4482 -49.4283 -49.4272
   -49.4236 -49.4229 -49.4194 -49.4192 -49.3794 -49.3602 -49.3527 -49.3524
   -49.3188 -49.3184 -49.3037 -49.3019 -49.2977 -49.2811 -49.2615 -49.2612
   -49.2588 -49.2509 -49.2483 -49.2345 -49.2338 -49.2112 -49.2075 -49.1854
   -49.1657 -49.1330 -49.1203 -49.1039 -49.0939 -49.0772 -49.0499 -49.0406
   -49.0385 -49.0213 -49.0193 -49.0115 -49.0103 -49.0084 -49.0057 -49.0033
   -48.9989 -48.9980 -48.9939 -48.9886 -48.9882 -48.8092 -48.8038 -48.8014
   -15.0429  -5.7939  -4.7335  -4.4990  -3.8751  -3.8743  -3.5821  -3.4704
    -3.4054  -3.3356  -3.2706  -3.2333  -3.2314  -3.0073  -2.9754  -2.9233
    -2.9164  -2.8157  -2.6797  -2.6240  -2.5858  -2.5838  -2.5484  -2.5424
    -2.5225  -2.5137  -2.4699  -2.4394  -2.3588  -2.3355  -2.3201  -2.3061
    -2.1039  -2.0999  -2.0589  -2.0449  -2.0184  -2.0152  -1.8210  -1.8151
    -1.7392  -1.7203  -1.6882  -1.6185  -1.5724  -1.5717  -1.5468  -1.5179
    -1.3829  -1.3782  -1.3210  -1.2953  -1.2790  -1.2744  -1.1869  -1.1569
    -1.1294  -1.0210  -0.9378  -0.9343  -0.9142  -0.8013  -0.7680  -0.7395
    -0.7357  -0.7002  -0.6947  -0.6750  -0.6073  -0.4825  -0.4678  -0.4531
    -0.4439  -0.4124  -0.3889  -0.3799  -0.3445  -0.3120  -0.3104  -0.2468
    -0.2452  -0.2272  -0.2140  -0.1939  -0.1860  -0.1799  -0.1746  -0.1315
    -0.1211  -0.0883  -0.0594  -0.0344  -0.0274   0.0033   0.0222   0.0398
     0.0400   0.1153   0.1356   0.1390   0.1605   0.1672   0.2102   0.2736
     0.2765   0.2936   0.2985   0.3304   0.3967   0.4766   0.4830   0.5388
     0.5471   0.5913   0.6048   0.6862   0.7172   0.8624   0.8853   0.8874
     0.9104   0.9121   0.9302   0.9392   0.9601   0.9617   1.0429   1.0539
     1.0833   1.0864   1.1186   1.1680   1.2358   1.2695   1.2900   1.3234
     1.4576   1.4701   1.4918   1.5010   1.5123   1.5243   1.6790   1.7461
     1.7546   1.7724   1.7734   1.8066   1.8182   1.8509   1.8899   1.9061
     1.9651   1.9828   2.0269   2.0914   2.1044   2.1075   2.1192   2.1273
     2.1498   2.1717   2.3241   2.3633   2.3828   2.4099   2.4255   2.4270
     2.4537   2.5250   2.5429   2.5899   2.6314   2.6347   2.6449   2.6516
     2.7535   2.7738   2.7804   2.8315   2.8394   2.8677   2.8776   2.8962
     2.9222   2.9604   3.0465   3.0898   3.1093   3.1159   3.1307   3.1325
     3.3022   3.3119   3.3503   3.7157   3.7288   3.7986   3.7991   3.8148
     4.0907   4.1202   4.2729   4.9959   5.0461   5.1263   5.1481   5.2160
     5.7897   5.7927   5.8206   5.8233   6.5378   6.5612   7.0147   7.1848
     7.2765   7.2828   7.7306   7.7552   8.2112   8.2265   8.5446   8.5465
     8.5793   8.9389   9.0864   9.1538   9.1727   9.4475   9.4531   9.5496
     9.5553   9.7009   9.9135   9.9863  10.1413  10.1896  10.2569  10.2764
    10.4032  10.4455  10.5538  10.6880  11.0208  11.1293  11.1793  11.2016

     occupation numbers 
     1.0000   1.0000   1.0000   1.0000   1.0000   1.0000   1.0000   1.0000
     1.0000   1.0000   1.0000   1.0000   1.0000   1.0000   1.0000   1.0000
     1.0000   1.0000   1.0000   1.0000   1.0000   1.0000   1.0000   1.0000
     1.0000   1.0000   1.0000   1.0000   1.0000   1.0000   1.0000   1.0000
     1.0000   1.0000   1.0000   1.0000   1.0000   1.0000   1.0000   1.0000
     1.0000   1.0000   1.0000   1.0000   1.0000   1.0000   1.0000   1.0000
     1.0000   1.0000   1.0000   1.0000   1.0000   1.0000   1.0000   1.0000
     1.0000   1.0000   1.0000   1.0000   1.0000   1.0000   1.0000   1.0000
     1.0000   1.0000   1.0000   1.0000   1.0000   1.0000   1.0000   1.0000
     1.0000   1.0000   1.0000   1.0000   1.0000   1.0000   1.0000   1.0000
     1.0000   1.0000   1.0000   1.0000   1.0000   1.0000   1.0000   1.0000
     1.0000   1.0000   1.0000   1.0000   1.0000   1.0000   1.0000   1.0000
     1.0000   1.0000   1.0000   1.0000   1.0000   1.0000   1.0000   1.0000
     1.0000   1.0000   1.0000   1.0000   1.0000   1.0000   1.0000   1.0000
     1.0000   1.0000   1.0000   1.0000   1.0000   1.0000   1.0000   1.0000
     1.0000   1.0000   1.0000   1.0000   1.0000   1.0000   1.0000   1.0000
     1.0000   1.0000   1.0000   1.0000   1.0000   1.0000   1.0000   1.0000
     1.0000   1.0000   1.0000   1.0000   1.0000   1.0000   1.0000   1.0000
     1.0000   1.0000   1.0000   1.0000   1.0000   1.0000   1.0000   1.0000
     1.0000   1.0000   1.0000   1.0000   1.0000   1.0000   1.0000   1.0000
     1.0000   1.0000   1.0000   1.0000   1.0000   1.0000   1.0000   1.0000
     1.0000   1.0000   1.0000   1.0000   1.0000   1.0000   1.0000   1.0000
     1.0000   1.0000   1.0000   1.0000   1.0000   1.0000   1.0000   1.0000
     1.0000   1.0000   1.0000   1.0000   1.0000   1.0000   1.0000   1.0000
     1.0000   1.0000   1.0000   1.0000   1.0000   1.0000   1.0000   1.0000
     1.0000   1.0000   1.0000   1.0000   1.0000   1.0000   1.0000   1.0000
     1.0000   1.0000   1.0000   1.0000   1.0000   1.0000   1.0000   1.0000
     1.0000   1.0000   1.0000   1.0000   1.0000   1.0000   1.0000   1.0000
     1.0000   1.0000   1.0000   1.0000   1.0000   1.0000   1.0000   1.0000
     1.0000   1.0000   1.0000   1.0000   1.0000   1.0000   1.0000   1.0000
     1.0000   1.0000   1.0000   1.0000   1.0000   1.0000   1.0000   1.0000
     1.0000   1.0000   1.0000   1.0000   1.0000   1.0000   1.0000   1.0000
     1.0000   1.0000   1.0000   1.0000   1.0000   1.0000   1.0000   1.0000
     1.0000   1.0000   1.0000   1.0000   1.0000   1.0000   1.0000   1.0000
     1.0000   1.0000   1.0000   1.0000   1.0000   1.0000   1.0000   1.0000
     1.0000   1.0000   1.0000   1.0000   1.0000   1.0000   1.0000   1.0000
     1.0000   1.0000   1.0000   1.0000   1.0000   1.0000   1.0000   1.0000
     1.0000   1.0000   1.0000   1.0000   1.0000   1.0000   1.0000   1.0000
     1.0000   1.0000   1.0000   1.0000   1.0000   1.0000   1.0000   1.0000
     0.9999   0.9997   0.9995   0.9987   0.9971   0.9969   0.9962   0.9957
     0.9676   0.9522   0.9458   0.8626   0.8429   0.7528   0.7141   0.6328
     0.5059   0.3229   0.0785   0.0346   0.0237   0.0208   0.0156   0.0150
     0.0005   0.0004   0.0002   0.0000   0.0000   0.0000   0.0000   0.0000
     0.0000   0.0000   0.0000   0.0000   0.0000   0.0000   0.0000   0.0000
     0.0000   0.0000   0.0000   0.0000   0.0000   0.0000   0.0000   0.0000
     0.0000   0.0000   0.0000   0.0000   0.0000   0.0000   0.0000   0.0000
     0.0000   0.0000   0.0000   0.0000   0.0000   0.0000   0.0000   0.0000
     0.0000   0.0000   0.0000   0.0000   0.0000   0.0000   0.0000   0.0000
     0.0000   0.0000   0.0000   0.0000   0.0000   0.0000   0.0000   0.0000

          k = 0.3333-0.7698 0.0000 ( 88140 PWs)   bands (ev):

   -95.5397 -95.5357 -95.5301 -95.5288 -95.5285 -95.5243 -95.5221 -95.5210
   -95.5093 -95.5045 -95.5044 -95.5022 -95.5004 -95.4997 -95.4960 -95.4954
   -95.4943 -95.3953 -95.1406 -95.1346 -95.1338 -95.1009 -95.0938 -95.0920
   -95.0877 -95.0849 -95.0814 -95.0771 -95.0757 -95.0751 -95.0713 -95.0678
   -95.0671 -94.8947 -94.8921 -94.8902 -49.8471 -49.8355 -49.8283 -49.8184
   -49.8084 -49.8022 -49.7951 -49.7867 -49.7804 -49.7748 -49.7726 -49.7687
   -49.7588 -49.7461 -49.7427 -49.6941 -49.6875 -49.6844 -49.6810 -49.6744
   -49.6715 -49.6655 -49.6599 -49.6525 -49.6468 -49.6436 -49.6377 -49.6326
   -49.6275 -49.6231 -49.6191 -49.6143 -49.6103 -49.6084 -49.6061 -49.6030
   -49.5992 -49.5930 -49.5892 -49.5877 -49.5831 -49.5788 -49.5740 -49.5715
   -49.5690 -49.5681 -49.5652 -49.5598 -49.5476 -49.5410 -49.5279 -49.5033
   -49.4877 -49.4809 -49.4725 -49.4650 -49.4586 -49.4543 -49.4429 -49.4366
   -49.4293 -49.4154 -49.4121 -49.4056 -49.3828 -49.3776 -49.3383 -49.3106
   -49.3101 -49.3027 -49.2974 -49.2951 -49.2823 -49.2771 -49.2744 -49.2691
   -49.2635 -49.2563 -49.2554 -49.2490 -49.2346 -49.2182 -49.2042 -49.1921
   -49.1575 -49.1338 -49.1187 -49.1085 -49.0981 -49.0813 -49.0494 -49.0408
   -49.0387 -49.0209 -49.0175 -49.0133 -49.0104 -49.0085 -49.0081 -49.0014
   -48.9987 -48.9978 -48.9935 -48.9891 -48.9881 -48.8092 -48.8038 -48.8014
   -15.0429  -5.5025  -4.9635  -4.4663  -4.2225  -3.7470  -3.3960  -3.3445
    -3.3335  -3.2281  -3.1890  -3.1301  -3.0773  -3.0154  -3.0027  -2.8864
    -2.8123  -2.8056  -2.7388  -2.7002  -2.6662  -2.6542  -2.6324  -2.5977
    -2.5424  -2.5062  -2.4451  -2.4300  -2.3698  -2.3279  -2.2765  -2.2128
    -2.1930  -2.1720  -2.1224  -2.1053  -2.0049  -1.9637  -1.8847  -1.8385
    -1.7028  -1.6460  -1.6275  -1.5608  -1.5425  -1.5327  -1.5171  -1.4380
    -1.4224  -1.3808  -1.3429  -1.2869  -1.2257  -1.1940  -1.1736  -1.1410
    -1.1217  -1.0940  -1.0453  -1.0188  -0.9776  -0.9323  -0.8738  -0.8501
    -0.8450  -0.7947  -0.7667  -0.6644  -0.6283  -0.6070  -0.5535  -0.5380
    -0.5310  -0.5032  -0.4707  -0.4549  -0.4194  -0.3924  -0.3592  -0.3436
    -0.2731  -0.2513  -0.2339  -0.2102  -0.2048  -0.1685  -0.0907  -0.0667
    -0.0459  -0.0350  -0.0162   0.0215   0.0397   0.0399   0.0409   0.0496
     0.0734   0.0953   0.1046   0.1196   0.1344   0.1560   0.1921   0.2020
     0.2189   0.2382   0.2675   0.3058   0.3336   0.3571   0.3946   0.4497
     0.4813   0.5048   0.5934   0.6109   0.6457   0.7452   0.8159   0.8449
     0.8762   0.9007   0.9225   0.9587   0.9817   0.9880   1.0490   1.0760
     1.0896   1.1099   1.1355   1.1737   1.2109   1.2198   1.2794   1.3224
     1.3597   1.4787   1.5026   1.5172   1.5466   1.5969   1.6334   1.6430
     1.6582   1.6838   1.7110   1.7237   1.7605   1.8287   1.8591   1.8885
     1.9014   1.9121   1.9327   1.9560   1.9700   2.0867   2.1176   2.1778
     2.2435   2.2627   2.3454   2.3762   2.3937   2.4528   2.4613   2.4878
     2.5771   2.6188   2.6501   2.6889   2.7039   2.7146   2.7178   2.7293
     2.8041   2.8300   2.8324   2.8718   2.8794   2.9040   2.9533   2.9649
     3.0305   3.0390   3.1197   3.1303   3.1648   3.1881   3.2083   3.2180
     3.2691   3.2937   3.3440   3.9419   4.2038   4.2251   4.2794   4.3477
     4.6342   4.7870   4.8553   5.1540   5.2045   5.2353   5.2788   5.3732
     5.6327   5.7609   5.8401   6.0778   6.3711   6.4458   6.4986   6.6376
     6.8088   7.1126   7.2907   7.5386   7.5943   7.6181   8.3539   8.6066
     8.6264   8.6883   8.8702   9.1138   9.1309   9.2043   9.4394   9.4820
     9.5272   9.7293   9.8409   9.8882  10.0775  10.0935  10.1389  10.4407
    10.4954  10.7787  10.8318  10.8844  10.9452  10.9639  11.1155  11.1409

     occupation numbers 
     1.0000   1.0000   1.0000   1.0000   1.0000   1.0000   1.0000   1.0000
     1.0000   1.0000   1.0000   1.0000   1.0000   1.0000   1.0000   1.0000
     1.0000   1.0000   1.0000   1.0000   1.0000   1.0000   1.0000   1.0000
     1.0000   1.0000   1.0000   1.0000   1.0000   1.0000   1.0000   1.0000
     1.0000   1.0000   1.0000   1.0000   1.0000   1.0000   1.0000   1.0000
     1.0000   1.0000   1.0000   1.0000   1.0000   1.0000   1.0000   1.0000
     1.0000   1.0000   1.0000   1.0000   1.0000   1.0000   1.0000   1.0000
     1.0000   1.0000   1.0000   1.0000   1.0000   1.0000   1.0000   1.0000
     1.0000   1.0000   1.0000   1.0000   1.0000   1.0000   1.0000   1.0000
     1.0000   1.0000   1.0000   1.0000   1.0000   1.0000   1.0000   1.0000
     1.0000   1.0000   1.0000   1.0000   1.0000   1.0000   1.0000   1.0000
     1.0000   1.0000   1.0000   1.0000   1.0000   1.0000   1.0000   1.0000
     1.0000   1.0000   1.0000   1.0000   1.0000   1.0000   1.0000   1.0000
     1.0000   1.0000   1.0000   1.0000   1.0000   1.0000   1.0000   1.0000
     1.0000   1.0000   1.0000   1.0000   1.0000   1.0000   1.0000   1.0000
     1.0000   1.0000   1.0000   1.0000   1.0000   1.0000   1.0000   1.0000
     1.0000   1.0000   1.0000   1.0000   1.0000   1.0000   1.0000   1.0000
     1.0000   1.0000   1.0000   1.0000   1.0000   1.0000   1.0000   1.0000
     1.0000   1.0000   1.0000   1.0000   1.0000   1.0000   1.0000   1.0000
     1.0000   1.0000   1.0000   1.0000   1.0000   1.0000   1.0000   1.0000
     1.0000   1.0000   1.0000   1.0000   1.0000   1.0000   1.0000   1.0000
     1.0000   1.0000   1.0000   1.0000   1.0000   1.0000   1.0000   1.0000
     1.0000   1.0000   1.0000   1.0000   1.0000   1.0000   1.0000   1.0000
     1.0000   1.0000   1.0000   1.0000   1.0000   1.0000   1.0000   1.0000
     1.0000   1.0000   1.0000   1.0000   1.0000   1.0000   1.0000   1.0000
     1.0000   1.0000   1.0000   1.0000   1.0000   1.0000   1.0000   1.0000
     1.0000   1.0000   1.0000   1.0000   1.0000   1.0000   1.0000   1.0000
     1.0000   1.0000   1.0000   1.0000   1.0000   1.0000   1.0000   1.0000
     1.0000   1.0000   1.0000   1.0000   1.0000   1.0000   1.0000   1.0000
     1.0000   1.0000   1.0000   1.0000   1.0000   1.0000   1.0000   1.0000
     1.0000   1.0000   1.0000   1.0000   1.0000   1.0000   1.0000   1.0000
     1.0000   1.0000   1.0000   1.0000   1.0000   1.0000   1.0000   1.0000
     1.0000   1.0000   1.0000   1.0000   1.0000   1.0000   1.0000   1.0000
     1.0000   1.0000   1.0000   1.0000   1.0000   1.0000   1.0000   1.0000
     1.0000   1.0000   1.0000   1.0000   1.0000   1.0000   1.0000   1.0000
     1.0000   1.0000   1.0000   1.0000   1.0000   1.0000   1.0000   1.0000
     1.0000   1.0000   1.0000   1.0000   1.0000   1.0000   1.0000   1.0000
     1.0000   1.0000   1.0000   1.0000   1.0000   1.0000   1.0000   1.0000
     1.0000   1.0000   1.0000   1.0000   1.0000   0.9999   0.9999   0.9998
     0.9990   0.9977   0.9958   0.9909   0.9877   0.9849   0.9839   0.9798
     0.9158   0.8662   0.8606   0.7373   0.7068   0.5959   0.3547   0.3035
     0.1051   0.0901   0.0193   0.0157   0.0079   0.0050   0.0033   0.0028
     0.0010   0.0006   0.0002   0.0000   0.0000   0.0000   0.0000   0.0000
     0.0000   0.0000   0.0000   0.0000   0.0000   0.0000   0.0000   0.0000
     0.0000   0.0000   0.0000   0.0000   0.0000   0.0000   0.0000   0.0000
     0.0000   0.0000   0.0000   0.0000   0.0000   0.0000   0.0000   0.0000
     0.0000   0.0000   0.0000   0.0000   0.0000   0.0000   0.0000   0.0000
     0.0000   0.0000   0.0000   0.0000   0.0000   0.0000   0.0000   0.0000
     0.0000   0.0000   0.0000   0.0000   0.0000   0.0000   0.0000   0.0000

          k = 0.3333-0.5774 0.0000 ( 88062 PWs)   bands (ev):

   -95.5393 -95.5361 -95.5304 -95.5287 -95.5284 -95.5243 -95.5220 -95.5210
   -95.5093 -95.5046 -95.5044 -95.5021 -95.5006 -95.4996 -95.4955 -95.4953
   -95.4947 -95.3953 -95.1406 -95.1346 -95.1339 -95.1009 -95.0938 -95.0919
   -95.0865 -95.0859 -95.0823 -95.0759 -95.0758 -95.0756 -95.0712 -95.0679
   -95.0670 -94.8947 -94.8921 -94.8902 -49.8461 -49.8397 -49.8378 -49.8163
   -49.8154 -49.8097 -49.7905 -49.7825 -49.7746 -49.7735 -49.7714 -49.7697
   -49.7593 -49.7538 -49.7477 -49.6898 -49.6880 -49.6871 -49.6709 -49.6658
   -49.6619 -49.6540 -49.6513 -49.6495 -49.6457 -49.6422 -49.6353 -49.6299
   -49.6293 -49.6235 -49.6186 -49.6179 -49.6156 -49.6092 -49.6031 -49.6027
   -49.6008 -49.5948 -49.5935 -49.5866 -49.5860 -49.5841 -49.5761 -49.5753
   -49.5736 -49.5673 -49.5623 -49.5603 -49.5468 -49.5449 -49.5330 -49.4977
   -49.4948 -49.4788 -49.4781 -49.4644 -49.4636 -49.4511 -49.4494 -49.4482
   -49.4303 -49.3998 -49.3977 -49.3973 -49.3968 -49.3954 -49.3248 -49.3175
   -49.2925 -49.2824 -49.2815 -49.2807 -49.2805 -49.2733 -49.2715 -49.2712
   -49.2699 -49.2696 -49.2676 -49.2673 -49.2478 -49.2052 -49.2032 -49.2029
   -49.1504 -49.1312 -49.1295 -49.1065 -49.0951 -49.0870 -49.0491 -49.0410
   -49.0388 -49.0208 -49.0153 -49.0148 -49.0104 -49.0099 -49.0085 -48.9993
   -48.9990 -48.9984 -48.9934 -48.9893 -48.9880 -48.8093 -48.8038 -48.8014
   -15.0429  -5.0715  -5.0581  -4.9950  -3.8454  -3.8309  -3.7313  -3.2044
    -3.1850  -3.1813  -3.0611  -3.0590  -3.0325  -2.9101  -2.8794  -2.8376
    -2.7603  -2.7387  -2.7303  -2.7208  -2.7198  -2.7014  -2.6904  -2.6729
    -2.5905  -2.5624  -2.5416  -2.4998  -2.3327  -2.3255  -2.3068  -2.2495
    -2.2424  -2.2205  -2.1911  -2.1508  -2.1455  -1.7772  -1.7715  -1.7368
    -1.7218  -1.6687  -1.6591  -1.6561  -1.6302  -1.6245  -1.2997  -1.2964
    -1.2851  -1.2826  -1.2682  -1.2526  -1.2047  -1.1961  -1.1874  -1.1583
    -1.1189  -1.0923  -1.0632  -1.0615  -1.0269  -1.0063  -0.9856  -0.9838
    -0.8114  -0.7728  -0.7487  -0.7249  -0.7081  -0.6762  -0.5797  -0.5714
    -0.5688  -0.5597  -0.5469  -0.4571  -0.3650  -0.3550  -0.3322  -0.3098
    -0.2971  -0.2418  -0.2392  -0.2322  -0.2103  -0.2070  -0.1969  -0.1872
    -0.1658  -0.0827  -0.0688  -0.0211  -0.0083  -0.0045   0.0221   0.0399
     0.0400   0.1347   0.1606   0.1769   0.1804   0.1844   0.1999   0.2121
     0.2161   0.2178   0.2514   0.2613   0.2862   0.3580   0.3710   0.4017
     0.4019   0.4162   0.4279   0.7709   0.7961   0.8132   0.8262   0.8441
     0.8457   0.8555   0.8692   0.9066   0.9229   0.9268   0.9331   1.0776
     1.0915   1.1038   1.1331   1.1614   1.1628   1.1956   1.2893   1.2935
     1.4045   1.4144   1.4227   1.5942   1.6038   1.6084   1.6571   1.6735
     1.6951   1.7037   1.7272   1.7309   1.7547   1.7618   1.7631   1.8449
     1.8749   1.9011   2.0087   2.0296   2.0705   2.0982   2.1012   2.1107
     2.1195   2.1364   2.1462   2.5187   2.5316   2.5367   2.5470   2.5610
     2.5740   2.6574   2.6670   2.6694   2.7324   2.7609   2.7634   2.8356
     2.8390   2.8397   2.9158   2.9184   2.9310   2.9342   2.9494   2.9537
     3.0390   3.0447   3.0542   3.1148   3.1171   3.1296   3.1572   3.1681
     3.1892   3.9808   3.9823   3.9944   4.2484   4.2608   4.2730   4.6992
     4.7056   4.7436   5.2593   5.2674   5.2772   5.2928   5.3095   5.3287
     6.0622   6.0689   6.0733   6.4581   6.4754   6.4845   6.5593   6.5786
     6.6108   6.6709   6.6889   6.6974   7.2774   7.3068   7.3095   8.6318
     8.6348   8.6622   8.8092   8.8626   8.8860   9.3748   9.4907   9.4982
     9.5706   9.5960   9.6242  10.2750  10.3190  10.3790  10.3890  10.4870
    10.4992  10.8084  10.8391  10.8623  11.1070  11.1319  11.1520  11.1887

     occupation numbers 
     1.0000   1.0000   1.0000   1.0000   1.0000   1.0000   1.0000   1.0000
     1.0000   1.0000   1.0000   1.0000   1.0000   1.0000   1.0000   1.0000
     1.0000   1.0000   1.0000   1.0000   1.0000   1.0000   1.0000   1.0000
     1.0000   1.0000   1.0000   1.0000   1.0000   1.0000   1.0000   1.0000
     1.0000   1.0000   1.0000   1.0000   1.0000   1.0000   1.0000   1.0000
     1.0000   1.0000   1.0000   1.0000   1.0000   1.0000   1.0000   1.0000
     1.0000   1.0000   1.0000   1.0000   1.0000   1.0000   1.0000   1.0000
     1.0000   1.0000   1.0000   1.0000   1.0000   1.0000   1.0000   1.0000
     1.0000   1.0000   1.0000   1.0000   1.0000   1.0000   1.0000   1.0000
     1.0000   1.0000   1.0000   1.0000   1.0000   1.0000   1.0000   1.0000
     1.0000   1.0000   1.0000   1.0000   1.0000   1.0000   1.0000   1.0000
     1.0000   1.0000   1.0000   1.0000   1.0000   1.0000   1.0000   1.0000
     1.0000   1.0000   1.0000   1.0000   1.0000   1.0000   1.0000   1.0000
     1.0000   1.0000   1.0000   1.0000   1.0000   1.0000   1.0000   1.0000
     1.0000   1.0000   1.0000   1.0000   1.0000   1.0000   1.0000   1.0000
     1.0000   1.0000   1.0000   1.0000   1.0000   1.0000   1.0000   1.0000
     1.0000   1.0000   1.0000   1.0000   1.0000   1.0000   1.0000   1.0000
     1.0000   1.0000   1.0000   1.0000   1.0000   1.0000   1.0000   1.0000
     1.0000   1.0000   1.0000   1.0000   1.0000   1.0000   1.0000   1.0000
     1.0000   1.0000   1.0000   1.0000   1.0000   1.0000   1.0000   1.0000
     1.0000   1.0000   1.0000   1.0000   1.0000   1.0000   1.0000   1.0000
     1.0000   1.0000   1.0000   1.0000   1.0000   1.0000   1.0000   1.0000
     1.0000   1.0000   1.0000   1.0000   1.0000   1.0000   1.0000   1.0000
     1.0000   1.0000   1.0000   1.0000   1.0000   1.0000   1.0000   1.0000
     1.0000   1.0000   1.0000   1.0000   1.0000   1.0000   1.0000   1.0000
     1.0000   1.0000   1.0000   1.0000   1.0000   1.0000   1.0000   1.0000
     1.0000   1.0000   1.0000   1.0000   1.0000   1.0000   1.0000   1.0000
     1.0000   1.0000   1.0000   1.0000   1.0000   1.0000   1.0000   1.0000
     1.0000   1.0000   1.0000   1.0000   1.0000   1.0000   1.0000   1.0000
     1.0000   1.0000   1.0000   1.0000   1.0000   1.0000   1.0000   1.0000
     1.0000   1.0000   1.0000   1.0000   1.0000   1.0000   1.0000   1.0000
     1.0000   1.0000   1.0000   1.0000   1.0000   1.0000   1.0000   1.0000
     1.0000   1.0000   1.0000   1.0000   1.0000   1.0000   1.0000   1.0000
     1.0000   1.0000   1.0000   1.0000   1.0000   1.0000   1.0000   1.0000
     1.0000   1.0000   1.0000   1.0000   1.0000   1.0000   1.0000   1.0000
     1.0000   1.0000   1.0000   1.0000   1.0000   1.0000   1.0000   1.0000
     1.0000   1.0000   1.0000   1.0000   1.0000   1.0000   1.0000   1.0000
     1.0000   1.0000   1.0000   1.0000   1.0000   1.0000   1.0000   1.0000
     1.0000   1.0000   1.0000   0.9997   0.9996   0.9996   0.9995   0.9993
     0.9991   0.9951   0.9941   0.9938   0.9785   0.9627   0.9608   0.8527
     0.8440   0.8420   0.5379   0.5247   0.4621   0.4463   0.3730   0.3530
     0.0901   0.0812   0.0681   0.0213   0.0204   0.0159   0.0092   0.0074
     0.0049   0.0000   0.0000   0.0000   0.0000   0.0000   0.0000   0.0000
     0.0000   0.0000   0.0000   0.0000   0.0000   0.0000   0.0000   0.0000
     0.0000   0.0000   0.0000   0.0000   0.0000   0.0000   0.0000   0.0000
     0.0000   0.0000   0.0000   0.0000   0.0000   0.0000   0.0000   0.0000
     0.0000   0.0000   0.0000   0.0000   0.0000   0.0000   0.0000   0.0000
     0.0000   0.0000   0.0000   0.0000   0.0000   0.0000   0.0000   0.0000
     0.0000   0.0000   0.0000   0.0000   0.0000   0.0000   0.0000   0.0000

          k = 0.3333-0.3849 0.0000 ( 88140 PWs)   bands (ev):

   -95.5397 -95.5357 -95.5301 -95.5288 -95.5285 -95.5243 -95.5221 -95.5210
   -95.5093 -95.5045 -95.5044 -95.5022 -95.5004 -95.4997 -95.4960 -95.4954
   -95.4943 -95.3953 -95.1406 -95.1346 -95.1338 -95.1009 -95.0938 -95.0920
   -95.0877 -95.0850 -95.0814 -95.0771 -95.0757 -95.0751 -95.0713 -95.0678
   -95.0671 -94.8947 -94.8921 -94.8902 -49.8472 -49.8355 -49.8282 -49.8184
   -49.8085 -49.8022 -49.7951 -49.7867 -49.7804 -49.7748 -49.7726 -49.7687
   -49.7588 -49.7461 -49.7427 -49.6941 -49.6875 -49.6844 -49.6810 -49.6744
   -49.6716 -49.6655 -49.6599 -49.6525 -49.6468 -49.6436 -49.6377 -49.6327
   -49.6275 -49.6231 -49.6192 -49.6143 -49.6103 -49.6084 -49.6061 -49.6030
   -49.5992 -49.5930 -49.5892 -49.5878 -49.5831 -49.5789 -49.5740 -49.5715
   -49.5690 -49.5681 -49.5652 -49.5598 -49.5476 -49.5410 -49.5279 -49.5033
   -49.4877 -49.4809 -49.4725 -49.4650 -49.4586 -49.4543 -49.4429 -49.4366
   -49.4293 -49.4153 -49.4121 -49.4056 -49.3828 -49.3776 -49.3383 -49.3106
   -49.3101 -49.3027 -49.2974 -49.2951 -49.2823 -49.2771 -49.2744 -49.2691
   -49.2635 -49.2563 -49.2553 -49.2490 -49.2346 -49.2182 -49.2042 -49.1921
   -49.1575 -49.1338 -49.1187 -49.1085 -49.0981 -49.0813 -49.0494 -49.0408
   -49.0387 -49.0209 -49.0175 -49.0133 -49.0104 -49.0085 -49.0081 -49.0014
   -48.9987 -48.9978 -48.9935 -48.9891 -48.9881 -48.8092 -48.8038 -48.8014
   -15.0429  -5.5025  -4.9635  -4.4663  -4.2225  -3.7470  -3.3960  -3.3445
    -3.3335  -3.2281  -3.1890  -3.1301  -3.0773  -3.0154  -3.0028  -2.8864
    -2.8123  -2.8056  -2.7388  -2.7002  -2.6662  -2.6542  -2.6324  -2.5977
    -2.5424  -2.5062  -2.4451  -2.4300  -2.3698  -2.3279  -2.2766  -2.2128
    -2.1930  -2.1720  -2.1224  -2.1053  -2.0049  -1.9637  -1.8847  -1.8385
    -1.7028  -1.6460  -1.6275  -1.5608  -1.5425  -1.5327  -1.5171  -1.4380
    -1.4224  -1.3808  -1.3429  -1.2869  -1.2257  -1.1940  -1.1736  -1.1410
    -1.1217  -1.0941  -1.0453  -1.0189  -0.9776  -0.9324  -0.8738  -0.8501
    -0.8450  -0.7947  -0.7667  -0.6643  -0.6283  -0.6070  -0.5535  -0.5380
    -0.5310  -0.5032  -0.4707  -0.4549  -0.4194  -0.3924  -0.3592  -0.3436
    -0.2731  -0.2514  -0.2339  -0.2102  -0.2048  -0.1685  -0.0906  -0.0667
    -0.0459  -0.0350  -0.0162   0.0215   0.0397   0.0399   0.0409   0.0496
     0.0735   0.0953   0.1046   0.1197   0.1344   0.1560   0.1921   0.2020
     0.2189   0.2381   0.2675   0.3058   0.3336   0.3571   0.3946   0.4497
     0.4813   0.5048   0.5934   0.6109   0.6457   0.7452   0.8159   0.8449
     0.8761   0.9008   0.9225   0.9587   0.9817   0.9880   1.0490   1.0759
     1.0895   1.1099   1.1355   1.1737   1.2109   1.2198   1.2794   1.3224
     1.3597   1.4787   1.5026   1.5172   1.5466   1.5969   1.6334   1.6430
     1.6582   1.6838   1.7110   1.7237   1.7605   1.8287   1.8591   1.8886
     1.9014   1.9121   1.9327   1.9560   1.9700   2.0867   2.1176   2.1778
     2.2435   2.2627   2.3454   2.3762   2.3937   2.4528   2.4613   2.4878
     2.5771   2.6188   2.6501   2.6889   2.7039   2.7147   2.7179   2.7293
     2.8041   2.8300   2.8324   2.8718   2.8794   2.9040   2.9533   2.9649
     3.0305   3.0390   3.1196   3.1303   3.1648   3.1881   3.2082   3.2180
     3.2691   3.2937   3.3439   3.9419   4.2038   4.2251   4.2794   4.3476
     4.6342   4.7870   4.8553   5.1540   5.2044   5.2353   5.2788   5.3732
     5.6326   5.7609   5.8402   6.0778   6.3711   6.4457   6.4987   6.6376
     6.8089   7.1127   7.2907   7.5386   7.5943   7.6181   8.3539   8.6066
     8.6265   8.6883   8.8702   9.1137   9.1309   9.2043   9.4393   9.4821
     9.5272   9.7293   9.8408   9.8882  10.0774  10.0934  10.1389  10.4406
    10.4954  10.7788  10.8318  10.8844  10.9453  10.9639  11.1156  11.1409

     occupation numbers 
     1.0000   1.0000   1.0000   1.0000   1.0000   1.0000   1.0000   1.0000
     1.0000   1.0000   1.0000   1.0000   1.0000   1.0000   1.0000   1.0000
     1.0000   1.0000   1.0000   1.0000   1.0000   1.0000   1.0000   1.0000
     1.0000   1.0000   1.0000   1.0000   1.0000   1.0000   1.0000   1.0000
     1.0000   1.0000   1.0000   1.0000   1.0000   1.0000   1.0000   1.0000
     1.0000   1.0000   1.0000   1.0000   1.0000   1.0000   1.0000   1.0000
     1.0000   1.0000   1.0000   1.0000   1.0000   1.0000   1.0000   1.0000
     1.0000   1.0000   1.0000   1.0000   1.0000   1.0000   1.0000   1.0000
     1.0000   1.0000   1.0000   1.0000   1.0000   1.0000   1.0000   1.0000
     1.0000   1.0000   1.0000   1.0000   1.0000   1.0000   1.0000   1.0000
     1.0000   1.0000   1.0000   1.0000   1.0000   1.0000   1.0000   1.0000
     1.0000   1.0000   1.0000   1.0000   1.0000   1.0000   1.0000   1.0000
     1.0000   1.0000   1.0000   1.0000   1.0000   1.0000   1.0000   1.0000
     1.0000   1.0000   1.0000   1.0000   1.0000   1.0000   1.0000   1.0000
     1.0000   1.0000   1.0000   1.0000   1.0000   1.0000   1.0000   1.0000
     1.0000   1.0000   1.0000   1.0000   1.0000   1.0000   1.0000   1.0000
     1.0000   1.0000   1.0000   1.0000   1.0000   1.0000   1.0000   1.0000
     1.0000   1.0000   1.0000   1.0000   1.0000   1.0000   1.0000   1.0000
     1.0000   1.0000   1.0000   1.0000   1.0000   1.0000   1.0000   1.0000
     1.0000   1.0000   1.0000   1.0000   1.0000   1.0000   1.0000   1.0000
     1.0000   1.0000   1.0000   1.0000   1.0000   1.0000   1.0000   1.0000
     1.0000   1.0000   1.0000   1.0000   1.0000   1.0000   1.0000   1.0000
     1.0000   1.0000   1.0000   1.0000   1.0000   1.0000   1.0000   1.0000
     1.0000   1.0000   1.0000   1.0000   1.0000   1.0000   1.0000   1.0000
     1.0000   1.0000   1.0000   1.0000   1.0000   1.0000   1.0000   1.0000
     1.0000   1.0000   1.0000   1.0000   1.0000   1.0000   1.0000   1.0000
     1.0000   1.0000   1.0000   1.0000   1.0000   1.0000   1.0000   1.0000
     1.0000   1.0000   1.0000   1.0000   1.0000   1.0000   1.0000   1.0000
     1.0000   1.0000   1.0000   1.0000   1.0000   1.0000   1.0000   1.0000
     1.0000   1.0000   1.0000   1.0000   1.0000   1.0000   1.0000   1.0000
     1.0000   1.0000   1.0000   1.0000   1.0000   1.0000   1.0000   1.0000
     1.0000   1.0000   1.0000   1.0000   1.0000   1.0000   1.0000   1.0000
     1.0000   1.0000   1.0000   1.0000   1.0000   1.0000   1.0000   1.0000
     1.0000   1.0000   1.0000   1.0000   1.0000   1.0000   1.0000   1.0000
     1.0000   1.0000   1.0000   1.0000   1.0000   1.0000   1.0000   1.0000
     1.0000   1.0000   1.0000   1.0000   1.0000   1.0000   1.0000   1.0000
     1.0000   1.0000   1.0000   1.0000   1.0000   1.0000   1.0000   1.0000
     1.0000   1.0000   1.0000   1.0000   1.0000   1.0000   1.0000   1.0000
     1.0000   1.0000   1.0000   1.0000   1.0000   0.9999   0.9999   0.9998
     0.9990   0.9977   0.9958   0.9909   0.9877   0.9848   0.9839   0.9798
     0.9157   0.8662   0.8606   0.7373   0.7069   0.5959   0.3547   0.3034
     0.1051   0.0901   0.0194   0.0157   0.0079   0.0050   0.0033   0.0028
     0.0010   0.0006   0.0002   0.0000   0.0000   0.0000   0.0000   0.0000
     0.0000   0.0000   0.0000   0.0000   0.0000   0.0000   0.0000   0.0000
     0.0000   0.0000   0.0000   0.0000   0.0000   0.0000   0.0000   0.0000
     0.0000   0.0000   0.0000   0.0000   0.0000   0.0000   0.0000   0.0000
     0.0000   0.0000   0.0000   0.0000   0.0000   0.0000   0.0000   0.0000
     0.0000   0.0000   0.0000   0.0000   0.0000   0.0000   0.0000   0.0000
     0.0000   0.0000   0.0000   0.0000   0.0000   0.0000   0.0000   0.0000

          k =-0.5000 0.2887 0.0000 ( 88178 PWs)   bands (ev):

   -95.5397 -95.5358 -95.5296 -95.5292 -95.5286 -95.5243 -95.5222 -95.5209
   -95.5093 -95.5045 -95.5044 -95.5022 -95.5002 -95.4999 -95.4963 -95.4950
   -95.4944 -95.3953 -95.1406 -95.1347 -95.1338 -95.1009 -95.0939 -95.0919
   -95.0875 -95.0855 -95.0804 -95.0783 -95.0755 -95.0749 -95.0713 -95.0677
   -95.0672 -94.8947 -94.8921 -94.8903 -49.8513 -49.8301 -49.8230 -49.8181
   -49.8046 -49.8004 -49.7986 -49.7970 -49.7810 -49.7788 -49.7774 -49.7745
   -49.7528 -49.7425 -49.7163 -49.7157 -49.6834 -49.6825 -49.6762 -49.6753
   -49.6724 -49.6655 -49.6639 -49.6586 -49.6541 -49.6444 -49.6402 -49.6303
   -49.6251 -49.6200 -49.6196 -49.6140 -49.6125 -49.6038 -49.6030 -49.5995
   -49.5947 -49.5934 -49.5896 -49.5868 -49.5818 -49.5791 -49.5772 -49.5748
   -49.5702 -49.5656 -49.5638 -49.5604 -49.5536 -49.5416 -49.5218 -49.5092
   -49.4853 -49.4832 -49.4697 -49.4675 -49.4588 -49.4492 -49.4300 -49.4298
   -49.4277 -49.4267 -49.4249 -49.4244 -49.3710 -49.3449 -49.3446 -49.3402
   -49.3093 -49.3025 -49.2893 -49.2890 -49.2864 -49.2860 -49.2845 -49.2579
   -49.2518 -49.2506 -49.2505 -49.2496 -49.2365 -49.2363 -49.1968 -49.1939
   -49.1599 -49.1295 -49.1156 -49.1080 -49.1061 -49.0788 -49.0494 -49.0411
   -49.0385 -49.0209 -49.0171 -49.0144 -49.0104 -49.0084 -49.0060 -49.0036
   -48.9982 -48.9974 -48.9935 -48.9889 -48.9884 -48.8093 -48.8037 -48.8014
   -15.0429  -5.3423  -5.2941  -4.0934  -4.0327  -3.8857  -3.8727  -3.4667
    -3.3048  -3.0294  -2.9997  -2.9644  -2.9531  -2.9360  -2.9239  -2.9150
    -2.8937  -2.8762  -2.8563  -2.8068  -2.7663  -2.7487  -2.7175  -2.7119
    -2.6129  -2.5249  -2.3891  -2.3867  -2.3509  -2.3484  -2.1256  -2.1214
    -2.0980  -2.0684  -2.0438  -2.0341  -1.9686  -1.9631  -1.8291  -1.8194
    -1.7470  -1.7352  -1.7306  -1.6536  -1.6475  -1.5196  -1.5186  -1.4839
    -1.4584  -1.3956  -1.3634  -1.2589  -1.2550  -1.2400  -1.1846  -1.1347
    -1.1253  -1.0987  -1.0941  -0.9907  -0.9768  -0.9177  -0.8771  -0.8530
    -0.8081  -0.7903  -0.6762  -0.6406  -0.6362  -0.6291  -0.5940  -0.5842
    -0.5788  -0.5698  -0.5310  -0.3598  -0.3388  -0.3172  -0.3155  -0.3115
    -0.3108  -0.2796  -0.2666  -0.2633  -0.2295  -0.2146  -0.1418  -0.1404
    -0.0963  -0.0910  -0.0777  -0.0469   0.0145   0.0219   0.0398   0.0400
     0.0735   0.1279   0.1491   0.1597   0.1663   0.1767   0.1830   0.1994
     0.2299   0.2699   0.2914   0.4117   0.4282   0.4340   0.5246   0.6082
     0.6604   0.7136   0.7328   0.7535   0.7601   0.8289   0.8450   0.8572
     0.8727   0.8778   0.8807   0.9035   0.9173   0.9468   0.9620   0.9953
     1.0448   1.0455   1.0697   1.0738   1.1276   1.1841   1.2125   1.2284
     1.2585   1.2901   1.4311   1.4511   1.5900   1.6386   1.6541   1.6592
     1.6608   1.6903   1.7874   1.8157   1.8907   1.8991   1.9116   1.9169
     1.9282   1.9475   2.0172   2.0295   2.0510   2.0513   2.0704   2.1536
     2.1736   2.2246   2.2628   2.3066   2.3909   2.4389   2.4396   2.4487
     2.5384   2.5550   2.6302   2.6314   2.6427   2.6489   2.7004   2.7028
     2.7231   2.7353   2.7468   2.7937   2.9164   2.9249   2.9277   2.9439
     2.9500   2.9565   3.0114   3.1786   3.2050   3.2105   3.2197   3.2228
     3.4266   3.4643   3.7279   3.7414   3.9231   4.3956   4.4396   4.7878
     4.7911   4.7939   4.7991   5.2643   5.2744   5.2865   5.3045   5.3254
     5.6131   5.7872   5.7906   5.9092   6.1721   6.1920   6.3412   6.3638
     6.3778   6.4209   8.2525   8.2537   8.2859   8.3099   8.5129   8.5357
     8.6390   8.7943   8.8281   8.8438   8.8722   8.8981   9.2198   9.3085
     9.3404   9.7635   9.7690   9.8335   9.8843  10.1931  10.3197  10.3387
    10.3910  10.6125  10.7955  10.8606  10.8918  10.8971  10.9069  10.9616

     occupation numbers 
     1.0000   1.0000   1.0000   1.0000   1.0000   1.0000   1.0000   1.0000
     1.0000   1.0000   1.0000   1.0000   1.0000   1.0000   1.0000   1.0000
     1.0000   1.0000   1.0000   1.0000   1.0000   1.0000   1.0000   1.0000
     1.0000   1.0000   1.0000   1.0000   1.0000   1.0000   1.0000   1.0000
     1.0000   1.0000   1.0000   1.0000   1.0000   1.0000   1.0000   1.0000
     1.0000   1.0000   1.0000   1.0000   1.0000   1.0000   1.0000   1.0000
     1.0000   1.0000   1.0000   1.0000   1.0000   1.0000   1.0000   1.0000
     1.0000   1.0000   1.0000   1.0000   1.0000   1.0000   1.0000   1.0000
     1.0000   1.0000   1.0000   1.0000   1.0000   1.0000   1.0000   1.0000
     1.0000   1.0000   1.0000   1.0000   1.0000   1.0000   1.0000   1.0000
     1.0000   1.0000   1.0000   1.0000   1.0000   1.0000   1.0000   1.0000
     1.0000   1.0000   1.0000   1.0000   1.0000   1.0000   1.0000   1.0000
     1.0000   1.0000   1.0000   1.0000   1.0000   1.0000   1.0000   1.0000
     1.0000   1.0000   1.0000   1.0000   1.0000   1.0000   1.0000   1.0000
     1.0000   1.0000   1.0000   1.0000   1.0000   1.0000   1.0000   1.0000
     1.0000   1.0000   1.0000   1.0000   1.0000   1.0000   1.0000   1.0000
     1.0000   1.0000   1.0000   1.0000   1.0000   1.0000   1.0000   1.0000
     1.0000   1.0000   1.0000   1.0000   1.0000   1.0000   1.0000   1.0000
     1.0000   1.0000   1.0000   1.0000   1.0000   1.0000   1.0000   1.0000
     1.0000   1.0000   1.0000   1.0000   1.0000   1.0000   1.0000   1.0000
     1.0000   1.0000   1.0000   1.0000   1.0000   1.0000   1.0000   1.0000
     1.0000   1.0000   1.0000   1.0000   1.0000   1.0000   1.0000   1.0000
     1.0000   1.0000   1.0000   1.0000   1.0000   1.0000   1.0000   1.0000
     1.0000   1.0000   1.0000   1.0000   1.0000   1.0000   1.0000   1.0000
     1.0000   1.0000   1.0000   1.0000   1.0000   1.0000   1.0000   1.0000
     1.0000   1.0000   1.0000   1.0000   1.0000   1.0000   1.0000   1.0000
     1.0000   1.0000   1.0000   1.0000   1.0000   1.0000   1.0000   1.0000
     1.0000   1.0000   1.0000   1.0000   1.0000   1.0000   1.0000   1.0000
     1.0000   1.0000   1.0000   1.0000   1.0000   1.0000   1.0000   1.0000
     1.0000   1.0000   1.0000   1.0000   1.0000   1.0000   1.0000   1.0000
     1.0000   1.0000   1.0000   1.0000   1.0000   1.0000   1.0000   1.0000
     1.0000   1.0000   1.0000   1.0000   1.0000   1.0000   1.0000   1.0000
     1.0000   1.0000   1.0000   1.0000   1.0000   1.0000   1.0000   1.0000
     1.0000   1.0000   1.0000   1.0000   1.0000   1.0000   1.0000   1.0000
     1.0000   1.0000   1.0000   1.0000   1.0000   1.0000   1.0000   1.0000
     1.0000   1.0000   1.0000   1.0000   1.0000   1.0000   1.0000   1.0000
     1.0000   1.0000   1.0000   1.0000   1.0000   1.0000   1.0000   1.0000
     1.0000   1.0000   1.0000   1.0000   1.0000   1.0000   1.0000   1.0000
     1.0000   1.0000   1.0000   1.0000   1.0000   0.9999   0.9999   0.9999
     0.9995   0.9994   0.9972   0.9971   0.9964   0.9959   0.9886   0.9880
     0.9821   0.9773   0.9716   0.9305   0.5349   0.4923   0.4786   0.3988
     0.3701   0.3402   0.1468   0.0060   0.0036   0.0032   0.0027   0.0025
     0.0000   0.0000   0.0000   0.0000   0.0000   0.0000   0.0000   0.0000
     0.0000   0.0000   0.0000   0.0000   0.0000   0.0000   0.0000   0.0000
     0.0000   0.0000   0.0000   0.0000   0.0000   0.0000   0.0000   0.0000
     0.0000   0.0000   0.0000   0.0000   0.0000   0.0000   0.0000   0.0000
     0.0000   0.0000   0.0000   0.0000   0.0000   0.0000   0.0000   0.0000
     0.0000   0.0000   0.0000   0.0000   0.0000   0.0000   0.0000   0.0000
     0.0000   0.0000   0.0000   0.0000   0.0000   0.0000   0.0000   0.0000

          k =-0.5000 0.4811 0.0000 ( 88140 PWs)   bands (ev):

   -95.5398 -95.5357 -95.5301 -95.5288 -95.5285 -95.5243 -95.5222 -95.5209
   -95.5093 -95.5045 -95.5044 -95.5022 -95.5004 -95.4997 -95.4960 -95.4954
   -95.4943 -95.3953 -95.1406 -95.1347 -95.1338 -95.1009 -95.0939 -95.0919
   -95.0877 -95.0849 -95.0814 -95.0771 -95.0757 -95.0751 -95.0712 -95.0677
   -95.0671 -94.8947 -94.8921 -94.8902 -49.8471 -49.8344 -49.8290 -49.8186
   -49.8084 -49.8022 -49.7950 -49.7867 -49.7805 -49.7749 -49.7725 -49.7687
   -49.7591 -49.7464 -49.7426 -49.6950 -49.6877 -49.6841 -49.6807 -49.6739
   -49.6712 -49.6656 -49.6599 -49.6527 -49.6470 -49.6439 -49.6377 -49.6328
   -49.6272 -49.6230 -49.6188 -49.6140 -49.6104 -49.6084 -49.6060 -49.6030
   -49.5991 -49.5934 -49.5890 -49.5876 -49.5833 -49.5784 -49.5743 -49.5717
   -49.5688 -49.5679 -49.5651 -49.5596 -49.5479 -49.5413 -49.5279 -49.5031
   -49.4879 -49.4807 -49.4725 -49.4651 -49.4586 -49.4543 -49.4427 -49.4368
   -49.4293 -49.4153 -49.4119 -49.4059 -49.3830 -49.3777 -49.3381 -49.3105
   -49.3100 -49.3029 -49.2970 -49.2948 -49.2824 -49.2772 -49.2741 -49.2693
   -49.2637 -49.2562 -49.2553 -49.2491 -49.2345 -49.2183 -49.2041 -49.1922
   -49.1574 -49.1335 -49.1190 -49.1088 -49.0978 -49.0813 -49.0494 -49.0410
   -49.0386 -49.0209 -49.0175 -49.0132 -49.0104 -49.0085 -49.0081 -49.0013
   -48.9988 -48.9978 -48.9935 -48.9890 -48.9882 -48.8093 -48.8037 -48.8014
   -15.0429  -5.5026  -4.9634  -4.4665  -4.2226  -3.7469  -3.3960  -3.3441
    -3.3333  -3.2281  -3.1903  -3.1303  -3.0776  -3.0147  -3.0019  -2.8857
    -2.8130  -2.8060  -2.7388  -2.7008  -2.6676  -2.6542  -2.6322  -2.5977
    -2.5420  -2.5044  -2.4451  -2.4298  -2.3701  -2.3280  -2.2759  -2.2136
    -2.1932  -2.1719  -2.1230  -2.1062  -2.0047  -1.9625  -1.8846  -1.8385
    -1.7028  -1.6458  -1.6276  -1.5603  -1.5423  -1.5323  -1.5169  -1.4374
    -1.4226  -1.3809  -1.3430  -1.2876  -1.2252  -1.1936  -1.1738  -1.1420
    -1.1213  -1.0941  -1.0454  -1.0183  -0.9771  -0.9308  -0.8732  -0.8498
    -0.8441  -0.7953  -0.7651  -0.6638  -0.6298  -0.6076  -0.5536  -0.5381
    -0.5312  -0.5038  -0.4721  -0.4547  -0.4186  -0.3930  -0.3607  -0.3439
    -0.2732  -0.2513  -0.2326  -0.2105  -0.2046  -0.1684  -0.0908  -0.0681
    -0.0472  -0.0355  -0.0163   0.0215   0.0397   0.0399   0.0410   0.0498
     0.0717   0.0957   0.1037   0.1198   0.1343   0.1557   0.1931   0.2038
     0.2203   0.2390   0.2684   0.3051   0.3335   0.3563   0.3950   0.4492
     0.4811   0.5047   0.5926   0.6107   0.6455   0.7439   0.8157   0.8442
     0.8768   0.9013   0.9227   0.9578   0.9811   0.9880   1.0506   1.0769
     1.0895   1.1102   1.1351   1.1736   1.2107   1.2205   1.2792   1.3220
     1.3594   1.4789   1.5015   1.5172   1.5468   1.5958   1.6333   1.6427
     1.6562   1.6851   1.7118   1.7238   1.7597   1.8295   1.8597   1.8883
     1.9023   1.9126   1.9335   1.9564   1.9703   2.0861   2.1175   2.1796
     2.2427   2.2622   2.3453   2.3753   2.3928   2.4535   2.4614   2.4884
     2.5775   2.6182   2.6499   2.6899   2.7033   2.7148   2.7181   2.7302
     2.8020   2.8290   2.8325   2.8717   2.8798   2.9050   2.9521   2.9636
     3.0304   3.0412   3.1172   3.1285   3.1647   3.1880   3.2106   3.2203
     3.2693   3.2950   3.3440   3.9417   4.2029   4.2243   4.2793   4.3476
     4.6336   4.7880   4.8556   5.1557   5.2050   5.2352   5.2793   5.3737
     5.6324   5.7612   5.8390   6.0788   6.3698   6.4461   6.4981   6.6371
     6.8098   7.1111   7.2924   7.5362   7.5958   7.6179   8.3531   8.6046
     8.6253   8.6899   8.8703   9.1132   9.1311   9.2036   9.4406   9.4826
     9.5271   9.7315   9.8463   9.8887  10.0796  10.0890  10.1390  10.4430
    10.4952  10.7787  10.8296  10.8845  10.9450  10.9632  11.1146  11.1421

     occupation numbers 
     1.0000   1.0000   1.0000   1.0000   1.0000   1.0000   1.0000   1.0000
     1.0000   1.0000   1.0000   1.0000   1.0000   1.0000   1.0000   1.0000
     1.0000   1.0000   1.0000   1.0000   1.0000   1.0000   1.0000   1.0000
     1.0000   1.0000   1.0000   1.0000   1.0000   1.0000   1.0000   1.0000
     1.0000   1.0000   1.0000   1.0000   1.0000   1.0000   1.0000   1.0000
     1.0000   1.0000   1.0000   1.0000   1.0000   1.0000   1.0000   1.0000
     1.0000   1.0000   1.0000   1.0000   1.0000   1.0000   1.0000   1.0000
     1.0000   1.0000   1.0000   1.0000   1.0000   1.0000   1.0000   1.0000
     1.0000   1.0000   1.0000   1.0000   1.0000   1.0000   1.0000   1.0000
     1.0000   1.0000   1.0000   1.0000   1.0000   1.0000   1.0000   1.0000
     1.0000   1.0000   1.0000   1.0000   1.0000   1.0000   1.0000   1.0000
     1.0000   1.0000   1.0000   1.0000   1.0000   1.0000   1.0000   1.0000
     1.0000   1.0000   1.0000   1.0000   1.0000   1.0000   1.0000   1.0000
     1.0000   1.0000   1.0000   1.0000   1.0000   1.0000   1.0000   1.0000
     1.0000   1.0000   1.0000   1.0000   1.0000   1.0000   1.0000   1.0000
     1.0000   1.0000   1.0000   1.0000   1.0000   1.0000   1.0000   1.0000
     1.0000   1.0000   1.0000   1.0000   1.0000   1.0000   1.0000   1.0000
     1.0000   1.0000   1.0000   1.0000   1.0000   1.0000   1.0000   1.0000
     1.0000   1.0000   1.0000   1.0000   1.0000   1.0000   1.0000   1.0000
     1.0000   1.0000   1.0000   1.0000   1.0000   1.0000   1.0000   1.0000
     1.0000   1.0000   1.0000   1.0000   1.0000   1.0000   1.0000   1.0000
     1.0000   1.0000   1.0000   1.0000   1.0000   1.0000   1.0000   1.0000
     1.0000   1.0000   1.0000   1.0000   1.0000   1.0000   1.0000   1.0000
     1.0000   1.0000   1.0000   1.0000   1.0000   1.0000   1.0000   1.0000
     1.0000   1.0000   1.0000   1.0000   1.0000   1.0000   1.0000   1.0000
     1.0000   1.0000   1.0000   1.0000   1.0000   1.0000   1.0000   1.0000
     1.0000   1.0000   1.0000   1.0000   1.0000   1.0000   1.0000   1.0000
     1.0000   1.0000   1.0000   1.0000   1.0000   1.0000   1.0000   1.0000
     1.0000   1.0000   1.0000   1.0000   1.0000   1.0000   1.0000   1.0000
     1.0000   1.0000   1.0000   1.0000   1.0000   1.0000   1.0000   1.0000
     1.0000   1.0000   1.0000   1.0000   1.0000   1.0000   1.0000   1.0000
     1.0000   1.0000   1.0000   1.0000   1.0000   1.0000   1.0000   1.0000
     1.0000   1.0000   1.0000   1.0000   1.0000   1.0000   1.0000   1.0000
     1.0000   1.0000   1.0000   1.0000   1.0000   1.0000   1.0000   1.0000
     1.0000   1.0000   1.0000   1.0000   1.0000   1.0000   1.0000   1.0000
     1.0000   1.0000   1.0000   1.0000   1.0000   1.0000   1.0000   1.0000
     1.0000   1.0000   1.0000   1.0000   1.0000   1.0000   1.0000   1.0000
     1.0000   1.0000   1.0000   1.0000   1.0000   1.0000   1.0000   1.0000
     1.0000   1.0000   1.0000   1.0000   1.0000   0.9999   0.9999   0.9998
     0.9990   0.9978   0.9958   0.9907   0.9879   0.9848   0.9838   0.9794
     0.9189   0.8685   0.8602   0.7377   0.7050   0.5908   0.3602   0.3092
     0.1053   0.0866   0.0203   0.0163   0.0079   0.0050   0.0032   0.0026
     0.0010   0.0006   0.0002   0.0000   0.0000   0.0000   0.0000   0.0000
     0.0000   0.0000   0.0000   0.0000   0.0000   0.0000   0.0000   0.0000
     0.0000   0.0000   0.0000   0.0000   0.0000   0.0000   0.0000   0.0000
     0.0000   0.0000   0.0000   0.0000   0.0000   0.0000   0.0000   0.0000
     0.0000   0.0000   0.0000   0.0000   0.0000   0.0000   0.0000   0.0000
     0.0000   0.0000   0.0000   0.0000   0.0000   0.0000   0.0000   0.0000
     0.0000   0.0000   0.0000   0.0000   0.0000   0.0000   0.0000   0.0000

          k =-0.5000 0.6736 0.0000 ( 88140 PWs)   bands (ev):

   -95.5398 -95.5357 -95.5301 -95.5288 -95.5285 -95.5243 -95.5222 -95.5209
   -95.5093 -95.5045 -95.5044 -95.5021 -95.5004 -95.4997 -95.4960 -95.4954
   -95.4943 -95.3953 -95.1406 -95.1347 -95.1338 -95.1009 -95.0939 -95.0919
   -95.0877 -95.0849 -95.0814 -95.0771 -95.0757 -95.0751 -95.0713 -95.0677
   -95.0671 -94.8947 -94.8921 -94.8902 -49.8471 -49.8345 -49.8290 -49.8186
   -49.8084 -49.8022 -49.7950 -49.7867 -49.7805 -49.7749 -49.7725 -49.7687
   -49.7591 -49.7464 -49.7426 -49.6950 -49.6877 -49.6841 -49.6807 -49.6739
   -49.6712 -49.6656 -49.6599 -49.6526 -49.6470 -49.6439 -49.6377 -49.6328
   -49.6272 -49.6230 -49.6188 -49.6140 -49.6104 -49.6084 -49.6060 -49.6030
   -49.5991 -49.5934 -49.5890 -49.5876 -49.5833 -49.5784 -49.5743 -49.5717
   -49.5688 -49.5679 -49.5651 -49.5596 -49.5479 -49.5413 -49.5280 -49.5031
   -49.4879 -49.4807 -49.4725 -49.4651 -49.4586 -49.4543 -49.4427 -49.4368
   -49.4293 -49.4153 -49.4119 -49.4059 -49.3830 -49.3777 -49.3381 -49.3105
   -49.3101 -49.3029 -49.2970 -49.2948 -49.2824 -49.2772 -49.2741 -49.2693
   -49.2637 -49.2562 -49.2554 -49.2491 -49.2345 -49.2183 -49.2041 -49.1922
   -49.1574 -49.1335 -49.1190 -49.1088 -49.0978 -49.0813 -49.0494 -49.0410
   -49.0386 -49.0209 -49.0175 -49.0132 -49.0104 -49.0085 -49.0081 -49.0013
   -48.9987 -48.9978 -48.9935 -48.9890 -48.9882 -48.8093 -48.8037 -48.8014
   -15.0429  -5.5026  -4.9634  -4.4665  -4.2226  -3.7469  -3.3960  -3.3441
    -3.3333  -3.2281  -3.1903  -3.1303  -3.0776  -3.0147  -3.0019  -2.8857
    -2.8130  -2.8060  -2.7388  -2.7008  -2.6676  -2.6542  -2.6322  -2.5977
    -2.5420  -2.5044  -2.4451  -2.4298  -2.3701  -2.3280  -2.2759  -2.2136
    -2.1931  -2.1718  -2.1230  -2.1061  -2.0047  -1.9625  -1.8846  -1.8385
    -1.7028  -1.6458  -1.6276  -1.5603  -1.5423  -1.5323  -1.5169  -1.4374
    -1.4225  -1.3809  -1.3430  -1.2876  -1.2252  -1.1936  -1.1738  -1.1420
    -1.1213  -1.0941  -1.0454  -1.0183  -0.9771  -0.9308  -0.8732  -0.8498
    -0.8442  -0.7953  -0.7651  -0.6638  -0.6297  -0.6076  -0.5536  -0.5382
    -0.5312  -0.5038  -0.4721  -0.4547  -0.4186  -0.3930  -0.3606  -0.3439
    -0.2731  -0.2512  -0.2326  -0.2105  -0.2045  -0.1684  -0.0908  -0.0681
    -0.0472  -0.0355  -0.0163   0.0215   0.0397   0.0399   0.0410   0.0498
     0.0718   0.0956   0.1036   0.1198   0.1343   0.1557   0.1931   0.2037
     0.2202   0.2391   0.2684   0.3050   0.3335   0.3563   0.3950   0.4492
     0.4811   0.5047   0.5926   0.6107   0.6455   0.7439   0.8158   0.8442
     0.8769   0.9013   0.9227   0.9578   0.9810   0.9879   1.0506   1.0769
     1.0895   1.1102   1.1351   1.1736   1.2107   1.2204   1.2792   1.3220
     1.3594   1.4789   1.5015   1.5172   1.5468   1.5958   1.6333   1.6427
     1.6562   1.6851   1.7118   1.7238   1.7597   1.8295   1.8597   1.8882
     1.9023   1.9126   1.9335   1.9564   1.9703   2.0861   2.1175   2.1796
     2.2427   2.2622   2.3453   2.3753   2.3928   2.4535   2.4614   2.4884
     2.5775   2.6182   2.6499   2.6899   2.7032   2.7148   2.7180   2.7302
     2.8020   2.8290   2.8325   2.8717   2.8798   2.9050   2.9521   2.9636
     3.0304   3.0412   3.1173   3.1286   3.1647   3.1880   3.2106   3.2203
     3.2693   3.2949   3.3440   3.9417   4.2029   4.2243   4.2792   4.3476
     4.6336   4.7880   4.8556   5.1557   5.2050   5.2353   5.2793   5.3737
     5.6325   5.7612   5.8390   6.0788   6.3698   6.4461   6.4981   6.6372
     6.8097   7.1111   7.2923   7.5361   7.5958   7.6179   8.3531   8.6046
     8.6253   8.6899   8.8703   9.1133   9.1311   9.2036   9.4406   9.4824
     9.5271   9.7315   9.8464   9.8887  10.0797  10.0890  10.1390  10.4430
    10.4952  10.7788  10.8296  10.8845  10.9449  10.9631  11.1146  11.1421

     occupation numbers 
     1.0000   1.0000   1.0000   1.0000   1.0000   1.0000   1.0000   1.0000
     1.0000   1.0000   1.0000   1.0000   1.0000   1.0000   1.0000   1.0000
     1.0000   1.0000   1.0000   1.0000   1.0000   1.0000   1.0000   1.0000
     1.0000   1.0000   1.0000   1.0000   1.0000   1.0000   1.0000   1.0000
     1.0000   1.0000   1.0000   1.0000   1.0000   1.0000   1.0000   1.0000
     1.0000   1.0000   1.0000   1.0000   1.0000   1.0000   1.0000   1.0000
     1.0000   1.0000   1.0000   1.0000   1.0000   1.0000   1.0000   1.0000
     1.0000   1.0000   1.0000   1.0000   1.0000   1.0000   1.0000   1.0000
     1.0000   1.0000   1.0000   1.0000   1.0000   1.0000   1.0000   1.0000
     1.0000   1.0000   1.0000   1.0000   1.0000   1.0000   1.0000   1.0000
     1.0000   1.0000   1.0000   1.0000   1.0000   1.0000   1.0000   1.0000
     1.0000   1.0000   1.0000   1.0000   1.0000   1.0000   1.0000   1.0000
     1.0000   1.0000   1.0000   1.0000   1.0000   1.0000   1.0000   1.0000
     1.0000   1.0000   1.0000   1.0000   1.0000   1.0000   1.0000   1.0000
     1.0000   1.0000   1.0000   1.0000   1.0000   1.0000   1.0000   1.0000
     1.0000   1.0000   1.0000   1.0000   1.0000   1.0000   1.0000   1.0000
     1.0000   1.0000   1.0000   1.0000   1.0000   1.0000   1.0000   1.0000
     1.0000   1.0000   1.0000   1.0000   1.0000   1.0000   1.0000   1.0000
     1.0000   1.0000   1.0000   1.0000   1.0000   1.0000   1.0000   1.0000
     1.0000   1.0000   1.0000   1.0000   1.0000   1.0000   1.0000   1.0000
     1.0000   1.0000   1.0000   1.0000   1.0000   1.0000   1.0000   1.0000
     1.0000   1.0000   1.0000   1.0000   1.0000   1.0000   1.0000   1.0000
     1.0000   1.0000   1.0000   1.0000   1.0000   1.0000   1.0000   1.0000
     1.0000   1.0000   1.0000   1.0000   1.0000   1.0000   1.0000   1.0000
     1.0000   1.0000   1.0000   1.0000   1.0000   1.0000   1.0000   1.0000
     1.0000   1.0000   1.0000   1.0000   1.0000   1.0000   1.0000   1.0000
     1.0000   1.0000   1.0000   1.0000   1.0000   1.0000   1.0000   1.0000
     1.0000   1.0000   1.0000   1.0000   1.0000   1.0000   1.0000   1.0000
     1.0000   1.0000   1.0000   1.0000   1.0000   1.0000   1.0000   1.0000
     1.0000   1.0000   1.0000   1.0000   1.0000   1.0000   1.0000   1.0000
     1.0000   1.0000   1.0000   1.0000   1.0000   1.0000   1.0000   1.0000
     1.0000   1.0000   1.0000   1.0000   1.0000   1.0000   1.0000   1.0000
     1.0000   1.0000   1.0000   1.0000   1.0000   1.0000   1.0000   1.0000
     1.0000   1.0000   1.0000   1.0000   1.0000   1.0000   1.0000   1.0000
     1.0000   1.0000   1.0000   1.0000   1.0000   1.0000   1.0000   1.0000
     1.0000   1.0000   1.0000   1.0000   1.0000   1.0000   1.0000   1.0000
     1.0000   1.0000   1.0000   1.0000   1.0000   1.0000   1.0000   1.0000
     1.0000   1.0000   1.0000   1.0000   1.0000   1.0000   1.0000   1.0000
     1.0000   1.0000   1.0000   1.0000   1.0000   0.9999   0.9999   0.9998
     0.9990   0.9978   0.9958   0.9907   0.9879   0.9848   0.9838   0.9794
     0.9188   0.8685   0.8602   0.7377   0.7050   0.5909   0.3602   0.3092
     0.1053   0.0866   0.0203   0.0162   0.0079   0.0050   0.0032   0.0026
     0.0010   0.0006   0.0002   0.0000   0.0000   0.0000   0.0000   0.0000
     0.0000   0.0000   0.0000   0.0000   0.0000   0.0000   0.0000   0.0000
     0.0000   0.0000   0.0000   0.0000   0.0000   0.0000   0.0000   0.0000
     0.0000   0.0000   0.0000   0.0000   0.0000   0.0000   0.0000   0.0000
     0.0000   0.0000   0.0000   0.0000   0.0000   0.0000   0.0000   0.0000
     0.0000   0.0000   0.0000   0.0000   0.0000   0.0000   0.0000   0.0000
     0.0000   0.0000   0.0000   0.0000   0.0000   0.0000   0.0000   0.0000

          k =-0.5000-0.2887 0.0000 ( 88178 PWs)   bands (ev):

   -95.5397 -95.5358 -95.5296 -95.5292 -95.5286 -95.5243 -95.5222 -95.5209
   -95.5093 -95.5045 -95.5044 -95.5022 -95.5002 -95.4999 -95.4963 -95.4950
   -95.4944 -95.3953 -95.1406 -95.1347 -95.1338 -95.1009 -95.0939 -95.0919
   -95.0875 -95.0855 -95.0804 -95.0783 -95.0755 -95.0749 -95.0713 -95.0676
   -95.0673 -94.8947 -94.8921 -94.8903 -49.8513 -49.8301 -49.8230 -49.8181
   -49.8046 -49.8004 -49.7986 -49.7970 -49.7810 -49.7788 -49.7774 -49.7744
   -49.7528 -49.7425 -49.7163 -49.7157 -49.6834 -49.6825 -49.6762 -49.6753
   -49.6724 -49.6655 -49.6639 -49.6586 -49.6541 -49.6444 -49.6402 -49.6303
   -49.6251 -49.6200 -49.6196 -49.6140 -49.6125 -49.6037 -49.6030 -49.5995
   -49.5947 -49.5934 -49.5896 -49.5868 -49.5818 -49.5791 -49.5772 -49.5748
   -49.5702 -49.5656 -49.5638 -49.5604 -49.5536 -49.5416 -49.5218 -49.5092
   -49.4852 -49.4832 -49.4697 -49.4675 -49.4588 -49.4491 -49.4301 -49.4298
   -49.4277 -49.4267 -49.4249 -49.4244 -49.3710 -49.3449 -49.3446 -49.3402
   -49.3094 -49.3025 -49.2893 -49.2890 -49.2864 -49.2860 -49.2845 -49.2579
   -49.2518 -49.2506 -49.2505 -49.2496 -49.2365 -49.2363 -49.1968 -49.1939
   -49.1599 -49.1295 -49.1156 -49.1080 -49.1061 -49.0788 -49.0494 -49.0411
   -49.0385 -49.0209 -49.0171 -49.0144 -49.0105 -49.0084 -49.0060 -49.0036
   -48.9982 -48.9975 -48.9935 -48.9888 -48.9884 -48.8093 -48.8037 -48.8014
   -15.0429  -5.3423  -5.2941  -4.0934  -4.0328  -3.8857  -3.8727  -3.4667
    -3.3048  -3.0295  -2.9997  -2.9645  -2.9531  -2.9360  -2.9238  -2.9150
    -2.8937  -2.8762  -2.8563  -2.8068  -2.7663  -2.7487  -2.7175  -2.7119
    -2.6129  -2.5249  -2.3891  -2.3867  -2.3509  -2.3484  -2.1256  -2.1213
    -2.0980  -2.0683  -2.0438  -2.0341  -1.9686  -1.9631  -1.8291  -1.8194
    -1.7470  -1.7352  -1.7306  -1.6536  -1.6475  -1.5196  -1.5186  -1.4839
    -1.4584  -1.3956  -1.3633  -1.2589  -1.2549  -1.2399  -1.1845  -1.1346
    -1.1252  -1.0986  -1.0941  -0.9907  -0.9768  -0.9177  -0.8771  -0.8530
    -0.8081  -0.7904  -0.6762  -0.6407  -0.6362  -0.6291  -0.5940  -0.5842
    -0.5788  -0.5698  -0.5311  -0.3597  -0.3388  -0.3172  -0.3156  -0.3115
    -0.3108  -0.2796  -0.2666  -0.2633  -0.2295  -0.2146  -0.1419  -0.1404
    -0.0964  -0.0909  -0.0776  -0.0468   0.0145   0.0219   0.0398   0.0400
     0.0735   0.1279   0.1491   0.1597   0.1663   0.1767   0.1830   0.1993
     0.2298   0.2700   0.2915   0.4117   0.4281   0.4339   0.5246   0.6083
     0.6604   0.7136   0.7328   0.7535   0.7600   0.8289   0.8450   0.8573
     0.8727   0.8779   0.8807   0.9035   0.9174   0.9468   0.9620   0.9953
     1.0447   1.0455   1.0697   1.0737   1.1275   1.1841   1.2125   1.2283
     1.2584   1.2901   1.4311   1.4510   1.5900   1.6386   1.6541   1.6593
     1.6608   1.6903   1.7874   1.8157   1.8907   1.8991   1.9116   1.9170
     1.9283   1.9475   2.0172   2.0295   2.0510   2.0513   2.0704   2.1536
     2.1737   2.2246   2.2627   2.3066   2.3909   2.4389   2.4396   2.4487
     2.5384   2.5550   2.6302   2.6313   2.6427   2.6489   2.7004   2.7028
     2.7231   2.7352   2.7468   2.7937   2.9164   2.9249   2.9277   2.9439
     2.9500   2.9565   3.0114   3.1786   3.2050   3.2106   3.2197   3.2228
     3.4266   3.4643   3.7280   3.7414   3.9230   4.3955   4.4396   4.7877
     4.7911   4.7939   4.7992   5.2643   5.2744   5.2865   5.3046   5.3254
     5.6132   5.7872   5.7907   5.9093   6.1720   6.1919   6.3412   6.3638
     6.3778   6.4209   8.2525   8.2536   8.2859   8.3100   8.5130   8.5357
     8.6390   8.7943   8.8282   8.8438   8.8722   8.8982   9.2198   9.3084
     9.3403   9.7635   9.7690   9.8335   9.8843  10.1932  10.3197  10.3387
    10.3909  10.6124  10.7955  10.8606  10.8919  10.8971  10.9072  10.9616

     occupation numbers 
     1.0000   1.0000   1.0000   1.0000   1.0000   1.0000   1.0000   1.0000
     1.0000   1.0000   1.0000   1.0000   1.0000   1.0000   1.0000   1.0000
     1.0000   1.0000   1.0000   1.0000   1.0000   1.0000   1.0000   1.0000
     1.0000   1.0000   1.0000   1.0000   1.0000   1.0000   1.0000   1.0000
     1.0000   1.0000   1.0000   1.0000   1.0000   1.0000   1.0000   1.0000
     1.0000   1.0000   1.0000   1.0000   1.0000   1.0000   1.0000   1.0000
     1.0000   1.0000   1.0000   1.0000   1.0000   1.0000   1.0000   1.0000
     1.0000   1.0000   1.0000   1.0000   1.0000   1.0000   1.0000   1.0000
     1.0000   1.0000   1.0000   1.0000   1.0000   1.0000   1.0000   1.0000
     1.0000   1.0000   1.0000   1.0000   1.0000   1.0000   1.0000   1.0000
     1.0000   1.0000   1.0000   1.0000   1.0000   1.0000   1.0000   1.0000
     1.0000   1.0000   1.0000   1.0000   1.0000   1.0000   1.0000   1.0000
     1.0000   1.0000   1.0000   1.0000   1.0000   1.0000   1.0000   1.0000
     1.0000   1.0000   1.0000   1.0000   1.0000   1.0000   1.0000   1.0000
     1.0000   1.0000   1.0000   1.0000   1.0000   1.0000   1.0000   1.0000
     1.0000   1.0000   1.0000   1.0000   1.0000   1.0000   1.0000   1.0000
     1.0000   1.0000   1.0000   1.0000   1.0000   1.0000   1.0000   1.0000
     1.0000   1.0000   1.0000   1.0000   1.0000   1.0000   1.0000   1.0000
     1.0000   1.0000   1.0000   1.0000   1.0000   1.0000   1.0000   1.0000
     1.0000   1.0000   1.0000   1.0000   1.0000   1.0000   1.0000   1.0000
     1.0000   1.0000   1.0000   1.0000   1.0000   1.0000   1.0000   1.0000
     1.0000   1.0000   1.0000   1.0000   1.0000   1.0000   1.0000   1.0000
     1.0000   1.0000   1.0000   1.0000   1.0000   1.0000   1.0000   1.0000
     1.0000   1.0000   1.0000   1.0000   1.0000   1.0000   1.0000   1.0000
     1.0000   1.0000   1.0000   1.0000   1.0000   1.0000   1.0000   1.0000
     1.0000   1.0000   1.0000   1.0000   1.0000   1.0000   1.0000   1.0000
     1.0000   1.0000   1.0000   1.0000   1.0000   1.0000   1.0000   1.0000
     1.0000   1.0000   1.0000   1.0000   1.0000   1.0000   1.0000   1.0000
     1.0000   1.0000   1.0000   1.0000   1.0000   1.0000   1.0000   1.0000
     1.0000   1.0000   1.0000   1.0000   1.0000   1.0000   1.0000   1.0000
     1.0000   1.0000   1.0000   1.0000   1.0000   1.0000   1.0000   1.0000
     1.0000   1.0000   1.0000   1.0000   1.0000   1.0000   1.0000   1.0000
     1.0000   1.0000   1.0000   1.0000   1.0000   1.0000   1.0000   1.0000
     1.0000   1.0000   1.0000   1.0000   1.0000   1.0000   1.0000   1.0000
     1.0000   1.0000   1.0000   1.0000   1.0000   1.0000   1.0000   1.0000
     1.0000   1.0000   1.0000   1.0000   1.0000   1.0000   1.0000   1.0000
     1.0000   1.0000   1.0000   1.0000   1.0000   1.0000   1.0000   1.0000
     1.0000   1.0000   1.0000   1.0000   1.0000   1.0000   1.0000   1.0000
     1.0000   1.0000   1.0000   1.0000   1.0000   0.9999   0.9999   0.9999
     0.9995   0.9994   0.9972   0.9971   0.9964   0.9959   0.9886   0.9880
     0.9821   0.9773   0.9716   0.9305   0.5348   0.4923   0.4785   0.3988
     0.3700   0.3401   0.1467   0.0060   0.0036   0.0032   0.0027   0.0025
     0.0000   0.0000   0.0000   0.0000   0.0000   0.0000   0.0000   0.0000
     0.0000   0.0000   0.0000   0.0000   0.0000   0.0000   0.0000   0.0000
     0.0000   0.0000   0.0000   0.0000   0.0000   0.0000   0.0000   0.0000
     0.0000   0.0000   0.0000   0.0000   0.0000   0.0000   0.0000   0.0000
     0.0000   0.0000   0.0000   0.0000   0.0000   0.0000   0.0000   0.0000
     0.0000   0.0000   0.0000   0.0000   0.0000   0.0000   0.0000   0.0000
     0.0000   0.0000   0.0000   0.0000   0.0000   0.0000   0.0000   0.0000

 ------ SPIN DOWN ----------


          k = 0.0000 0.0000 0.0000 ( 88097 PWs)   bands (ev):

   -95.5414 -95.5329 -95.5289 -95.5288 -95.5283 -95.5232 -95.5222 -95.5217
   -95.5091 -95.5040 -95.5036 -95.5022 -95.4986 -95.4986 -95.4970 -95.4968
   -95.4924 -95.3952 -95.1409 -95.1342 -95.1336 -95.1008 -95.0936 -95.0917
   -95.0905 -95.0797 -95.0794 -95.0792 -95.0759 -95.0758 -95.0725 -95.0673
   -95.0670 -94.8938 -94.8914 -94.8895 -49.8102 -49.7970 -49.7880 -49.7866
   -49.7811 -49.7796 -49.7784 -49.7738 -49.7737 -49.7671 -49.7662 -49.7661
   -49.7599 -49.7582 -49.7534 -49.7528 -49.7369 -49.7367 -49.7342 -49.7000
   -49.6996 -49.6914 -49.6837 -49.6832 -49.6643 -49.6641 -49.6632 -49.6220
   -49.6218 -49.6189 -49.6094 -49.6055 -49.6053 -49.6047 -49.5995 -49.5901
   -49.5897 -49.5878 -49.5867 -49.5866 -49.5858 -49.5832 -49.5830 -49.5566
   -49.5558 -49.5527 -49.5418 -49.5388 -49.5377 -49.5244 -49.5235 -49.4786
   -49.4778 -49.4673 -49.4507 -49.4506 -49.4336 -49.4223 -49.4217 -49.4165
   -49.4074 -49.3956 -49.3934 -49.3934 -49.3919 -49.3917 -49.3915 -49.3843
   -49.3830 -49.3756 -49.3756 -49.3098 -49.3085 -49.2721 -49.2511 -49.2504
   -49.2340 -49.2337 -49.2334 -49.2310 -49.2309 -49.2292 -49.1839 -49.1768
   -49.1765 -49.1275 -49.1274 -49.0969 -49.0722 -49.0720 -49.0511 -49.0392
   -49.0383 -49.0231 -49.0210 -49.0100 -49.0082 -49.0047 -49.0044 -49.0041
   -48.9996 -48.9996 -48.9963 -48.9879 -48.9876 -48.8077 -48.8026 -48.8002
   -11.9265  -6.2022  -4.8985  -3.8120  -3.7610  -3.7231  -3.7219  -3.7141
    -3.7021  -3.7021  -3.6626  -3.1519  -3.1509  -3.1482  -3.1196  -3.1190
    -3.0773  -2.6688  -2.6681  -2.6591  -2.6284  -2.6284  -2.5998  -2.4329
    -2.4328  -2.4126  -2.3999  -2.3772  -2.3771  -2.2187  -2.2184  -2.2027
    -2.1750  -2.1667  -2.1666  -2.1464  -2.1460  -2.1385  -2.0850  -2.0834
    -2.0346  -1.5591  -1.5584  -1.5084  -1.5083  -1.4819  -1.4818  -1.4729
    -1.3929  -1.3921  -1.3749  -1.3132  -1.3131  -1.1777  -1.1770  -0.7178
    -0.7166  -0.7060  -0.6837  -0.6829  -0.6657  -0.6165  -0.5154  -0.5152
    -0.5063  -0.4998  -0.4892  -0.4890  -0.4776  -0.4669  -0.4669  -0.4501
    -0.4380  -0.4363  -0.4039  -0.3627  -0.3616  -0.2737  -0.2722  -0.2439
    -0.2316  -0.2305  -0.2281  -0.0557  -0.0543  -0.0414  -0.0039  -0.0029
     0.0151   0.0401   0.0409   0.1220   0.1221   0.1346   0.1356   0.1434
     0.1437   0.1887   0.1887   0.1919   0.2000   0.3305   0.3323   0.3335
     0.4020   0.4102   0.4124   0.4257   0.8753   0.8760   0.9017   0.9120
     0.9134   0.9222   0.9468   0.9481   0.9788   0.9865   1.0063   1.0071
     1.0674   1.0689   1.1023   1.1025   1.1660   1.1752   1.1753   1.3045
     1.3736   1.3741   1.4057   1.4100   1.4508   1.4584   1.6680   1.6937
     1.6946   1.7077   1.7085   1.7355   1.8005   1.8005   1.8933   1.8940
     1.9216   1.9315   1.9319   1.9455   2.1031   2.1162   2.1175   2.1358
     2.1431   2.1432   2.1499   2.1506   2.1509   2.1798   2.1802   2.1803
     2.2432   2.2918   2.2918   2.3276   2.3283   2.3550   2.3609   2.3616
     2.3840   2.4341   2.4353   2.4577   2.4578   2.4829   2.5057   2.5057
     2.5381   2.5516   2.5518   2.5761   2.6007   2.6008   2.6626   2.6645
     2.6668   2.6696   2.6814   2.6829   2.6896   2.8970   2.9013   2.9521
     2.9522   2.9609   2.9889   3.0042   3.0046   3.0209   3.0216   3.0225
     3.7402   3.7885   3.7894   3.8284   3.8416   3.8426   3.8495   6.1099
     6.1172   6.1189   6.1620   6.1642   6.1741   7.6346   7.6360   7.6824
     7.6918   7.6921   7.7086   8.3969   8.3971   8.7377   8.9557   8.9578
     8.9840   9.0277   9.0309   9.0708   9.5021   9.5508   9.5510   9.5747
     9.8075  10.2575  10.2587  10.2830  10.7531  10.8684  10.8710  10.9162
    10.9184  10.9417  11.0039  11.3360  11.3603  11.3620  11.3992  11.7333

     occupation numbers 
     1.0000   1.0000   1.0000   1.0000   1.0000   1.0000   1.0000   1.0000
     1.0000   1.0000   1.0000   1.0000   1.0000   1.0000   1.0000   1.0000
     1.0000   1.0000   1.0000   1.0000   1.0000   1.0000   1.0000   1.0000
     1.0000   1.0000   1.0000   1.0000   1.0000   1.0000   1.0000   1.0000
     1.0000   1.0000   1.0000   1.0000   1.0000   1.0000   1.0000   1.0000
     1.0000   1.0000   1.0000   1.0000   1.0000   1.0000   1.0000   1.0000
     1.0000   1.0000   1.0000   1.0000   1.0000   1.0000   1.0000   1.0000
     1.0000   1.0000   1.0000   1.0000   1.0000   1.0000   1.0000   1.0000
     1.0000   1.0000   1.0000   1.0000   1.0000   1.0000   1.0000   1.0000
     1.0000   1.0000   1.0000   1.0000   1.0000   1.0000   1.0000   1.0000
     1.0000   1.0000   1.0000   1.0000   1.0000   1.0000   1.0000   1.0000
     1.0000   1.0000   1.0000   1.0000   1.0000   1.0000   1.0000   1.0000
     1.0000   1.0000   1.0000   1.0000   1.0000   1.0000   1.0000   1.0000
     1.0000   1.0000   1.0000   1.0000   1.0000   1.0000   1.0000   1.0000
     1.0000   1.0000   1.0000   1.0000   1.0000   1.0000   1.0000   1.0000
     1.0000   1.0000   1.0000   1.0000   1.0000   1.0000   1.0000   1.0000
     1.0000   1.0000   1.0000   1.0000   1.0000   1.0000   1.0000   1.0000
     1.0000   1.0000   1.0000   1.0000   1.0000   1.0000   1.0000   1.0000
     1.0000   1.0000   1.0000   1.0000   1.0000   1.0000   1.0000   1.0000
     1.0000   1.0000   1.0000   1.0000   1.0000   1.0000   1.0000   1.0000
     1.0000   1.0000   1.0000   1.0000   1.0000   1.0000   1.0000   1.0000
     1.0000   1.0000   1.0000   1.0000   1.0000   1.0000   1.0000   1.0000
     1.0000   1.0000   1.0000   1.0000   1.0000   1.0000   1.0000   1.0000
     1.0000   1.0000   1.0000   1.0000   1.0000   1.0000   1.0000   1.0000
     1.0000   1.0000   1.0000   1.0000   1.0000   1.0000   1.0000   1.0000
     1.0000   1.0000   1.0000   1.0000   1.0000   1.0000   1.0000   1.0000
     1.0000   1.0000   1.0000   1.0000   1.0000   1.0000   1.0000   1.0000
     1.0000   1.0000   1.0000   1.0000   1.0000   1.0000   1.0000   1.0000
     1.0000   1.0000   1.0000   1.0000   1.0000   1.0000   1.0000   1.0000
     1.0000   1.0000   1.0000   1.0000   1.0000   1.0000   1.0000   1.0000
     1.0000   1.0000   1.0000   1.0000   1.0000   1.0000   1.0000   1.0000
     1.0000   1.0000   1.0000   1.0000   1.0000   1.0000   1.0000   1.0000
     1.0000   1.0000   1.0000   1.0000   1.0000   1.0000   1.0000   1.0000
     1.0000   1.0000   1.0000   1.0000   1.0000   1.0000   1.0000   1.0000
     1.0000   1.0000   1.0000   1.0000   1.0000   1.0000   1.0000   1.0000
     1.0000   1.0000   1.0000   1.0000   1.0000   1.0000   1.0000   1.0000
     1.0000   1.0000   1.0000   1.0000   1.0000   1.0000   1.0000   1.0000
     1.0000   1.0000   1.0000   1.0000   1.0000   1.0000   1.0000   1.0000
     1.0000   1.0000   1.0000   1.0000   1.0000   1.0000   1.0000   1.0000
     1.0000   0.9999   0.9999   0.9999   0.9999   0.9999   0.9998   0.9998
     0.9996   0.9994   0.9994   0.9990   0.9984   0.9984   0.9946   0.9944
     0.9941   0.9938   0.9922   0.9919   0.9908   0.6289   0.6085   0.3601
     0.3598   0.3208   0.2123   0.1657   0.1646   0.1244   0.1231   0.1211
     0.0000   0.0000   0.0000   0.0000   0.0000   0.0000   0.0000   0.0000
     0.0000   0.0000   0.0000   0.0000   0.0000   0.0000   0.0000   0.0000
     0.0000   0.0000   0.0000   0.0000   0.0000   0.0000   0.0000   0.0000
     0.0000   0.0000   0.0000   0.0000   0.0000   0.0000   0.0000   0.0000
     0.0000   0.0000   0.0000   0.0000   0.0000   0.0000   0.0000   0.0000
     0.0000   0.0000   0.0000   0.0000   0.0000   0.0000   0.0000   0.0000

          k = 0.0000 0.1925 0.0000 ( 88230 PWs)   bands (ev):

   -95.5410 -95.5334 -95.5289 -95.5288 -95.5282 -95.5234 -95.5219 -95.5217
   -95.5091 -95.5041 -95.5037 -95.5021 -95.4990 -95.4989 -95.4966 -95.4963
   -95.4926 -95.3952 -95.1408 -95.1342 -95.1337 -95.1008 -95.0936 -95.0918
   -95.0900 -95.0814 -95.0796 -95.0781 -95.0761 -95.0755 -95.0720 -95.0674
   -95.0671 -94.8938 -94.8914 -94.8895 -49.8224 -49.8092 -49.8045 -49.7996
   -49.7906 -49.7867 -49.7846 -49.7815 -49.7796 -49.7660 -49.7641 -49.7630
   -49.7577 -49.7479 -49.7429 -49.7426 -49.7301 -49.7231 -49.7114 -49.6879
   -49.6875 -49.6866 -49.6810 -49.6764 -49.6618 -49.6612 -49.6546 -49.6260
   -49.6256 -49.6157 -49.6128 -49.6127 -49.6061 -49.6048 -49.6031 -49.5929
   -49.5911 -49.5896 -49.5882 -49.5872 -49.5815 -49.5795 -49.5772 -49.5621
   -49.5609 -49.5558 -49.5439 -49.5436 -49.5357 -49.5309 -49.5244 -49.4852
   -49.4792 -49.4680 -49.4601 -49.4572 -49.4456 -49.4287 -49.4238 -49.4212
   -49.4113 -49.4109 -49.4041 -49.4040 -49.3968 -49.3936 -49.3710 -49.3708
   -49.3510 -49.3502 -49.3467 -49.3077 -49.3036 -49.2749 -49.2548 -49.2503
   -49.2431 -49.2425 -49.2409 -49.2307 -49.2301 -49.2197 -49.1857 -49.1787
   -49.1778 -49.1297 -49.1252 -49.0985 -49.0779 -49.0737 -49.0506 -49.0392
   -49.0388 -49.0224 -49.0206 -49.0100 -49.0084 -49.0074 -49.0048 -49.0027
   -48.9999 -48.9989 -48.9952 -48.9881 -48.9877 -48.8078 -48.8026 -48.8001
   -11.9265  -6.0979  -4.7961  -4.1451  -3.8296  -3.8270  -3.7061  -3.6146
    -3.5256  -3.5131  -3.5023  -3.2390  -3.1874  -3.1039  -3.0868  -3.0662
    -3.0413  -2.7015  -2.6200  -2.6181  -2.6108  -2.5822  -2.5586  -2.5364
    -2.4708  -2.4607  -2.3693  -2.3530  -2.3365  -2.2658  -2.2619  -2.2477
    -2.2326  -2.2181  -2.1958  -2.1735  -2.0286  -2.0093  -1.9619  -1.9419
    -1.9070  -1.6428  -1.6395  -1.6122  -1.5680  -1.5552  -1.5148  -1.5022
    -1.3713  -1.3512  -1.2929  -1.2713  -1.2418  -1.1851  -1.1613  -0.9151
    -0.8123  -0.8110  -0.7835  -0.7832  -0.7615  -0.6798  -0.6790  -0.6606
    -0.6321  -0.6289  -0.6099  -0.5643  -0.5302  -0.5021  -0.4795  -0.4635
    -0.4010  -0.3748  -0.3615  -0.3124  -0.3064  -0.3051  -0.2612  -0.1933
    -0.1859  -0.1626  -0.1264  -0.0679  -0.0585  -0.0534  -0.0371  -0.0193
    -0.0013   0.0001   0.0238   0.0668   0.0711   0.1059   0.1297   0.1420
     0.1658   0.1838   0.2520   0.2628   0.3005   0.3140   0.3351   0.3831
     0.3865   0.3910   0.3961   0.4086   0.4668   0.4733   0.5044   0.5434
     0.6412   0.6786   0.8794   0.9270   0.9457   0.9485   0.9673   0.9684
     1.0196   1.0197   1.1036   1.1348   1.2582   1.3201   1.3519   1.3780
     1.3794   1.3866   1.3982   1.4108   1.4163   1.4215   1.5258   1.5307
     1.5883   1.5937   1.6568   1.6828   1.8037   1.8089   1.8118   1.8383
     1.8685   1.8975   1.9500   1.9505   1.9619   2.0326   2.0378   2.0603
     2.0632   2.0794   2.0841   2.1006   2.1676   2.1877   2.2266   2.2350
     2.3278   2.3587   2.3616   2.3988   2.4168   2.4565   2.4601   2.5130
     2.5171   2.5281   2.5438   2.5499   2.5576   2.5799   2.5928   2.6106
     2.6259   2.6327   2.6947   2.7054   2.8664   2.8791   2.8820   2.8990
     2.9169   2.9171   2.9399   2.9465   2.9517   2.9524   2.9647   2.9702
     2.9777   2.9843   2.9951   2.9980   3.0930   3.1238   3.1239   3.2036
     3.4131   3.7056   3.7197   4.2395   4.2545   4.2949   4.3772   5.5621
     5.9146   5.9190   6.5624   6.5653   6.7589   6.7589   6.8071   7.7554
     7.7715   7.8191   7.8336   8.1631   8.5185   8.5193   8.7035   8.7258
     8.8142   8.9393   8.9655   9.2395   9.3746   9.3858   9.5977   9.6504
     9.8577  10.1421  10.2786  10.3645  10.4948  10.5094  10.6135  10.6580
    10.8154  10.8217  10.8548  10.9118  10.9191  11.0903  11.3258  11.3428

     occupation numbers 
     1.0000   1.0000   1.0000   1.0000   1.0000   1.0000   1.0000   1.0000
     1.0000   1.0000   1.0000   1.0000   1.0000   1.0000   1.0000   1.0000
     1.0000   1.0000   1.0000   1.0000   1.0000   1.0000   1.0000   1.0000
     1.0000   1.0000   1.0000   1.0000   1.0000   1.0000   1.0000   1.0000
     1.0000   1.0000   1.0000   1.0000   1.0000   1.0000   1.0000   1.0000
     1.0000   1.0000   1.0000   1.0000   1.0000   1.0000   1.0000   1.0000
     1.0000   1.0000   1.0000   1.0000   1.0000   1.0000   1.0000   1.0000
     1.0000   1.0000   1.0000   1.0000   1.0000   1.0000   1.0000   1.0000
     1.0000   1.0000   1.0000   1.0000   1.0000   1.0000   1.0000   1.0000
     1.0000   1.0000   1.0000   1.0000   1.0000   1.0000   1.0000   1.0000
     1.0000   1.0000   1.0000   1.0000   1.0000   1.0000   1.0000   1.0000
     1.0000   1.0000   1.0000   1.0000   1.0000   1.0000   1.0000   1.0000
     1.0000   1.0000   1.0000   1.0000   1.0000   1.0000   1.0000   1.0000
     1.0000   1.0000   1.0000   1.0000   1.0000   1.0000   1.0000   1.0000
     1.0000   1.0000   1.0000   1.0000   1.0000   1.0000   1.0000   1.0000
     1.0000   1.0000   1.0000   1.0000   1.0000   1.0000   1.0000   1.0000
     1.0000   1.0000   1.0000   1.0000   1.0000   1.0000   1.0000   1.0000
     1.0000   1.0000   1.0000   1.0000   1.0000   1.0000   1.0000   1.0000
     1.0000   1.0000   1.0000   1.0000   1.0000   1.0000   1.0000   1.0000
     1.0000   1.0000   1.0000   1.0000   1.0000   1.0000   1.0000   1.0000
     1.0000   1.0000   1.0000   1.0000   1.0000   1.0000   1.0000   1.0000
     1.0000   1.0000   1.0000   1.0000   1.0000   1.0000   1.0000   1.0000
     1.0000   1.0000   1.0000   1.0000   1.0000   1.0000   1.0000   1.0000
     1.0000   1.0000   1.0000   1.0000   1.0000   1.0000   1.0000   1.0000
     1.0000   1.0000   1.0000   1.0000   1.0000   1.0000   1.0000   1.0000
     1.0000   1.0000   1.0000   1.0000   1.0000   1.0000   1.0000   1.0000
     1.0000   1.0000   1.0000   1.0000   1.0000   1.0000   1.0000   1.0000
     1.0000   1.0000   1.0000   1.0000   1.0000   1.0000   1.0000   1.0000
     1.0000   1.0000   1.0000   1.0000   1.0000   1.0000   1.0000   1.0000
     1.0000   1.0000   1.0000   1.0000   1.0000   1.0000   1.0000   1.0000
     1.0000   1.0000   1.0000   1.0000   1.0000   1.0000   1.0000   1.0000
     1.0000   1.0000   1.0000   1.0000   1.0000   1.0000   1.0000   1.0000
     1.0000   1.0000   1.0000   1.0000   1.0000   1.0000   1.0000   1.0000
     1.0000   1.0000   1.0000   1.0000   1.0000   1.0000   1.0000   1.0000
     1.0000   1.0000   1.0000   1.0000   1.0000   1.0000   1.0000   1.0000
     1.0000   1.0000   1.0000   1.0000   1.0000   1.0000   1.0000   1.0000
     1.0000   1.0000   1.0000   1.0000   1.0000   1.0000   1.0000   1.0000
     1.0000   1.0000   1.0000   1.0000   1.0000   1.0000   1.0000   1.0000
     1.0000   1.0000   1.0000   1.0000   1.0000   0.9999   0.9999   0.9997
     0.9997   0.9996   0.9995   0.9994   0.9993   0.9990   0.9987   0.9981
     0.9974   0.9970   0.9898   0.9874   0.7576   0.7079   0.6960   0.6194
     0.5321   0.5315   0.4180   0.3865   0.3621   0.3590   0.3046   0.2817
     0.2522   0.2282   0.1923   0.1835   0.0325   0.0178   0.0178   0.0037
     0.0001   0.0000   0.0000   0.0000   0.0000   0.0000   0.0000   0.0000
     0.0000   0.0000   0.0000   0.0000   0.0000   0.0000   0.0000   0.0000
     0.0000   0.0000   0.0000   0.0000   0.0000   0.0000   0.0000   0.0000
     0.0000   0.0000   0.0000   0.0000   0.0000   0.0000   0.0000   0.0000
     0.0000   0.0000   0.0000   0.0000   0.0000   0.0000   0.0000   0.0000
     0.0000   0.0000   0.0000   0.0000   0.0000   0.0000   0.0000   0.0000

          k = 0.0000 0.3849 0.0000 ( 88170 PWs)   bands (ev):

   -95.5400 -95.5346 -95.5291 -95.5289 -95.5281 -95.5237 -95.5215 -95.5214
   -95.5091 -95.5042 -95.5038 -95.5019 -95.4995 -95.4992 -95.4961 -95.4953
   -95.4932 -95.3952 -95.1406 -95.1342 -95.1339 -95.1007 -95.0936 -95.0918
   -95.0887 -95.0837 -95.0800 -95.0781 -95.0758 -95.0749 -95.0714 -95.0676
   -95.0671 -94.8939 -94.8914 -94.8894 -49.8440 -49.8233 -49.8177 -49.8123
   -49.7988 -49.7972 -49.7938 -49.7930 -49.7832 -49.7746 -49.7740 -49.7678
   -49.7532 -49.7418 -49.7252 -49.7242 -49.6996 -49.6966 -49.6807 -49.6777
   -49.6732 -49.6699 -49.6698 -49.6680 -49.6554 -49.6550 -49.6367 -49.6317
   -49.6284 -49.6226 -49.6148 -49.6130 -49.6128 -49.6063 -49.5998 -49.5997
   -49.5929 -49.5917 -49.5904 -49.5873 -49.5802 -49.5800 -49.5719 -49.5714
   -49.5668 -49.5602 -49.5573 -49.5503 -49.5480 -49.5366 -49.5228 -49.5005
   -49.4825 -49.4777 -49.4669 -49.4661 -49.4515 -49.4479 -49.4274 -49.4269
   -49.4234 -49.4227 -49.4192 -49.4191 -49.3791 -49.3603 -49.3523 -49.3521
   -49.3187 -49.3184 -49.3043 -49.3012 -49.2978 -49.2813 -49.2614 -49.2612
   -49.2588 -49.2497 -49.2479 -49.2345 -49.2339 -49.2113 -49.2071 -49.1851
   -49.1652 -49.1323 -49.1199 -49.1026 -49.0930 -49.0768 -49.0497 -49.0397
   -49.0391 -49.0211 -49.0191 -49.0114 -49.0100 -49.0084 -49.0054 -49.0032
   -48.9989 -48.9977 -48.9938 -48.9887 -48.9880 -48.8079 -48.8026 -48.8000
   -11.9265  -5.7937  -4.7330  -4.4989  -3.8756  -3.8746  -3.5819  -3.4685
    -3.4052  -3.3349  -3.2707  -3.2334  -3.2326  -3.0066  -2.9743  -2.9221
    -2.9160  -2.8156  -2.6786  -2.6237  -2.5853  -2.5842  -2.5477  -2.5423
    -2.5227  -2.5135  -2.4691  -2.4383  -2.3594  -2.3356  -2.3201  -2.3066
    -2.1034  -2.1003  -2.0588  -2.0449  -2.0185  -2.0153  -1.8216  -1.8159
    -1.7390  -1.7202  -1.6884  -1.6200  -1.5717  -1.5711  -1.5457  -1.5173
    -1.3828  -1.3776  -1.3206  -1.2950  -1.2793  -1.2744  -1.1862  -1.1570
    -1.1302  -1.0208  -0.9403  -0.9365  -0.9168  -0.8015  -0.7674  -0.7370
    -0.7340  -0.7000  -0.6939  -0.6740  -0.6098  -0.4782  -0.4635  -0.4516
    -0.4423  -0.4127  -0.3875  -0.3794  -0.3453  -0.3137  -0.3117  -0.2459
    -0.2458  -0.2277  -0.2131  -0.1942  -0.1849  -0.1802  -0.1739  -0.1308
    -0.1209  -0.0887  -0.0591  -0.0357  -0.0249   0.0023   0.1176   0.1363
     0.1397   0.1614   0.1690   0.2103   0.2744   0.2782   0.2941   0.3003
     0.3317   0.3971   0.4771   0.4831   0.5381   0.5471   0.5906   0.6040
     0.6869   0.7173   0.8634   0.8849   0.8859   0.9112   0.9128   0.9306
     0.9399   0.9602   0.9608   1.0442   1.0560   1.0859   1.0867   1.1202
     1.1687   1.2324   1.2706   1.2931   1.3243   1.4582   1.4715   1.4932
     1.5016   1.5126   1.5251   1.6769   1.7458   1.7532   1.7717   1.7724
     1.8087   1.8169   1.8518   1.8892   1.9057   1.9652   1.9824   2.0275
     2.0914   2.1044   2.1078   2.1203   2.1272   2.1503   2.1714   2.3245
     2.3630   2.3840   2.4104   2.4268   2.4277   2.4546   2.5258   2.5433
     2.5900   2.6325   2.6351   2.6456   2.6520   2.7539   2.7764   2.7826
     2.8327   2.8402   2.8679   2.8782   2.8951   2.9200   2.9484   2.9522
     2.9529   2.9589   3.0544   3.0901   3.1085   3.1148   3.1298   3.1302
     3.3024   3.3136   3.3507   3.7142   3.7271   3.7994   3.8015   3.8163
     4.0907   4.1209   4.2705   4.9988   5.0459   5.1275   5.1495   5.2193
     5.7898   5.7927   5.8192   5.8231   6.5380   6.5617   7.0125   7.1917
     7.2774   7.2827   7.7324   7.7559   8.2118   8.2255   8.5494   8.5497
     8.5835   9.0177   9.0877   9.1525   9.1723   9.4473   9.4521   9.5516
     9.5563   9.7589   9.9207  10.0149  10.1399  10.1889  10.2593  10.2769
    10.4501  10.4745  10.5906  10.7351  11.0393  11.1323  11.1816  11.2060

     occupation numbers 
     1.0000   1.0000   1.0000   1.0000   1.0000   1.0000   1.0000   1.0000
     1.0000   1.0000   1.0000   1.0000   1.0000   1.0000   1.0000   1.0000
     1.0000   1.0000   1.0000   1.0000   1.0000   1.0000   1.0000   1.0000
     1.0000   1.0000   1.0000   1.0000   1.0000   1.0000   1.0000   1.0000
     1.0000   1.0000   1.0000   1.0000   1.0000   1.0000   1.0000   1.0000
     1.0000   1.0000   1.0000   1.0000   1.0000   1.0000   1.0000   1.0000
     1.0000   1.0000   1.0000   1.0000   1.0000   1.0000   1.0000   1.0000
     1.0000   1.0000   1.0000   1.0000   1.0000   1.0000   1.0000   1.0000
     1.0000   1.0000   1.0000   1.0000   1.0000   1.0000   1.0000   1.0000
     1.0000   1.0000   1.0000   1.0000   1.0000   1.0000   1.0000   1.0000
     1.0000   1.0000   1.0000   1.0000   1.0000   1.0000   1.0000   1.0000
     1.0000   1.0000   1.0000   1.0000   1.0000   1.0000   1.0000   1.0000
     1.0000   1.0000   1.0000   1.0000   1.0000   1.0000   1.0000   1.0000
     1.0000   1.0000   1.0000   1.0000   1.0000   1.0000   1.0000   1.0000
     1.0000   1.0000   1.0000   1.0000   1.0000   1.0000   1.0000   1.0000
     1.0000   1.0000   1.0000   1.0000   1.0000   1.0000   1.0000   1.0000
     1.0000   1.0000   1.0000   1.0000   1.0000   1.0000   1.0000   1.0000
     1.0000   1.0000   1.0000   1.0000   1.0000   1.0000   1.0000   1.0000
     1.0000   1.0000   1.0000   1.0000   1.0000   1.0000   1.0000   1.0000
     1.0000   1.0000   1.0000   1.0000   1.0000   1.0000   1.0000   1.0000
     1.0000   1.0000   1.0000   1.0000   1.0000   1.0000   1.0000   1.0000
     1.0000   1.0000   1.0000   1.0000   1.0000   1.0000   1.0000   1.0000
     1.0000   1.0000   1.0000   1.0000   1.0000   1.0000   1.0000   1.0000
     1.0000   1.0000   1.0000   1.0000   1.0000   1.0000   1.0000   1.0000
     1.0000   1.0000   1.0000   1.0000   1.0000   1.0000   1.0000   1.0000
     1.0000   1.0000   1.0000   1.0000   1.0000   1.0000   1.0000   1.0000
     1.0000   1.0000   1.0000   1.0000   1.0000   1.0000   1.0000   1.0000
     1.0000   1.0000   1.0000   1.0000   1.0000   1.0000   1.0000   1.0000
     1.0000   1.0000   1.0000   1.0000   1.0000   1.0000   1.0000   1.0000
     1.0000   1.0000   1.0000   1.0000   1.0000   1.0000   1.0000   1.0000
     1.0000   1.0000   1.0000   1.0000   1.0000   1.0000   1.0000   1.0000
     1.0000   1.0000   1.0000   1.0000   1.0000   1.0000   1.0000   1.0000
     1.0000   1.0000   1.0000   1.0000   1.0000   1.0000   1.0000   1.0000
     1.0000   1.0000   1.0000   1.0000   1.0000   1.0000   1.0000   1.0000
     1.0000   1.0000   1.0000   1.0000   1.0000   1.0000   1.0000   1.0000
     1.0000   1.0000   1.0000   1.0000   1.0000   1.0000   1.0000   1.0000
     1.0000   1.0000   1.0000   1.0000   1.0000   1.0000   1.0000   1.0000
     1.0000   1.0000   1.0000   1.0000   1.0000   1.0000   1.0000   1.0000
     1.0000   1.0000   1.0000   1.0000   1.0000   0.9999   0.9996   0.9995
     0.9987   0.9970   0.9969   0.9961   0.9956   0.9674   0.9498   0.9435
     0.8598   0.8408   0.7522   0.7116   0.6376   0.5171   0.3775   0.3595
     0.3566   0.3297   0.0678   0.0344   0.0241   0.0213   0.0158   0.0157
     0.0005   0.0004   0.0002   0.0000   0.0000   0.0000   0.0000   0.0000
     0.0000   0.0000   0.0000   0.0000   0.0000   0.0000   0.0000   0.0000
     0.0000   0.0000   0.0000   0.0000   0.0000   0.0000   0.0000   0.0000
     0.0000   0.0000   0.0000   0.0000   0.0000   0.0000   0.0000   0.0000
     0.0000   0.0000   0.0000   0.0000   0.0000   0.0000   0.0000   0.0000
     0.0000   0.0000   0.0000   0.0000   0.0000   0.0000   0.0000   0.0000
     0.0000   0.0000   0.0000   0.0000   0.0000   0.0000   0.0000   0.0000

          k = 0.0000-0.5774 0.0000 ( 88178 PWs)   bands (ev):

   -95.5393 -95.5355 -95.5292 -95.5289 -95.5280 -95.5239 -95.5214 -95.5211
   -95.5091 -95.5042 -95.5039 -95.5019 -95.4997 -95.4993 -95.4959 -95.4944
   -95.4939 -95.3952 -95.1405 -95.1342 -95.1340 -95.1007 -95.0936 -95.0918
   -95.0873 -95.0855 -95.0802 -95.0783 -95.0754 -95.0747 -95.0712 -95.0677
   -95.0671 -94.8939 -94.8914 -94.8894 -49.8522 -49.8298 -49.8221 -49.8169
   -49.8036 -49.8004 -49.7981 -49.7971 -49.7806 -49.7780 -49.7764 -49.7746
   -49.7518 -49.7418 -49.7150 -49.7144 -49.6824 -49.6812 -49.6749 -49.6749
   -49.6720 -49.6653 -49.6632 -49.6585 -49.6540 -49.6447 -49.6401 -49.6307
   -49.6255 -49.6203 -49.6187 -49.6138 -49.6121 -49.6031 -49.6031 -49.5991
   -49.5938 -49.5930 -49.5889 -49.5867 -49.5814 -49.5795 -49.5759 -49.5746
   -49.5700 -49.5641 -49.5640 -49.5589 -49.5542 -49.5405 -49.5203 -49.5094
   -49.4844 -49.4833 -49.4696 -49.4675 -49.4589 -49.4488 -49.4294 -49.4292
   -49.4275 -49.4264 -49.4246 -49.4243 -49.3706 -49.3446 -49.3442 -49.3402
   -49.3088 -49.3032 -49.2892 -49.2890 -49.2863 -49.2860 -49.2848 -49.2575
   -49.2519 -49.2502 -49.2497 -49.2493 -49.2366 -49.2365 -49.1964 -49.1936
   -49.1596 -49.1289 -49.1159 -49.1060 -49.1050 -49.0785 -49.0492 -49.0402
   -49.0391 -49.0207 -49.0169 -49.0143 -49.0099 -49.0085 -49.0057 -49.0036
   -48.9982 -48.9971 -48.9934 -48.9890 -48.9881 -48.8079 -48.8026 -48.8000
   -11.9265  -5.3418  -5.2941  -4.0931  -4.0327  -3.8855  -3.8735  -3.4648
    -3.3047  -3.0284  -2.9994  -2.9642  -2.9519  -2.9349  -2.9242  -2.9157
    -2.8942  -2.8761  -2.8560  -2.8064  -2.7646  -2.7485  -2.7167  -2.7108
    -2.6127  -2.5247  -2.3892  -2.3872  -2.3511  -2.3484  -2.1265  -2.1228
    -2.0987  -2.0694  -2.0438  -2.0349  -1.9685  -1.9642  -1.8294  -1.8194
    -1.7469  -1.7344  -1.7303  -1.6516  -1.6453  -1.5191  -1.5178  -1.4836
    -1.4580  -1.3954  -1.3637  -1.2577  -1.2576  -1.2428  -1.1853  -1.1356
    -1.1268  -1.1000  -1.0956  -0.9904  -0.9771  -0.9171  -0.8763  -0.8519
    -0.8076  -0.7896  -0.6793  -0.6380  -0.6340  -0.6266  -0.5909  -0.5832
    -0.5777  -0.5692  -0.5303  -0.3605  -0.3388  -0.3175  -0.3151  -0.3120
    -0.3107  -0.2801  -0.2655  -0.2635  -0.2282  -0.2112  -0.1429  -0.1402
    -0.0958  -0.0918  -0.0796  -0.0484   0.0170   0.0751   0.1292   0.1507
     0.1617   0.1685   0.1791   0.1831   0.2027   0.2327   0.2656   0.2879
     0.4113   0.4315   0.4375   0.5256   0.6080   0.6610   0.7141   0.7333
     0.7525   0.7610   0.8287   0.8464   0.8565   0.8713   0.8757   0.8811
     0.9024   0.9149   0.9476   0.9623   0.9952   1.0473   1.0484   1.0711
     1.0753   1.1296   1.1851   1.2129   1.2304   1.2588   1.2905   1.4329
     1.4534   1.5872   1.6363   1.6536   1.6601   1.6602   1.6905   1.7900
     1.8170   1.8899   1.8986   1.9107   1.9155   1.9269   1.9469   2.0173
     2.0300   2.0516   2.0521   2.0693   2.1536   2.1731   2.2271   2.2640
     2.3069   2.3919   2.4400   2.4405   2.4499   2.5391   2.5551   2.6310
     2.6323   2.6437   2.6496   2.6983   2.7030   2.7258   2.7366   2.7465
     2.7938   2.9155   2.9256   2.9265   2.9436   2.9483   2.9522   2.9528
     2.9567   2.9604   3.0101   3.1793   3.2039   3.2091   3.2186   3.2217
     3.4268   3.4650   3.7264   3.7398   3.9261   4.3978   4.4434   4.7888
     4.7911   4.7943   4.7993   5.2643   5.2744   5.2867   5.3050   5.3251
     5.6057   5.7852   5.7903   5.9086   6.1757   6.1989   6.3423   6.3649
     6.3792   6.4213   8.2530   8.2559   8.2882   8.3105   8.5158   8.5396
     8.6435   8.7956   8.8271   8.8434   8.8715   8.8967   9.3235   9.3354
     9.3623   9.7632   9.7684   9.8328   9.8840  10.2506  10.3373  10.3897
    10.4208  10.6171  10.7932  10.8583  10.8925  10.8940  10.9606  10.9647

     occupation numbers 
     1.0000   1.0000   1.0000   1.0000   1.0000   1.0000   1.0000   1.0000
     1.0000   1.0000   1.0000   1.0000   1.0000   1.0000   1.0000   1.0000
     1.0000   1.0000   1.0000   1.0000   1.0000   1.0000   1.0000   1.0000
     1.0000   1.0000   1.0000   1.0000   1.0000   1.0000   1.0000   1.0000
     1.0000   1.0000   1.0000   1.0000   1.0000   1.0000   1.0000   1.0000
     1.0000   1.0000   1.0000   1.0000   1.0000   1.0000   1.0000   1.0000
     1.0000   1.0000   1.0000   1.0000   1.0000   1.0000   1.0000   1.0000
     1.0000   1.0000   1.0000   1.0000   1.0000   1.0000   1.0000   1.0000
     1.0000   1.0000   1.0000   1.0000   1.0000   1.0000   1.0000   1.0000
     1.0000   1.0000   1.0000   1.0000   1.0000   1.0000   1.0000   1.0000
     1.0000   1.0000   1.0000   1.0000   1.0000   1.0000   1.0000   1.0000
     1.0000   1.0000   1.0000   1.0000   1.0000   1.0000   1.0000   1.0000
     1.0000   1.0000   1.0000   1.0000   1.0000   1.0000   1.0000   1.0000
     1.0000   1.0000   1.0000   1.0000   1.0000   1.0000   1.0000   1.0000
     1.0000   1.0000   1.0000   1.0000   1.0000   1.0000   1.0000   1.0000
     1.0000   1.0000   1.0000   1.0000   1.0000   1.0000   1.0000   1.0000
     1.0000   1.0000   1.0000   1.0000   1.0000   1.0000   1.0000   1.0000
     1.0000   1.0000   1.0000   1.0000   1.0000   1.0000   1.0000   1.0000
     1.0000   1.0000   1.0000   1.0000   1.0000   1.0000   1.0000   1.0000
     1.0000   1.0000   1.0000   1.0000   1.0000   1.0000   1.0000   1.0000
     1.0000   1.0000   1.0000   1.0000   1.0000   1.0000   1.0000   1.0000
     1.0000   1.0000   1.0000   1.0000   1.0000   1.0000   1.0000   1.0000
     1.0000   1.0000   1.0000   1.0000   1.0000   1.0000   1.0000   1.0000
     1.0000   1.0000   1.0000   1.0000   1.0000   1.0000   1.0000   1.0000
     1.0000   1.0000   1.0000   1.0000   1.0000   1.0000   1.0000   1.0000
     1.0000   1.0000   1.0000   1.0000   1.0000   1.0000   1.0000   1.0000
     1.0000   1.0000   1.0000   1.0000   1.0000   1.0000   1.0000   1.0000
     1.0000   1.0000   1.0000   1.0000   1.0000   1.0000   1.0000   1.0000
     1.0000   1.0000   1.0000   1.0000   1.0000   1.0000   1.0000   1.0000
     1.0000   1.0000   1.0000   1.0000   1.0000   1.0000   1.0000   1.0000
     1.0000   1.0000   1.0000   1.0000   1.0000   1.0000   1.0000   1.0000
     1.0000   1.0000   1.0000   1.0000   1.0000   1.0000   1.0000   1.0000
     1.0000   1.0000   1.0000   1.0000   1.0000   1.0000   1.0000   1.0000
     1.0000   1.0000   1.0000   1.0000   1.0000   1.0000   1.0000   1.0000
     1.0000   1.0000   1.0000   1.0000   1.0000   1.0000   1.0000   1.0000
     1.0000   1.0000   1.0000   1.0000   1.0000   1.0000   1.0000   1.0000
     1.0000   1.0000   1.0000   1.0000   1.0000   1.0000   1.0000   1.0000
     1.0000   1.0000   1.0000   1.0000   1.0000   1.0000   1.0000   1.0000
     1.0000   1.0000   0.9999   0.9999   0.9999   0.9995   0.9994   0.9971
     0.9970   0.9963   0.9958   0.9890   0.9880   0.9811   0.9767   0.9717
     0.9304   0.5393   0.4888   0.4844   0.4005   0.3777   0.3599   0.3571
     0.3395   0.3231   0.1499   0.0059   0.0036   0.0033   0.0027   0.0026
     0.0000   0.0000   0.0000   0.0000   0.0000   0.0000   0.0000   0.0000
     0.0000   0.0000   0.0000   0.0000   0.0000   0.0000   0.0000   0.0000
     0.0000   0.0000   0.0000   0.0000   0.0000   0.0000   0.0000   0.0000
     0.0000   0.0000   0.0000   0.0000   0.0000   0.0000   0.0000   0.0000
     0.0000   0.0000   0.0000   0.0000   0.0000   0.0000   0.0000   0.0000
     0.0000   0.0000   0.0000   0.0000   0.0000   0.0000   0.0000   0.0000
     0.0000   0.0000   0.0000   0.0000   0.0000   0.0000   0.0000   0.0000

          k = 0.1667-0.0962 0.0000 ( 88230 PWs)   bands (ev):

   -95.5410 -95.5334 -95.5290 -95.5287 -95.5283 -95.5234 -95.5222 -95.5214
   -95.5091 -95.5040 -95.5038 -95.5020 -95.4991 -95.4989 -95.4966 -95.4963
   -95.4926 -95.3952 -95.1408 -95.1343 -95.1336 -95.1008 -95.0937 -95.0918
   -95.0900 -95.0814 -95.0798 -95.0780 -95.0761 -95.0756 -95.0720 -95.0674
   -95.0671 -94.8938 -94.8914 -94.8895 -49.8214 -49.8089 -49.8047 -49.8006
   -49.7907 -49.7868 -49.7841 -49.7817 -49.7794 -49.7663 -49.7645 -49.7628
   -49.7580 -49.7481 -49.7431 -49.7423 -49.7297 -49.7235 -49.7113 -49.6879
   -49.6876 -49.6864 -49.6815 -49.6762 -49.6619 -49.6613 -49.6541 -49.6258
   -49.6255 -49.6155 -49.6129 -49.6126 -49.6066 -49.6046 -49.6033 -49.5924
   -49.5911 -49.5896 -49.5880 -49.5870 -49.5820 -49.5791 -49.5779 -49.5618
   -49.5609 -49.5562 -49.5436 -49.5428 -49.5367 -49.5303 -49.5251 -49.4847
   -49.4798 -49.4680 -49.4598 -49.4571 -49.4458 -49.4285 -49.4244 -49.4212
   -49.4114 -49.4109 -49.4042 -49.4039 -49.3968 -49.3932 -49.3712 -49.3709
   -49.3510 -49.3502 -49.3465 -49.3069 -49.3044 -49.2747 -49.2543 -49.2510
   -49.2432 -49.2424 -49.2410 -49.2305 -49.2300 -49.2200 -49.1855 -49.1789
   -49.1778 -49.1296 -49.1252 -49.0986 -49.0781 -49.0735 -49.0506 -49.0395
   -49.0384 -49.0224 -49.0206 -49.0101 -49.0082 -49.0074 -49.0049 -49.0026
   -48.9999 -48.9990 -48.9951 -48.9881 -48.9878 -48.8078 -48.8026 -48.8002
   -11.9265  -6.0979  -4.7961  -4.1461  -3.8288  -3.8265  -3.7061  -3.6147
    -3.5261  -3.5125  -3.5023  -3.2385  -3.1869  -3.1047  -3.0870  -3.0667
    -3.0416  -2.7009  -2.6208  -2.6179  -2.6107  -2.5826  -2.5582  -2.5362
    -2.4707  -2.4602  -2.3697  -2.3543  -2.3363  -2.2656  -2.2615  -2.2481
    -2.2321  -2.2192  -2.1953  -2.1729  -2.0288  -2.0092  -1.9608  -1.9428
    -1.9061  -1.6428  -1.6393  -1.6122  -1.5678  -1.5551  -1.5146  -1.5025
    -1.3710  -1.3509  -1.2931  -1.2715  -1.2417  -1.1848  -1.1617  -0.9136
    -0.8124  -0.8099  -0.7826  -0.7811  -0.7608  -0.6831  -0.6790  -0.6597
    -0.6338  -0.6292  -0.6105  -0.5636  -0.5299  -0.5018  -0.4788  -0.4614
    -0.4011  -0.3771  -0.3637  -0.3146  -0.3079  -0.3045  -0.2619  -0.1912
    -0.1827  -0.1611  -0.1287  -0.0681  -0.0579  -0.0540  -0.0380  -0.0188
    -0.0003   0.0005   0.0240   0.0668   0.0697   0.1047   0.1291   0.1434
     0.1682   0.1835   0.2508   0.2613   0.3007   0.3139   0.3348   0.3829
     0.3853   0.3909   0.3960   0.4079   0.4669   0.4733   0.5041   0.5435
     0.6424   0.6803   0.8800   0.9277   0.9460   0.9485   0.9658   0.9684
     1.0185   1.0200   1.1031   1.1347   1.2573   1.3186   1.3514   1.3785
     1.3815   1.3868   1.3948   1.4103   1.4156   1.4212   1.5264   1.5326
     1.5873   1.5937   1.6568   1.6828   1.8031   1.8095   1.8115   1.8388
     1.8699   1.8976   1.9501   1.9510   1.9618   2.0324   2.0372   2.0603
     2.0631   2.0798   2.0843   2.1011   2.1670   2.1878   2.2269   2.2358
     2.3281   2.3590   2.3610   2.3984   2.4153   2.4565   2.4598   2.5128
     2.5151   2.5285   2.5439   2.5499   2.5581   2.5792   2.5926   2.6108
     2.6264   2.6333   2.6930   2.7036   2.8671   2.8799   2.8822   2.9017
     2.9160   2.9165   2.9405   2.9465   2.9517   2.9524   2.9658   2.9706
     2.9775   2.9854   2.9959   2.9995   3.0933   3.1234   3.1241   3.2031
     3.4110   3.7074   3.7222   4.2389   4.2547   4.2939   4.3761   5.5599
     5.9166   5.9203   6.5626   6.5662   6.7586   6.7589   6.8055   7.7552
     7.7715   7.8184   7.8346   8.1588   8.5174   8.5206   8.7051   8.7290
     8.8143   8.9397   8.9660   9.2363   9.3764   9.3891   9.5975   9.6503
     9.8577  10.1412  10.2798  10.3647  10.4944  10.5086  10.6118  10.6573
    10.8142  10.8217  10.8545  10.9101  10.9182  11.0877  11.3266  11.3427

     occupation numbers 
     1.0000   1.0000   1.0000   1.0000   1.0000   1.0000   1.0000   1.0000
     1.0000   1.0000   1.0000   1.0000   1.0000   1.0000   1.0000   1.0000
     1.0000   1.0000   1.0000   1.0000   1.0000   1.0000   1.0000   1.0000
     1.0000   1.0000   1.0000   1.0000   1.0000   1.0000   1.0000   1.0000
     1.0000   1.0000   1.0000   1.0000   1.0000   1.0000   1.0000   1.0000
     1.0000   1.0000   1.0000   1.0000   1.0000   1.0000   1.0000   1.0000
     1.0000   1.0000   1.0000   1.0000   1.0000   1.0000   1.0000   1.0000
     1.0000   1.0000   1.0000   1.0000   1.0000   1.0000   1.0000   1.0000
     1.0000   1.0000   1.0000   1.0000   1.0000   1.0000   1.0000   1.0000
     1.0000   1.0000   1.0000   1.0000   1.0000   1.0000   1.0000   1.0000
     1.0000   1.0000   1.0000   1.0000   1.0000   1.0000   1.0000   1.0000
     1.0000   1.0000   1.0000   1.0000   1.0000   1.0000   1.0000   1.0000
     1.0000   1.0000   1.0000   1.0000   1.0000   1.0000   1.0000   1.0000
     1.0000   1.0000   1.0000   1.0000   1.0000   1.0000   1.0000   1.0000
     1.0000   1.0000   1.0000   1.0000   1.0000   1.0000   1.0000   1.0000
     1.0000   1.0000   1.0000   1.0000   1.0000   1.0000   1.0000   1.0000
     1.0000   1.0000   1.0000   1.0000   1.0000   1.0000   1.0000   1.0000
     1.0000   1.0000   1.0000   1.0000   1.0000   1.0000   1.0000   1.0000
     1.0000   1.0000   1.0000   1.0000   1.0000   1.0000   1.0000   1.0000
     1.0000   1.0000   1.0000   1.0000   1.0000   1.0000   1.0000   1.0000
     1.0000   1.0000   1.0000   1.0000   1.0000   1.0000   1.0000   1.0000
     1.0000   1.0000   1.0000   1.0000   1.0000   1.0000   1.0000   1.0000
     1.0000   1.0000   1.0000   1.0000   1.0000   1.0000   1.0000   1.0000
     1.0000   1.0000   1.0000   1.0000   1.0000   1.0000   1.0000   1.0000
     1.0000   1.0000   1.0000   1.0000   1.0000   1.0000   1.0000   1.0000
     1.0000   1.0000   1.0000   1.0000   1.0000   1.0000   1.0000   1.0000
     1.0000   1.0000   1.0000   1.0000   1.0000   1.0000   1.0000   1.0000
     1.0000   1.0000   1.0000   1.0000   1.0000   1.0000   1.0000   1.0000
     1.0000   1.0000   1.0000   1.0000   1.0000   1.0000   1.0000   1.0000
     1.0000   1.0000   1.0000   1.0000   1.0000   1.0000   1.0000   1.0000
     1.0000   1.0000   1.0000   1.0000   1.0000   1.0000   1.0000   1.0000
     1.0000   1.0000   1.0000   1.0000   1.0000   1.0000   1.0000   1.0000
     1.0000   1.0000   1.0000   1.0000   1.0000   1.0000   1.0000   1.0000
     1.0000   1.0000   1.0000   1.0000   1.0000   1.0000   1.0000   1.0000
     1.0000   1.0000   1.0000   1.0000   1.0000   1.0000   1.0000   1.0000
     1.0000   1.0000   1.0000   1.0000   1.0000   1.0000   1.0000   1.0000
     1.0000   1.0000   1.0000   1.0000   1.0000   1.0000   1.0000   1.0000
     1.0000   1.0000   1.0000   1.0000   1.0000   1.0000   1.0000   1.0000
     1.0000   1.0000   1.0000   1.0000   1.0000   0.9999   0.9999   0.9997
     0.9997   0.9996   0.9995   0.9994   0.9993   0.9990   0.9987   0.9981
     0.9974   0.9970   0.9901   0.9878   0.7550   0.7046   0.6948   0.6070
     0.5369   0.5342   0.4152   0.3866   0.3619   0.3590   0.2997   0.2799
     0.2530   0.2244   0.1900   0.1792   0.0323   0.0180   0.0177   0.0037
     0.0001   0.0000   0.0000   0.0000   0.0000   0.0000   0.0000   0.0000
     0.0000   0.0000   0.0000   0.0000   0.0000   0.0000   0.0000   0.0000
     0.0000   0.0000   0.0000   0.0000   0.0000   0.0000   0.0000   0.0000
     0.0000   0.0000   0.0000   0.0000   0.0000   0.0000   0.0000   0.0000
     0.0000   0.0000   0.0000   0.0000   0.0000   0.0000   0.0000   0.0000
     0.0000   0.0000   0.0000   0.0000   0.0000   0.0000   0.0000   0.0000

          k = 0.1667 0.0962 0.0000 ( 88230 PWs)   bands (ev):

   -95.5410 -95.5334 -95.5289 -95.5287 -95.5283 -95.5234 -95.5222 -95.5214
   -95.5091 -95.5040 -95.5038 -95.5020 -95.4991 -95.4989 -95.4966 -95.4963
   -95.4926 -95.3952 -95.1408 -95.1343 -95.1336 -95.1008 -95.0937 -95.0918
   -95.0900 -95.0814 -95.0798 -95.0780 -95.0761 -95.0756 -95.0720 -95.0674
   -95.0671 -94.8938 -94.8914 -94.8895 -49.8213 -49.8089 -49.8047 -49.8006
   -49.7907 -49.7868 -49.7841 -49.7817 -49.7794 -49.7663 -49.7645 -49.7628
   -49.7580 -49.7481 -49.7431 -49.7423 -49.7297 -49.7235 -49.7113 -49.6879
   -49.6876 -49.6864 -49.6815 -49.6762 -49.6619 -49.6613 -49.6541 -49.6258
   -49.6255 -49.6155 -49.6129 -49.6126 -49.6066 -49.6046 -49.6033 -49.5923
   -49.5911 -49.5896 -49.5880 -49.5870 -49.5820 -49.5791 -49.5779 -49.5618
   -49.5609 -49.5563 -49.5436 -49.5428 -49.5368 -49.5302 -49.5252 -49.4847
   -49.4798 -49.4680 -49.4598 -49.4571 -49.4458 -49.4285 -49.4245 -49.4212
   -49.4114 -49.4109 -49.4042 -49.4039 -49.3967 -49.3932 -49.3712 -49.3709
   -49.3509 -49.3502 -49.3465 -49.3069 -49.3044 -49.2747 -49.2543 -49.2510
   -49.2432 -49.2424 -49.2410 -49.2305 -49.2300 -49.2200 -49.1855 -49.1789
   -49.1778 -49.1296 -49.1252 -49.0986 -49.0780 -49.0735 -49.0506 -49.0396
   -49.0384 -49.0224 -49.0206 -49.0101 -49.0082 -49.0074 -49.0050 -49.0026
   -48.9999 -48.9990 -48.9951 -48.9881 -48.9878 -48.8078 -48.8026 -48.8002
   -11.9265  -6.0979  -4.7961  -4.1462  -3.8287  -3.8265  -3.7061  -3.6147
    -3.5261  -3.5125  -3.5023  -3.2385  -3.1869  -3.1047  -3.0870  -3.0667
    -3.0416  -2.7009  -2.6208  -2.6179  -2.6107  -2.5826  -2.5582  -2.5362
    -2.4707  -2.4602  -2.3697  -2.3543  -2.3363  -2.2656  -2.2615  -2.2481
    -2.2321  -2.2192  -2.1953  -2.1729  -2.0288  -2.0092  -1.9608  -1.9429
    -1.9061  -1.6428  -1.6393  -1.6121  -1.5678  -1.5551  -1.5146  -1.5025
    -1.3710  -1.3509  -1.2931  -1.2715  -1.2417  -1.1848  -1.1617  -0.9136
    -0.8124  -0.8099  -0.7825  -0.7811  -0.7608  -0.6832  -0.6790  -0.6596
    -0.6338  -0.6292  -0.6105  -0.5636  -0.5299  -0.5017  -0.4788  -0.4613
    -0.4011  -0.3772  -0.3637  -0.3146  -0.3079  -0.3045  -0.2619  -0.1911
    -0.1826  -0.1611  -0.1287  -0.0681  -0.0579  -0.0540  -0.0380  -0.0188
    -0.0003   0.0005   0.0240   0.0668   0.0697   0.1047   0.1291   0.1434
     0.1683   0.1835   0.2508   0.2613   0.3007   0.3139   0.3348   0.3829
     0.3853   0.3909   0.3960   0.4079   0.4669   0.4733   0.5042   0.5435
     0.6424   0.6803   0.8800   0.9277   0.9460   0.9485   0.9658   0.9683
     1.0185   1.0200   1.1030   1.1347   1.2573   1.3186   1.3514   1.3785
     1.3816   1.3869   1.3947   1.4103   1.4156   1.4212   1.5264   1.5327
     1.5873   1.5937   1.6568   1.6828   1.8031   1.8095   1.8114   1.8388
     1.8699   1.8976   1.9501   1.9510   1.9618   2.0324   2.0371   2.0603
     2.0631   2.0798   2.0843   2.1011   2.1670   2.1878   2.2269   2.2358
     2.3281   2.3590   2.3610   2.3984   2.4153   2.4565   2.4598   2.5127
     2.5151   2.5285   2.5439   2.5499   2.5581   2.5792   2.5926   2.6108
     2.6264   2.6333   2.6930   2.7036   2.8671   2.8799   2.8822   2.9017
     2.9160   2.9165   2.9405   2.9464   2.9517   2.9524   2.9658   2.9706
     2.9775   2.9854   2.9959   2.9995   3.0933   3.1234   3.1241   3.2031
     3.4110   3.7074   3.7223   4.2389   4.2547   4.2939   4.3761   5.5599
     5.9167   5.9203   6.5626   6.5662   6.7586   6.7589   6.8055   7.7552
     7.7715   7.8183   7.8347   8.1587   8.5174   8.5206   8.7051   8.7290
     8.8143   8.9396   8.9660   9.2363   9.3764   9.3891   9.5975   9.6503
     9.8577  10.1412  10.2798  10.3647  10.4944  10.5086  10.6118  10.6572
    10.8141  10.8217  10.8545  10.9101  10.9181  11.0877  11.3260  11.3425

     occupation numbers 
     1.0000   1.0000   1.0000   1.0000   1.0000   1.0000   1.0000   1.0000
     1.0000   1.0000   1.0000   1.0000   1.0000   1.0000   1.0000   1.0000
     1.0000   1.0000   1.0000   1.0000   1.0000   1.0000   1.0000   1.0000
     1.0000   1.0000   1.0000   1.0000   1.0000   1.0000   1.0000   1.0000
     1.0000   1.0000   1.0000   1.0000   1.0000   1.0000   1.0000   1.0000
     1.0000   1.0000   1.0000   1.0000   1.0000   1.0000   1.0000   1.0000
     1.0000   1.0000   1.0000   1.0000   1.0000   1.0000   1.0000   1.0000
     1.0000   1.0000   1.0000   1.0000   1.0000   1.0000   1.0000   1.0000
     1.0000   1.0000   1.0000   1.0000   1.0000   1.0000   1.0000   1.0000
     1.0000   1.0000   1.0000   1.0000   1.0000   1.0000   1.0000   1.0000
     1.0000   1.0000   1.0000   1.0000   1.0000   1.0000   1.0000   1.0000
     1.0000   1.0000   1.0000   1.0000   1.0000   1.0000   1.0000   1.0000
     1.0000   1.0000   1.0000   1.0000   1.0000   1.0000   1.0000   1.0000
     1.0000   1.0000   1.0000   1.0000   1.0000   1.0000   1.0000   1.0000
     1.0000   1.0000   1.0000   1.0000   1.0000   1.0000   1.0000   1.0000
     1.0000   1.0000   1.0000   1.0000   1.0000   1.0000   1.0000   1.0000
     1.0000   1.0000   1.0000   1.0000   1.0000   1.0000   1.0000   1.0000
     1.0000   1.0000   1.0000   1.0000   1.0000   1.0000   1.0000   1.0000
     1.0000   1.0000   1.0000   1.0000   1.0000   1.0000   1.0000   1.0000
     1.0000   1.0000   1.0000   1.0000   1.0000   1.0000   1.0000   1.0000
     1.0000   1.0000   1.0000   1.0000   1.0000   1.0000   1.0000   1.0000
     1.0000   1.0000   1.0000   1.0000   1.0000   1.0000   1.0000   1.0000
     1.0000   1.0000   1.0000   1.0000   1.0000   1.0000   1.0000   1.0000
     1.0000   1.0000   1.0000   1.0000   1.0000   1.0000   1.0000   1.0000
     1.0000   1.0000   1.0000   1.0000   1.0000   1.0000   1.0000   1.0000
     1.0000   1.0000   1.0000   1.0000   1.0000   1.0000   1.0000   1.0000
     1.0000   1.0000   1.0000   1.0000   1.0000   1.0000   1.0000   1.0000
     1.0000   1.0000   1.0000   1.0000   1.0000   1.0000   1.0000   1.0000
     1.0000   1.0000   1.0000   1.0000   1.0000   1.0000   1.0000   1.0000
     1.0000   1.0000   1.0000   1.0000   1.0000   1.0000   1.0000   1.0000
     1.0000   1.0000   1.0000   1.0000   1.0000   1.0000   1.0000   1.0000
     1.0000   1.0000   1.0000   1.0000   1.0000   1.0000   1.0000   1.0000
     1.0000   1.0000   1.0000   1.0000   1.0000   1.0000   1.0000   1.0000
     1.0000   1.0000   1.0000   1.0000   1.0000   1.0000   1.0000   1.0000
     1.0000   1.0000   1.0000   1.0000   1.0000   1.0000   1.0000   1.0000
     1.0000   1.0000   1.0000   1.0000   1.0000   1.0000   1.0000   1.0000
     1.0000   1.0000   1.0000   1.0000   1.0000   1.0000   1.0000   1.0000
     1.0000   1.0000   1.0000   1.0000   1.0000   1.0000   1.0000   1.0000
     1.0000   1.0000   1.0000   1.0000   1.0000   0.9999   0.9999   0.9997
     0.9997   0.9996   0.9995   0.9994   0.9993   0.9990   0.9987   0.9981
     0.9974   0.9970   0.9901   0.9878   0.7549   0.7046   0.6948   0.6067
     0.5370   0.5342   0.4152   0.3867   0.3620   0.3588   0.2996   0.2799
     0.2530   0.2243   0.1899   0.1791   0.0324   0.0180   0.0177   0.0037
     0.0001   0.0000   0.0000   0.0000   0.0000   0.0000   0.0000   0.0000
     0.0000   0.0000   0.0000   0.0000   0.0000   0.0000   0.0000   0.0000
     0.0000   0.0000   0.0000   0.0000   0.0000   0.0000   0.0000   0.0000
     0.0000   0.0000   0.0000   0.0000   0.0000   0.0000   0.0000   0.0000
     0.0000   0.0000   0.0000   0.0000   0.0000   0.0000   0.0000   0.0000
     0.0000   0.0000   0.0000   0.0000   0.0000   0.0000   0.0000   0.0000

          k = 0.1667 0.2887 0.0000 ( 88188 PWs)   bands (ev):

   -95.5403 -95.5342 -95.5293 -95.5286 -95.5282 -95.5237 -95.5218 -95.5212
   -95.5091 -95.5042 -95.5039 -95.5019 -95.4995 -95.4992 -95.4960 -95.4957
   -95.4930 -95.3952 -95.1406 -95.1343 -95.1337 -95.1008 -95.0937 -95.0918
   -95.0891 -95.0829 -95.0805 -95.0773 -95.0761 -95.0751 -95.0715 -95.0676
   -95.0671 -94.8939 -94.8914 -94.8895 -49.8345 -49.8282 -49.8161 -49.8074
   -49.8027 -49.7955 -49.7876 -49.7848 -49.7787 -49.7712 -49.7684 -49.7639
   -49.7607 -49.7518 -49.7415 -49.7124 -49.7075 -49.7016 -49.6877 -49.6838
   -49.6798 -49.6755 -49.6731 -49.6668 -49.6578 -49.6476 -49.6423 -49.6306
   -49.6256 -49.6204 -49.6181 -49.6151 -49.6131 -49.6064 -49.6029 -49.5986
   -49.5943 -49.5914 -49.5874 -49.5841 -49.5798 -49.5757 -49.5739 -49.5689
   -49.5663 -49.5616 -49.5569 -49.5466 -49.5396 -49.5345 -49.5271 -49.4948
   -49.4826 -49.4731 -49.4687 -49.4606 -49.4546 -49.4408 -49.4386 -49.4254
   -49.4222 -49.4179 -49.4104 -49.3929 -49.3919 -49.3896 -49.3650 -49.3306
   -49.3259 -49.3245 -49.3228 -49.3058 -49.2990 -49.2789 -49.2595 -49.2519
   -49.2508 -49.2500 -49.2496 -49.2474 -49.2176 -49.2168 -49.2026 -49.1833
   -49.1680 -49.1331 -49.1207 -49.1021 -49.0872 -49.0767 -49.0500 -49.0398
   -49.0387 -49.0214 -49.0197 -49.0102 -49.0098 -49.0083 -49.0065 -49.0016
   -48.9998 -48.9981 -48.9941 -48.9885 -48.9879 -48.8078 -48.8026 -48.8001
   -11.9265  -5.8935  -4.5990  -4.3795  -4.3346  -3.5065  -3.4558  -3.4303
    -3.4159  -3.4133  -3.3997  -3.3392  -3.2646  -3.1685  -3.1534  -2.8769
    -2.8593  -2.7286  -2.7171  -2.5807  -2.5683  -2.5469  -2.5371  -2.5301
    -2.5064  -2.4544  -2.4384  -2.4061  -2.3574  -2.3472  -2.3121  -2.2540
    -2.2355  -2.2134  -2.1751  -2.1024  -2.0258  -1.8937  -1.8486  -1.7903
    -1.7710  -1.7184  -1.6692  -1.6383  -1.6234  -1.5811  -1.5402  -1.4532
    -1.4194  -1.3293  -1.3138  -1.3041  -1.2381  -1.2266  -1.1918  -1.1178
    -1.0710  -0.9082  -0.8732  -0.8453  -0.8345  -0.8233  -0.7670  -0.7409
    -0.7277  -0.7151  -0.6433  -0.6331  -0.5533  -0.5412  -0.5293  -0.5140
    -0.5063  -0.3927  -0.3684  -0.3385  -0.3241  -0.3020  -0.2577  -0.2114
    -0.2031  -0.1821  -0.1722  -0.1685  -0.1559  -0.1249  -0.1173  -0.1031
    -0.0416  -0.0372   0.0284   0.0453   0.0762   0.0973   0.1239   0.1292
     0.1721   0.1885   0.1952   0.2076   0.2292   0.2501   0.2649   0.2747
     0.3362   0.3486   0.3613   0.3922   0.4832   0.5120   0.5255   0.5410
     0.5962   0.6041   0.7615   0.8427   0.8604   0.8719   0.9200   0.9406
     0.9834   1.0104   1.0264   1.0422   1.0516   1.0687   1.1665   1.1790
     1.2658   1.3461   1.4037   1.4087   1.4475   1.4698   1.5087   1.5341
     1.5511   1.5607   1.6862   1.7248   1.7278   1.7463   1.7729   1.7822
     1.8317   1.8397   1.8682   1.8756   1.9096   1.9312   1.9726   1.9835
     1.9951   2.0128   2.0192   2.0612   2.1076   2.1294   2.1648   2.3257
     2.3715   2.3902   2.4652   2.4903   2.5128   2.5261   2.5943   2.6137
     2.6167   2.6279   2.6449   2.6770   2.6831   2.7181   2.7306   2.7332
     2.8421   2.8540   2.8608   2.8787   2.9027   2.9089   2.9185   2.9307
     2.9517   2.9527   2.9563   2.9794   3.0892   3.1039   3.1107   3.1689
     3.1856   3.2043   3.2360   3.3235   3.3421   3.5673   3.5721   3.6512
     3.9858   3.9957   4.2854   4.3095   4.9284   4.9969   5.0128   5.3472
     5.3539   5.7905   6.4599   6.4806   6.5933   6.7820   6.9543   7.2204
     7.2509   7.6597   7.7708   7.7905   7.8382   7.9731   8.8031   8.8203
     8.9079   8.9519   8.9658   9.1891   9.2408   9.3779   9.4588   9.6063
     9.6309   9.6547   9.9599  10.0498  10.0539  10.4056  10.4332  10.5009
    10.5069  10.5235  10.5703  10.9509  11.0549  11.0669  11.0834  11.1179

     occupation numbers 
     1.0000   1.0000   1.0000   1.0000   1.0000   1.0000   1.0000   1.0000
     1.0000   1.0000   1.0000   1.0000   1.0000   1.0000   1.0000   1.0000
     1.0000   1.0000   1.0000   1.0000   1.0000   1.0000   1.0000   1.0000
     1.0000   1.0000   1.0000   1.0000   1.0000   1.0000   1.0000   1.0000
     1.0000   1.0000   1.0000   1.0000   1.0000   1.0000   1.0000   1.0000
     1.0000   1.0000   1.0000   1.0000   1.0000   1.0000   1.0000   1.0000
     1.0000   1.0000   1.0000   1.0000   1.0000   1.0000   1.0000   1.0000
     1.0000   1.0000   1.0000   1.0000   1.0000   1.0000   1.0000   1.0000
     1.0000   1.0000   1.0000   1.0000   1.0000   1.0000   1.0000   1.0000
     1.0000   1.0000   1.0000   1.0000   1.0000   1.0000   1.0000   1.0000
     1.0000   1.0000   1.0000   1.0000   1.0000   1.0000   1.0000   1.0000
     1.0000   1.0000   1.0000   1.0000   1.0000   1.0000   1.0000   1.0000
     1.0000   1.0000   1.0000   1.0000   1.0000   1.0000   1.0000   1.0000
     1.0000   1.0000   1.0000   1.0000   1.0000   1.0000   1.0000   1.0000
     1.0000   1.0000   1.0000   1.0000   1.0000   1.0000   1.0000   1.0000
     1.0000   1.0000   1.0000   1.0000   1.0000   1.0000   1.0000   1.0000
     1.0000   1.0000   1.0000   1.0000   1.0000   1.0000   1.0000   1.0000
     1.0000   1.0000   1.0000   1.0000   1.0000   1.0000   1.0000   1.0000
     1.0000   1.0000   1.0000   1.0000   1.0000   1.0000   1.0000   1.0000
     1.0000   1.0000   1.0000   1.0000   1.0000   1.0000   1.0000   1.0000
     1.0000   1.0000   1.0000   1.0000   1.0000   1.0000   1.0000   1.0000
     1.0000   1.0000   1.0000   1.0000   1.0000   1.0000   1.0000   1.0000
     1.0000   1.0000   1.0000   1.0000   1.0000   1.0000   1.0000   1.0000
     1.0000   1.0000   1.0000   1.0000   1.0000   1.0000   1.0000   1.0000
     1.0000   1.0000   1.0000   1.0000   1.0000   1.0000   1.0000   1.0000
     1.0000   1.0000   1.0000   1.0000   1.0000   1.0000   1.0000   1.0000
     1.0000   1.0000   1.0000   1.0000   1.0000   1.0000   1.0000   1.0000
     1.0000   1.0000   1.0000   1.0000   1.0000   1.0000   1.0000   1.0000
     1.0000   1.0000   1.0000   1.0000   1.0000   1.0000   1.0000   1.0000
     1.0000   1.0000   1.0000   1.0000   1.0000   1.0000   1.0000   1.0000
     1.0000   1.0000   1.0000   1.0000   1.0000   1.0000   1.0000   1.0000
     1.0000   1.0000   1.0000   1.0000   1.0000   1.0000   1.0000   1.0000
     1.0000   1.0000   1.0000   1.0000   1.0000   1.0000   1.0000   1.0000
     1.0000   1.0000   1.0000   1.0000   1.0000   1.0000   1.0000   1.0000
     1.0000   1.0000   1.0000   1.0000   1.0000   1.0000   1.0000   1.0000
     1.0000   1.0000   1.0000   1.0000   1.0000   1.0000   1.0000   1.0000
     1.0000   1.0000   1.0000   1.0000   1.0000   1.0000   1.0000   1.0000
     1.0000   1.0000   1.0000   1.0000   1.0000   1.0000   1.0000   1.0000
     1.0000   1.0000   0.9999   0.9998   0.9997   0.9996   0.9986   0.9980
     0.9978   0.9973   0.9962   0.9928   0.9919   0.9838   0.9793   0.9782
     0.8356   0.8001   0.7776   0.7098   0.6020   0.5720   0.5245   0.4637
     0.3621   0.3575   0.3412   0.2458   0.0350   0.0263   0.0231   0.0073
     0.0052   0.0036   0.0019   0.0003   0.0002   0.0000   0.0000   0.0000
     0.0000   0.0000   0.0000   0.0000   0.0000   0.0000   0.0000   0.0000
     0.0000   0.0000   0.0000   0.0000   0.0000   0.0000   0.0000   0.0000
     0.0000   0.0000   0.0000   0.0000   0.0000   0.0000   0.0000   0.0000
     0.0000   0.0000   0.0000   0.0000   0.0000   0.0000   0.0000   0.0000
     0.0000   0.0000   0.0000   0.0000   0.0000   0.0000   0.0000   0.0000
     0.0000   0.0000   0.0000   0.0000   0.0000   0.0000   0.0000   0.0000

          k = 0.1667-0.6736 0.0000 ( 88140 PWs)   bands (ev):

   -95.5393 -95.5353 -95.5297 -95.5285 -95.5280 -95.5238 -95.5216 -95.5210
   -95.5091 -95.5042 -95.5039 -95.5018 -95.4999 -95.4993 -95.4956 -95.4948
   -95.4938 -95.3952 -95.1405 -95.1343 -95.1338 -95.1007 -95.0936 -95.0918
   -95.0875 -95.0849 -95.0813 -95.0771 -95.0756 -95.0749 -95.0712 -95.0678
   -95.0670 -94.8939 -94.8914 -94.8894 -49.8480 -49.8340 -49.8278 -49.8178
   -49.8080 -49.8018 -49.7943 -49.7864 -49.7799 -49.7744 -49.7721 -49.7684
   -49.7580 -49.7454 -49.7418 -49.6932 -49.6869 -49.6836 -49.6802 -49.6736
   -49.6707 -49.6652 -49.6595 -49.6524 -49.6468 -49.6439 -49.6373 -49.6324
   -49.6268 -49.6226 -49.6188 -49.6142 -49.6096 -49.6083 -49.6056 -49.6028
   -49.5988 -49.5926 -49.5887 -49.5873 -49.5826 -49.5780 -49.5738 -49.5714
   -49.5681 -49.5673 -49.5646 -49.5590 -49.5480 -49.5403 -49.5267 -49.5032
   -49.4869 -49.4808 -49.4723 -49.4650 -49.4582 -49.4544 -49.4426 -49.4365
   -49.4289 -49.4147 -49.4119 -49.4056 -49.3826 -49.3773 -49.3381 -49.3104
   -49.3097 -49.3026 -49.2975 -49.2949 -49.2825 -49.2772 -49.2741 -49.2691
   -49.2629 -49.2563 -49.2550 -49.2483 -49.2346 -49.2184 -49.2038 -49.1919
   -49.1571 -49.1329 -49.1185 -49.1072 -49.0970 -49.0809 -49.0492 -49.0403
   -49.0389 -49.0207 -49.0173 -49.0132 -49.0100 -49.0084 -49.0080 -49.0012
   -48.9986 -48.9976 -48.9934 -48.9891 -48.9880 -48.8079 -48.8026 -48.8000
   -11.9265  -5.5024  -4.9631  -4.4667  -4.2224  -3.7468  -3.3942  -3.3444
    -3.3335  -3.2282  -3.1901  -3.1299  -3.0765  -3.0143  -3.0029  -2.8862
    -2.8120  -2.8053  -2.7381  -2.6991  -2.6663  -2.6539  -2.6323  -2.5968
    -2.5420  -2.5050  -2.4451  -2.4296  -2.3703  -2.3280  -2.2765  -2.2139
    -2.1937  -2.1724  -2.1231  -2.1056  -2.0049  -1.9622  -1.8845  -1.8392
    -1.7026  -1.6459  -1.6271  -1.5597  -1.5417  -1.5319  -1.5163  -1.4376
    -1.4246  -1.3806  -1.3419  -1.2864  -1.2252  -1.1945  -1.1738  -1.1415
    -1.1219  -1.0960  -1.0463  -1.0183  -0.9790  -0.9314  -0.8726  -0.8494
    -0.8438  -0.7944  -0.7661  -0.6632  -0.6319  -0.6064  -0.5510  -0.5343
    -0.5275  -0.5025  -0.4709  -0.4550  -0.4191  -0.3932  -0.3603  -0.3438
    -0.2733  -0.2516  -0.2330  -0.2096  -0.2053  -0.1695  -0.0890  -0.0664
    -0.0466  -0.0349  -0.0158   0.0406   0.0498   0.0729   0.0969   0.1058
     0.1216   0.1353   0.1568   0.1941   0.2038   0.2214   0.2349   0.2686
     0.3061   0.3332   0.3571   0.3952   0.4497   0.4816   0.5052   0.5949
     0.6117   0.6461   0.7431   0.8154   0.8445   0.8746   0.9024   0.9250
     0.9592   0.9827   0.9889   1.0497   1.0757   1.0890   1.1104   1.1347
     1.1742   1.2128   1.2222   1.2801   1.3221   1.3602   1.4797   1.5010
     1.5177   1.5470   1.5954   1.6341   1.6432   1.6566   1.6845   1.7110
     1.7241   1.7599   1.8289   1.8588   1.8896   1.9020   1.9123   1.9329
     1.9562   1.9706   2.0866   2.1190   2.1782   2.2436   2.2632   2.3462
     2.3758   2.3931   2.4538   2.4617   2.4883   2.5776   2.6191   2.6500
     2.6902   2.7049   2.7151   2.7190   2.7313   2.8022   2.8285   2.8328
     2.8701   2.8806   2.9049   2.9490   2.9515   2.9528   2.9574   2.9660
     3.0318   3.0449   3.1173   3.1286   3.1651   3.1884   3.2083   3.2180
     3.2701   3.2946   3.3432   3.9423   4.2055   4.2256   4.2810   4.3464
     4.6341   4.7904   4.8557   5.1553   5.2026   5.2356   5.2790   5.3735
     5.6303   5.7613   5.8436   6.0794   6.3707   6.4449   6.4992   6.6343
     6.8151   7.1129   7.2924   7.5395   7.5975   7.6204   8.3540   8.6057
     8.6287   8.6879   8.8715   9.1133   9.2030   9.2153   9.4449   9.4911
     9.5858   9.7297   9.8412   9.9391  10.0790  10.0896  10.1757  10.4407
    10.5378  10.8075  10.8346  10.9354  10.9516  10.9894  11.1206  11.1441

     occupation numbers 
     1.0000   1.0000   1.0000   1.0000   1.0000   1.0000   1.0000   1.0000
     1.0000   1.0000   1.0000   1.0000   1.0000   1.0000   1.0000   1.0000
     1.0000   1.0000   1.0000   1.0000   1.0000   1.0000   1.0000   1.0000
     1.0000   1.0000   1.0000   1.0000   1.0000   1.0000   1.0000   1.0000
     1.0000   1.0000   1.0000   1.0000   1.0000   1.0000   1.0000   1.0000
     1.0000   1.0000   1.0000   1.0000   1.0000   1.0000   1.0000   1.0000
     1.0000   1.0000   1.0000   1.0000   1.0000   1.0000   1.0000   1.0000
     1.0000   1.0000   1.0000   1.0000   1.0000   1.0000   1.0000   1.0000
     1.0000   1.0000   1.0000   1.0000   1.0000   1.0000   1.0000   1.0000
     1.0000   1.0000   1.0000   1.0000   1.0000   1.0000   1.0000   1.0000
     1.0000   1.0000   1.0000   1.0000   1.0000   1.0000   1.0000   1.0000
     1.0000   1.0000   1.0000   1.0000   1.0000   1.0000   1.0000   1.0000
     1.0000   1.0000   1.0000   1.0000   1.0000   1.0000   1.0000   1.0000
     1.0000   1.0000   1.0000   1.0000   1.0000   1.0000   1.0000   1.0000
     1.0000   1.0000   1.0000   1.0000   1.0000   1.0000   1.0000   1.0000
     1.0000   1.0000   1.0000   1.0000   1.0000   1.0000   1.0000   1.0000
     1.0000   1.0000   1.0000   1.0000   1.0000   1.0000   1.0000   1.0000
     1.0000   1.0000   1.0000   1.0000   1.0000   1.0000   1.0000   1.0000
     1.0000   1.0000   1.0000   1.0000   1.0000   1.0000   1.0000   1.0000
     1.0000   1.0000   1.0000   1.0000   1.0000   1.0000   1.0000   1.0000
     1.0000   1.0000   1.0000   1.0000   1.0000   1.0000   1.0000   1.0000
     1.0000   1.0000   1.0000   1.0000   1.0000   1.0000   1.0000   1.0000
     1.0000   1.0000   1.0000   1.0000   1.0000   1.0000   1.0000   1.0000
     1.0000   1.0000   1.0000   1.0000   1.0000   1.0000   1.0000   1.0000
     1.0000   1.0000   1.0000   1.0000   1.0000   1.0000   1.0000   1.0000
     1.0000   1.0000   1.0000   1.0000   1.0000   1.0000   1.0000   1.0000
     1.0000   1.0000   1.0000   1.0000   1.0000   1.0000   1.0000   1.0000
     1.0000   1.0000   1.0000   1.0000   1.0000   1.0000   1.0000   1.0000
     1.0000   1.0000   1.0000   1.0000   1.0000   1.0000   1.0000   1.0000
     1.0000   1.0000   1.0000   1.0000   1.0000   1.0000   1.0000   1.0000
     1.0000   1.0000   1.0000   1.0000   1.0000   1.0000   1.0000   1.0000
     1.0000   1.0000   1.0000   1.0000   1.0000   1.0000   1.0000   1.0000
     1.0000   1.0000   1.0000   1.0000   1.0000   1.0000   1.0000   1.0000
     1.0000   1.0000   1.0000   1.0000   1.0000   1.0000   1.0000   1.0000
     1.0000   1.0000   1.0000   1.0000   1.0000   1.0000   1.0000   1.0000
     1.0000   1.0000   1.0000   1.0000   1.0000   1.0000   1.0000   1.0000
     1.0000   1.0000   1.0000   1.0000   1.0000   1.0000   1.0000   1.0000
     1.0000   1.0000   1.0000   1.0000   1.0000   1.0000   1.0000   1.0000
     1.0000   1.0000   0.9999   0.9999   0.9998   0.9990   0.9977   0.9958
     0.9907   0.9875   0.9847   0.9835   0.9790   0.9186   0.8696   0.8596
     0.7439   0.7018   0.5913   0.3746   0.3630   0.3572   0.3362   0.2990
     0.1027   0.0809   0.0203   0.0162   0.0079   0.0050   0.0033   0.0028
     0.0010   0.0006   0.0002   0.0000   0.0000   0.0000   0.0000   0.0000
     0.0000   0.0000   0.0000   0.0000   0.0000   0.0000   0.0000   0.0000
     0.0000   0.0000   0.0000   0.0000   0.0000   0.0000   0.0000   0.0000
     0.0000   0.0000   0.0000   0.0000   0.0000   0.0000   0.0000   0.0000
     0.0000   0.0000   0.0000   0.0000   0.0000   0.0000   0.0000   0.0000
     0.0000   0.0000   0.0000   0.0000   0.0000   0.0000   0.0000   0.0000
     0.0000   0.0000   0.0000   0.0000   0.0000   0.0000   0.0000   0.0000

          k = 0.1667-0.4811 0.0000 ( 88140 PWs)   bands (ev):

   -95.5393 -95.5353 -95.5297 -95.5285 -95.5280 -95.5238 -95.5215 -95.5210
   -95.5091 -95.5042 -95.5039 -95.5018 -95.4999 -95.4993 -95.4956 -95.4948
   -95.4938 -95.3952 -95.1405 -95.1343 -95.1338 -95.1007 -95.0936 -95.0918
   -95.0875 -95.0849 -95.0813 -95.0771 -95.0756 -95.0749 -95.0712 -95.0678
   -95.0670 -94.8939 -94.8914 -94.8894 -49.8480 -49.8340 -49.8278 -49.8178
   -49.8080 -49.8018 -49.7943 -49.7864 -49.7799 -49.7744 -49.7721 -49.7684
   -49.7580 -49.7454 -49.7418 -49.6932 -49.6869 -49.6836 -49.6802 -49.6736
   -49.6707 -49.6652 -49.6595 -49.6524 -49.6468 -49.6438 -49.6373 -49.6324
   -49.6268 -49.6226 -49.6188 -49.6142 -49.6096 -49.6083 -49.6056 -49.6028
   -49.5988 -49.5926 -49.5887 -49.5874 -49.5826 -49.5780 -49.5738 -49.5714
   -49.5681 -49.5673 -49.5646 -49.5590 -49.5479 -49.5403 -49.5267 -49.5032
   -49.4869 -49.4808 -49.4723 -49.4650 -49.4582 -49.4544 -49.4426 -49.4365
   -49.4289 -49.4147 -49.4119 -49.4056 -49.3826 -49.3773 -49.3381 -49.3104
   -49.3097 -49.3026 -49.2975 -49.2949 -49.2825 -49.2772 -49.2741 -49.2691
   -49.2629 -49.2563 -49.2550 -49.2483 -49.2346 -49.2184 -49.2038 -49.1919
   -49.1571 -49.1329 -49.1185 -49.1072 -49.0970 -49.0809 -49.0492 -49.0403
   -49.0389 -49.0207 -49.0173 -49.0132 -49.0100 -49.0084 -49.0080 -49.0012
   -48.9986 -48.9976 -48.9934 -48.9891 -48.9880 -48.8079 -48.8026 -48.8000
   -11.9265  -5.5024  -4.9631  -4.4667  -4.2224  -3.7468  -3.3942  -3.3444
    -3.3335  -3.2282  -3.1901  -3.1299  -3.0765  -3.0144  -3.0029  -2.8862
    -2.8119  -2.8053  -2.7381  -2.6991  -2.6663  -2.6539  -2.6323  -2.5968
    -2.5420  -2.5050  -2.4451  -2.4296  -2.3703  -2.3280  -2.2765  -2.2139
    -2.1937  -2.1724  -2.1231  -2.1056  -2.0049  -1.9622  -1.8845  -1.8392
    -1.7026  -1.6459  -1.6271  -1.5597  -1.5417  -1.5319  -1.5163  -1.4376
    -1.4246  -1.3806  -1.3419  -1.2864  -1.2253  -1.1945  -1.1738  -1.1415
    -1.1219  -1.0960  -1.0463  -1.0183  -0.9790  -0.9315  -0.8726  -0.8494
    -0.8438  -0.7944  -0.7661  -0.6632  -0.6319  -0.6064  -0.5510  -0.5343
    -0.5275  -0.5025  -0.4709  -0.4550  -0.4191  -0.3932  -0.3602  -0.3438
    -0.2733  -0.2516  -0.2330  -0.2096  -0.2053  -0.1695  -0.0890  -0.0663
    -0.0466  -0.0349  -0.0158   0.0406   0.0498   0.0729   0.0969   0.1058
     0.1216   0.1353   0.1568   0.1941   0.2037   0.2214   0.2349   0.2686
     0.3061   0.3332   0.3571   0.3952   0.4497   0.4816   0.5052   0.5949
     0.6117   0.6461   0.7431   0.8155   0.8445   0.8746   0.9024   0.9250
     0.9592   0.9827   0.9889   1.0497   1.0757   1.0890   1.1104   1.1347
     1.1742   1.2129   1.2222   1.2801   1.3221   1.3602   1.4797   1.5010
     1.5177   1.5470   1.5954   1.6341   1.6432   1.6567   1.6844   1.7110
     1.7241   1.7599   1.8289   1.8587   1.8896   1.9020   1.9122   1.9329
     1.9562   1.9706   2.0866   2.1190   2.1782   2.2436   2.2632   2.3462
     2.3758   2.3931   2.4537   2.4617   2.4883   2.5776   2.6191   2.6500
     2.6902   2.7049   2.7151   2.7190   2.7313   2.8023   2.8285   2.8328
     2.8701   2.8806   2.9049   2.9490   2.9515   2.9528   2.9574   2.9660
     3.0318   3.0448   3.1173   3.1287   3.1651   3.1884   3.2083   3.2179
     3.2701   3.2945   3.3432   3.9423   4.2055   4.2256   4.2810   4.3464
     4.6341   4.7904   4.8557   5.1552   5.2025   5.2356   5.2790   5.3735
     5.6303   5.7613   5.8436   6.0794   6.3708   6.4449   6.4992   6.6343
     6.8150   7.1129   7.2923   7.5395   7.5974   7.6204   8.3540   8.6058
     8.6287   8.6879   8.8715   9.1133   9.2030   9.2153   9.4449   9.4911
     9.5858   9.7296   9.8411   9.9391  10.0789  10.0897  10.1757  10.4407
    10.5377  10.8075  10.8346  10.9354  10.9517  10.9894  11.1206  11.1441

     occupation numbers 
     1.0000   1.0000   1.0000   1.0000   1.0000   1.0000   1.0000   1.0000
     1.0000   1.0000   1.0000   1.0000   1.0000   1.0000   1.0000   1.0000
     1.0000   1.0000   1.0000   1.0000   1.0000   1.0000   1.0000   1.0000
     1.0000   1.0000   1.0000   1.0000   1.0000   1.0000   1.0000   1.0000
     1.0000   1.0000   1.0000   1.0000   1.0000   1.0000   1.0000   1.0000
     1.0000   1.0000   1.0000   1.0000   1.0000   1.0000   1.0000   1.0000
     1.0000   1.0000   1.0000   1.0000   1.0000   1.0000   1.0000   1.0000
     1.0000   1.0000   1.0000   1.0000   1.0000   1.0000   1.0000   1.0000
     1.0000   1.0000   1.0000   1.0000   1.0000   1.0000   1.0000   1.0000
     1.0000   1.0000   1.0000   1.0000   1.0000   1.0000   1.0000   1.0000
     1.0000   1.0000   1.0000   1.0000   1.0000   1.0000   1.0000   1.0000
     1.0000   1.0000   1.0000   1.0000   1.0000   1.0000   1.0000   1.0000
     1.0000   1.0000   1.0000   1.0000   1.0000   1.0000   1.0000   1.0000
     1.0000   1.0000   1.0000   1.0000   1.0000   1.0000   1.0000   1.0000
     1.0000   1.0000   1.0000   1.0000   1.0000   1.0000   1.0000   1.0000
     1.0000   1.0000   1.0000   1.0000   1.0000   1.0000   1.0000   1.0000
     1.0000   1.0000   1.0000   1.0000   1.0000   1.0000   1.0000   1.0000
     1.0000   1.0000   1.0000   1.0000   1.0000   1.0000   1.0000   1.0000
     1.0000   1.0000   1.0000   1.0000   1.0000   1.0000   1.0000   1.0000
     1.0000   1.0000   1.0000   1.0000   1.0000   1.0000   1.0000   1.0000
     1.0000   1.0000   1.0000   1.0000   1.0000   1.0000   1.0000   1.0000
     1.0000   1.0000   1.0000   1.0000   1.0000   1.0000   1.0000   1.0000
     1.0000   1.0000   1.0000   1.0000   1.0000   1.0000   1.0000   1.0000
     1.0000   1.0000   1.0000   1.0000   1.0000   1.0000   1.0000   1.0000
     1.0000   1.0000   1.0000   1.0000   1.0000   1.0000   1.0000   1.0000
     1.0000   1.0000   1.0000   1.0000   1.0000   1.0000   1.0000   1.0000
     1.0000   1.0000   1.0000   1.0000   1.0000   1.0000   1.0000   1.0000
     1.0000   1.0000   1.0000   1.0000   1.0000   1.0000   1.0000   1.0000
     1.0000   1.0000   1.0000   1.0000   1.0000   1.0000   1.0000   1.0000
     1.0000   1.0000   1.0000   1.0000   1.0000   1.0000   1.0000   1.0000
     1.0000   1.0000   1.0000   1.0000   1.0000   1.0000   1.0000   1.0000
     1.0000   1.0000   1.0000   1.0000   1.0000   1.0000   1.0000   1.0000
     1.0000   1.0000   1.0000   1.0000   1.0000   1.0000   1.0000   1.0000
     1.0000   1.0000   1.0000   1.0000   1.0000   1.0000   1.0000   1.0000
     1.0000   1.0000   1.0000   1.0000   1.0000   1.0000   1.0000   1.0000
     1.0000   1.0000   1.0000   1.0000   1.0000   1.0000   1.0000   1.0000
     1.0000   1.0000   1.0000   1.0000   1.0000   1.0000   1.0000   1.0000
     1.0000   1.0000   1.0000   1.0000   1.0000   1.0000   1.0000   1.0000
     1.0000   1.0000   0.9999   0.9999   0.9998   0.9990   0.9977   0.9958
     0.9907   0.9875   0.9847   0.9835   0.9790   0.9185   0.8696   0.8596
     0.7439   0.7019   0.5914   0.3746   0.3631   0.3570   0.3363   0.2989
     0.1026   0.0810   0.0203   0.0162   0.0079   0.0050   0.0033   0.0028
     0.0010   0.0006   0.0002   0.0000   0.0000   0.0000   0.0000   0.0000
     0.0000   0.0000   0.0000   0.0000   0.0000   0.0000   0.0000   0.0000
     0.0000   0.0000   0.0000   0.0000   0.0000   0.0000   0.0000   0.0000
     0.0000   0.0000   0.0000   0.0000   0.0000   0.0000   0.0000   0.0000
     0.0000   0.0000   0.0000   0.0000   0.0000   0.0000   0.0000   0.0000
     0.0000   0.0000   0.0000   0.0000   0.0000   0.0000   0.0000   0.0000
     0.0000   0.0000   0.0000   0.0000   0.0000   0.0000   0.0000   0.0000

          k = 0.1667-0.2887 0.0000 ( 88188 PWs)   bands (ev):

   -95.5403 -95.5342 -95.5293 -95.5286 -95.5282 -95.5237 -95.5218 -95.5212
   -95.5091 -95.5042 -95.5039 -95.5019 -95.4995 -95.4991 -95.4960 -95.4957
   -95.4930 -95.3952 -95.1406 -95.1343 -95.1337 -95.1008 -95.0937 -95.0918
   -95.0891 -95.0829 -95.0805 -95.0774 -95.0761 -95.0751 -95.0715 -95.0676
   -95.0671 -94.8939 -94.8914 -94.8895 -49.8345 -49.8282 -49.8161 -49.8074
   -49.8027 -49.7954 -49.7876 -49.7848 -49.7788 -49.7712 -49.7684 -49.7638
   -49.7607 -49.7518 -49.7415 -49.7124 -49.7075 -49.7016 -49.6877 -49.6838
   -49.6798 -49.6755 -49.6731 -49.6668 -49.6578 -49.6476 -49.6423 -49.6306
   -49.6256 -49.6204 -49.6181 -49.6151 -49.6132 -49.6064 -49.6029 -49.5986
   -49.5943 -49.5914 -49.5874 -49.5841 -49.5798 -49.5757 -49.5740 -49.5689
   -49.5662 -49.5615 -49.5569 -49.5466 -49.5396 -49.5345 -49.5271 -49.4948
   -49.4826 -49.4731 -49.4687 -49.4606 -49.4546 -49.4408 -49.4386 -49.4254
   -49.4222 -49.4179 -49.4104 -49.3929 -49.3919 -49.3896 -49.3650 -49.3306
   -49.3259 -49.3245 -49.3228 -49.3058 -49.2990 -49.2789 -49.2595 -49.2519
   -49.2508 -49.2500 -49.2496 -49.2474 -49.2176 -49.2168 -49.2027 -49.1833
   -49.1680 -49.1331 -49.1207 -49.1021 -49.0872 -49.0767 -49.0500 -49.0398
   -49.0387 -49.0214 -49.0197 -49.0102 -49.0098 -49.0083 -49.0065 -49.0016
   -48.9997 -48.9981 -48.9941 -48.9885 -48.9879 -48.8078 -48.8026 -48.8001
   -11.9265  -5.8935  -4.5990  -4.3796  -4.3345  -3.5065  -3.4558  -3.4303
    -3.4159  -3.4133  -3.3997  -3.3392  -3.2646  -3.1685  -3.1534  -2.8769
    -2.8592  -2.7286  -2.7171  -2.5806  -2.5683  -2.5469  -2.5371  -2.5301
    -2.5064  -2.4544  -2.4385  -2.4061  -2.3574  -2.3472  -2.3121  -2.2540
    -2.2355  -2.2134  -2.1751  -2.1024  -2.0258  -1.8937  -1.8486  -1.7903
    -1.7711  -1.7184  -1.6692  -1.6383  -1.6234  -1.5811  -1.5402  -1.4532
    -1.4194  -1.3293  -1.3138  -1.3041  -1.2381  -1.2266  -1.1918  -1.1178
    -1.0710  -0.9083  -0.8732  -0.8453  -0.8345  -0.8233  -0.7670  -0.7408
    -0.7277  -0.7151  -0.6433  -0.6331  -0.5532  -0.5412  -0.5293  -0.5140
    -0.5063  -0.3927  -0.3684  -0.3385  -0.3241  -0.3020  -0.2577  -0.2114
    -0.2031  -0.1821  -0.1722  -0.1685  -0.1559  -0.1249  -0.1173  -0.1031
    -0.0416  -0.0372   0.0284   0.0453   0.0762   0.0973   0.1240   0.1292
     0.1721   0.1884   0.1952   0.2076   0.2292   0.2501   0.2649   0.2747
     0.3362   0.3486   0.3613   0.3922   0.4832   0.5120   0.5255   0.5409
     0.5962   0.6041   0.7615   0.8427   0.8605   0.8719   0.9201   0.9406
     0.9834   1.0103   1.0264   1.0423   1.0516   1.0687   1.1665   1.1790
     1.2657   1.3462   1.4038   1.4087   1.4475   1.4698   1.5087   1.5341
     1.5511   1.5607   1.6862   1.7249   1.7278   1.7463   1.7729   1.7822
     1.8316   1.8396   1.8681   1.8756   1.9096   1.9312   1.9726   1.9834
     1.9951   2.0128   2.0192   2.0612   2.1077   2.1294   2.1649   2.3257
     2.3715   2.3902   2.4652   2.4903   2.5128   2.5261   2.5944   2.6137
     2.6167   2.6279   2.6448   2.6770   2.6831   2.7181   2.7306   2.7332
     2.8421   2.8541   2.8608   2.8787   2.9027   2.9089   2.9185   2.9307
     2.9517   2.9526   2.9563   2.9794   3.0892   3.1038   3.1107   3.1689
     3.1856   3.2043   3.2360   3.3235   3.3421   3.5673   3.5721   3.6512
     3.9858   3.9957   4.2854   4.3095   4.9285   4.9969   5.0129   5.3472
     5.3539   5.7905   6.4599   6.4806   6.5933   6.7820   6.9543   7.2204
     7.2510   7.6597   7.7708   7.7905   7.8382   7.9731   8.8031   8.8203
     8.9079   8.9519   8.9658   9.1891   9.2408   9.3778   9.4587   9.6063
     9.6310   9.6547   9.9599  10.0498  10.0539  10.4055  10.4332  10.5009
    10.5069  10.5236  10.5704  10.9509  11.0549  11.0669  11.0834  11.1180

     occupation numbers 
     1.0000   1.0000   1.0000   1.0000   1.0000   1.0000   1.0000   1.0000
     1.0000   1.0000   1.0000   1.0000   1.0000   1.0000   1.0000   1.0000
     1.0000   1.0000   1.0000   1.0000   1.0000   1.0000   1.0000   1.0000
     1.0000   1.0000   1.0000   1.0000   1.0000   1.0000   1.0000   1.0000
     1.0000   1.0000   1.0000   1.0000   1.0000   1.0000   1.0000   1.0000
     1.0000   1.0000   1.0000   1.0000   1.0000   1.0000   1.0000   1.0000
     1.0000   1.0000   1.0000   1.0000   1.0000   1.0000   1.0000   1.0000
     1.0000   1.0000   1.0000   1.0000   1.0000   1.0000   1.0000   1.0000
     1.0000   1.0000   1.0000   1.0000   1.0000   1.0000   1.0000   1.0000
     1.0000   1.0000   1.0000   1.0000   1.0000   1.0000   1.0000   1.0000
     1.0000   1.0000   1.0000   1.0000   1.0000   1.0000   1.0000   1.0000
     1.0000   1.0000   1.0000   1.0000   1.0000   1.0000   1.0000   1.0000
     1.0000   1.0000   1.0000   1.0000   1.0000   1.0000   1.0000   1.0000
     1.0000   1.0000   1.0000   1.0000   1.0000   1.0000   1.0000   1.0000
     1.0000   1.0000   1.0000   1.0000   1.0000   1.0000   1.0000   1.0000
     1.0000   1.0000   1.0000   1.0000   1.0000   1.0000   1.0000   1.0000
     1.0000   1.0000   1.0000   1.0000   1.0000   1.0000   1.0000   1.0000
     1.0000   1.0000   1.0000   1.0000   1.0000   1.0000   1.0000   1.0000
     1.0000   1.0000   1.0000   1.0000   1.0000   1.0000   1.0000   1.0000
     1.0000   1.0000   1.0000   1.0000   1.0000   1.0000   1.0000   1.0000
     1.0000   1.0000   1.0000   1.0000   1.0000   1.0000   1.0000   1.0000
     1.0000   1.0000   1.0000   1.0000   1.0000   1.0000   1.0000   1.0000
     1.0000   1.0000   1.0000   1.0000   1.0000   1.0000   1.0000   1.0000
     1.0000   1.0000   1.0000   1.0000   1.0000   1.0000   1.0000   1.0000
     1.0000   1.0000   1.0000   1.0000   1.0000   1.0000   1.0000   1.0000
     1.0000   1.0000   1.0000   1.0000   1.0000   1.0000   1.0000   1.0000
     1.0000   1.0000   1.0000   1.0000   1.0000   1.0000   1.0000   1.0000
     1.0000   1.0000   1.0000   1.0000   1.0000   1.0000   1.0000   1.0000
     1.0000   1.0000   1.0000   1.0000   1.0000   1.0000   1.0000   1.0000
     1.0000   1.0000   1.0000   1.0000   1.0000   1.0000   1.0000   1.0000
     1.0000   1.0000   1.0000   1.0000   1.0000   1.0000   1.0000   1.0000
     1.0000   1.0000   1.0000   1.0000   1.0000   1.0000   1.0000   1.0000
     1.0000   1.0000   1.0000   1.0000   1.0000   1.0000   1.0000   1.0000
     1.0000   1.0000   1.0000   1.0000   1.0000   1.0000   1.0000   1.0000
     1.0000   1.0000   1.0000   1.0000   1.0000   1.0000   1.0000   1.0000
     1.0000   1.0000   1.0000   1.0000   1.0000   1.0000   1.0000   1.0000
     1.0000   1.0000   1.0000   1.0000   1.0000   1.0000   1.0000   1.0000
     1.0000   1.0000   1.0000   1.0000   1.0000   1.0000   1.0000   1.0000
     1.0000   1.0000   0.9999   0.9998   0.9997   0.9996   0.9986   0.9980
     0.9978   0.9973   0.9962   0.9928   0.9919   0.9838   0.9793   0.9782
     0.8356   0.8000   0.7777   0.7098   0.6019   0.5719   0.5246   0.4637
     0.3619   0.3578   0.3412   0.2458   0.0350   0.0264   0.0231   0.0073
     0.0053   0.0036   0.0019   0.0003   0.0002   0.0000   0.0000   0.0000
     0.0000   0.0000   0.0000   0.0000   0.0000   0.0000   0.0000   0.0000
     0.0000   0.0000   0.0000   0.0000   0.0000   0.0000   0.0000   0.0000
     0.0000   0.0000   0.0000   0.0000   0.0000   0.0000   0.0000   0.0000
     0.0000   0.0000   0.0000   0.0000   0.0000   0.0000   0.0000   0.0000
     0.0000   0.0000   0.0000   0.0000   0.0000   0.0000   0.0000   0.0000
     0.0000   0.0000   0.0000   0.0000   0.0000   0.0000   0.0000   0.0000

          k = 0.3333-0.1925 0.0000 ( 88170 PWs)   bands (ev):

   -95.5400 -95.5345 -95.5291 -95.5287 -95.5283 -95.5237 -95.5220 -95.5208
   -95.5090 -95.5042 -95.5040 -95.5018 -95.4996 -95.4993 -95.4960 -95.4953
   -95.4932 -95.3952 -95.1406 -95.1344 -95.1336 -95.1007 -95.0937 -95.0918
   -95.0887 -95.0837 -95.0801 -95.0780 -95.0757 -95.0750 -95.0714 -95.0675
   -95.0672 -94.8939 -94.8914 -94.8895 -49.8427 -49.8232 -49.8181 -49.8131
   -49.7993 -49.7967 -49.7939 -49.7925 -49.7831 -49.7747 -49.7740 -49.7676
   -49.7536 -49.7421 -49.7258 -49.7247 -49.6997 -49.6971 -49.6808 -49.6783
   -49.6728 -49.6700 -49.6697 -49.6677 -49.6553 -49.6549 -49.6360 -49.6312
   -49.6277 -49.6224 -49.6145 -49.6137 -49.6129 -49.6059 -49.5999 -49.5992
   -49.5929 -49.5916 -49.5902 -49.5871 -49.5803 -49.5795 -49.5722 -49.5713
   -49.5677 -49.5611 -49.5568 -49.5494 -49.5472 -49.5375 -49.5236 -49.5000
   -49.4830 -49.4774 -49.4669 -49.4660 -49.4513 -49.4480 -49.4280 -49.4270
   -49.4234 -49.4227 -49.4193 -49.4190 -49.3792 -49.3600 -49.3525 -49.3523
   -49.3187 -49.3183 -49.3034 -49.3017 -49.2976 -49.2808 -49.2614 -49.2611
   -49.2586 -49.2507 -49.2482 -49.2344 -49.2337 -49.2111 -49.2073 -49.1853
   -49.1650 -49.1322 -49.1196 -49.1031 -49.0932 -49.0765 -49.0497 -49.0404
   -49.0384 -49.0211 -49.0192 -49.0114 -49.0101 -49.0082 -49.0056 -49.0031
   -48.9988 -48.9978 -48.9938 -48.9885 -48.9881 -48.8079 -48.8025 -48.8001
   -11.9265  -5.7938  -4.7335  -4.4990  -3.8750  -3.8742  -3.5820  -3.4701
    -3.4053  -3.3354  -3.2704  -3.2331  -3.2312  -3.0072  -2.9752  -2.9230
    -2.9162  -2.8154  -2.6795  -2.6238  -2.5855  -2.5835  -2.5481  -2.5421
    -2.5222  -2.5133  -2.4697  -2.4392  -2.3586  -2.3353  -2.3199  -2.3059
    -2.1036  -2.0997  -2.0586  -2.0446  -2.0182  -2.0149  -1.8208  -1.8148
    -1.7389  -1.7200  -1.6879  -1.6182  -1.5721  -1.5714  -1.5466  -1.5176
    -1.3827  -1.3780  -1.3207  -1.2950  -1.2787  -1.2741  -1.1866  -1.1566
    -1.1291  -1.0206  -0.9376  -0.9341  -0.9139  -0.8011  -0.7676  -0.7391
    -0.7354  -0.7000  -0.6944  -0.6747  -0.6070  -0.4821  -0.4674  -0.4528
    -0.4436  -0.4122  -0.3886  -0.3797  -0.3443  -0.3118  -0.3102  -0.2465
    -0.2449  -0.2269  -0.2135  -0.1936  -0.1856  -0.1796  -0.1743  -0.1310
    -0.1208  -0.0880  -0.0590  -0.0341  -0.0263   0.0036   0.1157   0.1358
     0.1393   0.1607   0.1676   0.2102   0.2738   0.2769   0.2938   0.2987
     0.3307   0.3970   0.4768   0.4832   0.5390   0.5474   0.5913   0.6051
     0.6864   0.7173   0.8628   0.8855   0.8876   0.9107   0.9124   0.9306
     0.9395   0.9605   0.9621   1.0431   1.0541   1.0837   1.0866   1.1187
     1.1684   1.2361   1.2698   1.2904   1.3236   1.4580   1.4704   1.4922
     1.5011   1.5127   1.5242   1.6791   1.7465   1.7549   1.7726   1.7736
     1.8070   1.8180   1.8513   1.8899   1.9064   1.9655   1.9831   2.0272
     2.0918   2.1046   2.1078   2.1196   2.1276   2.1502   2.1720   2.3243
     2.3631   2.3832   2.4093   2.4259   2.4267   2.4541   2.5254   2.5431
     2.5901   2.6318   2.6349   2.6453   2.6516   2.7539   2.7742   2.7807
     2.8318   2.8398   2.8681   2.8779   2.8966   2.9226   2.9483   2.9523
     2.9529   2.9610   3.0529   3.0903   3.1098   3.1164   3.1312   3.1331
     3.3024   3.3123   3.3507   3.7163   3.7297   3.7990   3.8009   3.8161
     4.0910   4.1205   4.2731   4.9969   5.0466   5.1267   5.1492   5.2177
     5.7901   5.7930   5.8212   5.8243   6.5380   6.5615   7.0149   7.1885
     7.2769   7.2833   7.7309   7.7554   8.2115   8.2267   8.5452   8.5512
     8.5863   9.0178   9.0869   9.1540   9.1729   9.4482   9.4538   9.5500
     9.5563   9.7596   9.9154  10.0151  10.1419  10.1900  10.2602  10.2776
    10.4484  10.4737  10.5906  10.7356  11.0395  11.1313  11.1819  11.2045

     occupation numbers 
     1.0000   1.0000   1.0000   1.0000   1.0000   1.0000   1.0000   1.0000
     1.0000   1.0000   1.0000   1.0000   1.0000   1.0000   1.0000   1.0000
     1.0000   1.0000   1.0000   1.0000   1.0000   1.0000   1.0000   1.0000
     1.0000   1.0000   1.0000   1.0000   1.0000   1.0000   1.0000   1.0000
     1.0000   1.0000   1.0000   1.0000   1.0000   1.0000   1.0000   1.0000
     1.0000   1.0000   1.0000   1.0000   1.0000   1.0000   1.0000   1.0000
     1.0000   1.0000   1.0000   1.0000   1.0000   1.0000   1.0000   1.0000
     1.0000   1.0000   1.0000   1.0000   1.0000   1.0000   1.0000   1.0000
     1.0000   1.0000   1.0000   1.0000   1.0000   1.0000   1.0000   1.0000
     1.0000   1.0000   1.0000   1.0000   1.0000   1.0000   1.0000   1.0000
     1.0000   1.0000   1.0000   1.0000   1.0000   1.0000   1.0000   1.0000
     1.0000   1.0000   1.0000   1.0000   1.0000   1.0000   1.0000   1.0000
     1.0000   1.0000   1.0000   1.0000   1.0000   1.0000   1.0000   1.0000
     1.0000   1.0000   1.0000   1.0000   1.0000   1.0000   1.0000   1.0000
     1.0000   1.0000   1.0000   1.0000   1.0000   1.0000   1.0000   1.0000
     1.0000   1.0000   1.0000   1.0000   1.0000   1.0000   1.0000   1.0000
     1.0000   1.0000   1.0000   1.0000   1.0000   1.0000   1.0000   1.0000
     1.0000   1.0000   1.0000   1.0000   1.0000   1.0000   1.0000   1.0000
     1.0000   1.0000   1.0000   1.0000   1.0000   1.0000   1.0000   1.0000
     1.0000   1.0000   1.0000   1.0000   1.0000   1.0000   1.0000   1.0000
     1.0000   1.0000   1.0000   1.0000   1.0000   1.0000   1.0000   1.0000
     1.0000   1.0000   1.0000   1.0000   1.0000   1.0000   1.0000   1.0000
     1.0000   1.0000   1.0000   1.0000   1.0000   1.0000   1.0000   1.0000
     1.0000   1.0000   1.0000   1.0000   1.0000   1.0000   1.0000   1.0000
     1.0000   1.0000   1.0000   1.0000   1.0000   1.0000   1.0000   1.0000
     1.0000   1.0000   1.0000   1.0000   1.0000   1.0000   1.0000   1.0000
     1.0000   1.0000   1.0000   1.0000   1.0000   1.0000   1.0000   1.0000
     1.0000   1.0000   1.0000   1.0000   1.0000   1.0000   1.0000   1.0000
     1.0000   1.0000   1.0000   1.0000   1.0000   1.0000   1.0000   1.0000
     1.0000   1.0000   1.0000   1.0000   1.0000   1.0000   1.0000   1.0000
     1.0000   1.0000   1.0000   1.0000   1.0000   1.0000   1.0000   1.0000
     1.0000   1.0000   1.0000   1.0000   1.0000   1.0000   1.0000   1.0000
     1.0000   1.0000   1.0000   1.0000   1.0000   1.0000   1.0000   1.0000
     1.0000   1.0000   1.0000   1.0000   1.0000   1.0000   1.0000   1.0000
     1.0000   1.0000   1.0000   1.0000   1.0000   1.0000   1.0000   1.0000
     1.0000   1.0000   1.0000   1.0000   1.0000   1.0000   1.0000   1.0000
     1.0000   1.0000   1.0000   1.0000   1.0000   1.0000   1.0000   1.0000
     1.0000   1.0000   1.0000   1.0000   1.0000   1.0000   1.0000   1.0000
     1.0000   1.0000   1.0000   1.0000   1.0000   0.9999   0.9997   0.9995
     0.9987   0.9971   0.9969   0.9962   0.9957   0.9674   0.9518   0.9455
     0.8619   0.8419   0.7514   0.7128   0.6307   0.5038   0.3777   0.3595
     0.3567   0.3205   0.0698   0.0343   0.0235   0.0206   0.0154   0.0149
     0.0005   0.0004   0.0002   0.0000   0.0000   0.0000   0.0000   0.0000
     0.0000   0.0000   0.0000   0.0000   0.0000   0.0000   0.0000   0.0000
     0.0000   0.0000   0.0000   0.0000   0.0000   0.0000   0.0000   0.0000
     0.0000   0.0000   0.0000   0.0000   0.0000   0.0000   0.0000   0.0000
     0.0000   0.0000   0.0000   0.0000   0.0000   0.0000   0.0000   0.0000
     0.0000   0.0000   0.0000   0.0000   0.0000   0.0000   0.0000   0.0000
     0.0000   0.0000   0.0000   0.0000   0.0000   0.0000   0.0000   0.0000

          k = 0.3333 0.0000 0.0000 ( 88188 PWs)   bands (ev):

   -95.5403 -95.5342 -95.5293 -95.5286 -95.5283 -95.5236 -95.5221 -95.5209
   -95.5090 -95.5041 -95.5040 -95.5018 -95.4996 -95.4991 -95.4960 -95.4957
   -95.4930 -95.3952 -95.1406 -95.1344 -95.1336 -95.1008 -95.0937 -95.0918
   -95.0891 -95.0829 -95.0806 -95.0772 -95.0762 -95.0752 -95.0715 -95.0675
   -95.0671 -94.8939 -94.8914 -94.8895 -49.8336 -49.8276 -49.8166 -49.8074
   -49.8032 -49.7954 -49.7875 -49.7844 -49.7792 -49.7712 -49.7688 -49.7642
   -49.7606 -49.7520 -49.7419 -49.7132 -49.7069 -49.7014 -49.6878 -49.6839
   -49.6799 -49.6755 -49.6731 -49.6668 -49.6578 -49.6474 -49.6420 -49.6303
   -49.6255 -49.6206 -49.6180 -49.6150 -49.6129 -49.6066 -49.6027 -49.5987
   -49.5942 -49.5912 -49.5871 -49.5840 -49.5799 -49.5757 -49.5743 -49.5685
   -49.5668 -49.5620 -49.5560 -49.5462 -49.5400 -49.5347 -49.5277 -49.4943
   -49.4832 -49.4727 -49.4687 -49.4607 -49.4549 -49.4406 -49.4385 -49.4255
   -49.4224 -49.4180 -49.4101 -49.3932 -49.3923 -49.3899 -49.3645 -49.3308
   -49.3257 -49.3244 -49.3227 -49.3054 -49.2991 -49.2786 -49.2596 -49.2519
   -49.2507 -49.2505 -49.2496 -49.2472 -49.2176 -49.2169 -49.2024 -49.1835
   -49.1678 -49.1328 -49.1209 -49.1024 -49.0871 -49.0766 -49.0499 -49.0402
   -49.0383 -49.0214 -49.0197 -49.0103 -49.0097 -49.0082 -49.0066 -49.0014
   -48.9999 -48.9981 -48.9940 -48.9885 -48.9880 -48.8079 -48.8025 -48.8001
   -11.9265  -5.8935  -4.5991  -4.3796  -4.3351  -3.5067  -3.4544  -3.4303
    -3.4162  -3.4134  -3.3996  -3.3389  -3.2646  -3.1682  -3.1534  -2.8783
    -2.8608  -2.7281  -2.7168  -2.5823  -2.5689  -2.5466  -2.5368  -2.5302
    -2.5068  -2.4534  -2.4378  -2.4056  -2.3571  -2.3461  -2.3119  -2.2536
    -2.2358  -2.2136  -2.1761  -2.1018  -2.0280  -1.8926  -1.8484  -1.7902
    -1.7696  -1.7183  -1.6688  -1.6383  -1.6226  -1.5815  -1.5408  -1.4528
    -1.4193  -1.3287  -1.3139  -1.3036  -1.2372  -1.2269  -1.1921  -1.1175
    -1.0709  -0.9068  -0.8723  -0.8441  -0.8324  -0.8219  -0.7666  -0.7424
    -0.7266  -0.7152  -0.6433  -0.6330  -0.5556  -0.5417  -0.5308  -0.5146
    -0.5077  -0.3905  -0.3674  -0.3381  -0.3247  -0.3036  -0.2569  -0.2131
    -0.2032  -0.1825  -0.1726  -0.1677  -0.1571  -0.1242  -0.1190  -0.1037
    -0.0415  -0.0376   0.0291   0.0461   0.0767   0.0970   0.1238   0.1294
     0.1719   0.1890   0.1941   0.2067   0.2288   0.2504   0.2643   0.2746
     0.3364   0.3476   0.3621   0.3921   0.4833   0.5118   0.5251   0.5414
     0.5957   0.6036   0.7615   0.8436   0.8589   0.8723   0.9184   0.9412
     0.9837   1.0107   1.0261   1.0414   1.0518   1.0681   1.1663   1.1778
     1.2697   1.3426   1.4036   1.4089   1.4465   1.4691   1.5089   1.5338
     1.5508   1.5603   1.6864   1.7245   1.7276   1.7468   1.7724   1.7823
     1.8324   1.8402   1.8692   1.8768   1.9099   1.9313   1.9738   1.9841
     1.9953   2.0134   2.0207   2.0609   2.1070   2.1302   2.1627   2.3249
     2.3702   2.3895   2.4650   2.4898   2.5132   2.5266   2.5942   2.6133
     2.6160   2.6281   2.6461   2.6774   2.6832   2.7171   2.7298   2.7322
     2.8422   2.8529   2.8625   2.8778   2.9026   2.9081   2.9186   2.9308
     2.9517   2.9527   2.9563   2.9790   3.0894   3.1054   3.1113   3.1706
     3.1874   3.2043   3.2356   3.3246   3.3426   3.5670   3.5717   3.6502
     3.9869   3.9969   4.2866   4.3105   4.9270   4.9965   5.0123   5.3473
     5.3533   5.7907   6.4620   6.4818   6.5937   6.7817   6.9535   7.2202
     7.2504   7.6598   7.7695   7.7892   7.8374   7.9711   8.8026   8.8194
     8.9123   8.9520   8.9641   9.1893   9.2409   9.3818   9.4629   9.6067
     9.6306   9.6546   9.9600  10.0502  10.0540  10.4103  10.4320  10.5006
    10.5064  10.5224  10.5671  10.9510  11.0546  11.0640  11.0835  11.1147

     occupation numbers 
     1.0000   1.0000   1.0000   1.0000   1.0000   1.0000   1.0000   1.0000
     1.0000   1.0000   1.0000   1.0000   1.0000   1.0000   1.0000   1.0000
     1.0000   1.0000   1.0000   1.0000   1.0000   1.0000   1.0000   1.0000
     1.0000   1.0000   1.0000   1.0000   1.0000   1.0000   1.0000   1.0000
     1.0000   1.0000   1.0000   1.0000   1.0000   1.0000   1.0000   1.0000
     1.0000   1.0000   1.0000   1.0000   1.0000   1.0000   1.0000   1.0000
     1.0000   1.0000   1.0000   1.0000   1.0000   1.0000   1.0000   1.0000
     1.0000   1.0000   1.0000   1.0000   1.0000   1.0000   1.0000   1.0000
     1.0000   1.0000   1.0000   1.0000   1.0000   1.0000   1.0000   1.0000
     1.0000   1.0000   1.0000   1.0000   1.0000   1.0000   1.0000   1.0000
     1.0000   1.0000   1.0000   1.0000   1.0000   1.0000   1.0000   1.0000
     1.0000   1.0000   1.0000   1.0000   1.0000   1.0000   1.0000   1.0000
     1.0000   1.0000   1.0000   1.0000   1.0000   1.0000   1.0000   1.0000
     1.0000   1.0000   1.0000   1.0000   1.0000   1.0000   1.0000   1.0000
     1.0000   1.0000   1.0000   1.0000   1.0000   1.0000   1.0000   1.0000
     1.0000   1.0000   1.0000   1.0000   1.0000   1.0000   1.0000   1.0000
     1.0000   1.0000   1.0000   1.0000   1.0000   1.0000   1.0000   1.0000
     1.0000   1.0000   1.0000   1.0000   1.0000   1.0000   1.0000   1.0000
     1.0000   1.0000   1.0000   1.0000   1.0000   1.0000   1.0000   1.0000
     1.0000   1.0000   1.0000   1.0000   1.0000   1.0000   1.0000   1.0000
     1.0000   1.0000   1.0000   1.0000   1.0000   1.0000   1.0000   1.0000
     1.0000   1.0000   1.0000   1.0000   1.0000   1.0000   1.0000   1.0000
     1.0000   1.0000   1.0000   1.0000   1.0000   1.0000   1.0000   1.0000
     1.0000   1.0000   1.0000   1.0000   1.0000   1.0000   1.0000   1.0000
     1.0000   1.0000   1.0000   1.0000   1.0000   1.0000   1.0000   1.0000
     1.0000   1.0000   1.0000   1.0000   1.0000   1.0000   1.0000   1.0000
     1.0000   1.0000   1.0000   1.0000   1.0000   1.0000   1.0000   1.0000
     1.0000   1.0000   1.0000   1.0000   1.0000   1.0000   1.0000   1.0000
     1.0000   1.0000   1.0000   1.0000   1.0000   1.0000   1.0000   1.0000
     1.0000   1.0000   1.0000   1.0000   1.0000   1.0000   1.0000   1.0000
     1.0000   1.0000   1.0000   1.0000   1.0000   1.0000   1.0000   1.0000
     1.0000   1.0000   1.0000   1.0000   1.0000   1.0000   1.0000   1.0000
     1.0000   1.0000   1.0000   1.0000   1.0000   1.0000   1.0000   1.0000
     1.0000   1.0000   1.0000   1.0000   1.0000   1.0000   1.0000   1.0000
     1.0000   1.0000   1.0000   1.0000   1.0000   1.0000   1.0000   1.0000
     1.0000   1.0000   1.0000   1.0000   1.0000   1.0000   1.0000   1.0000
     1.0000   1.0000   1.0000   1.0000   1.0000   1.0000   1.0000   1.0000
     1.0000   1.0000   1.0000   1.0000   1.0000   1.0000   1.0000   1.0000
     1.0000   1.0000   0.9999   0.9998   0.9997   0.9996   0.9986   0.9980
     0.9979   0.9973   0.9961   0.9927   0.9919   0.9841   0.9796   0.9786
     0.8352   0.8037   0.7717   0.7135   0.6024   0.5757   0.5237   0.4628
     0.3620   0.3576   0.3412   0.2473   0.0349   0.0256   0.0228   0.0071
     0.0051   0.0036   0.0019   0.0003   0.0002   0.0000   0.0000   0.0000
     0.0000   0.0000   0.0000   0.0000   0.0000   0.0000   0.0000   0.0000
     0.0000   0.0000   0.0000   0.0000   0.0000   0.0000   0.0000   0.0000
     0.0000   0.0000   0.0000   0.0000   0.0000   0.0000   0.0000   0.0000
     0.0000   0.0000   0.0000   0.0000   0.0000   0.0000   0.0000   0.0000
     0.0000   0.0000   0.0000   0.0000   0.0000   0.0000   0.0000   0.0000
     0.0000   0.0000   0.0000   0.0000   0.0000   0.0000   0.0000   0.0000

          k = 0.3333 0.1925 0.0000 ( 88170 PWs)   bands (ev):

   -95.5400 -95.5345 -95.5291 -95.5287 -95.5283 -95.5237 -95.5220 -95.5208
   -95.5090 -95.5042 -95.5040 -95.5018 -95.4996 -95.4993 -95.4960 -95.4953
   -95.4932 -95.3952 -95.1406 -95.1344 -95.1336 -95.1007 -95.0937 -95.0918
   -95.0887 -95.0837 -95.0801 -95.0780 -95.0757 -95.0751 -95.0714 -95.0675
   -95.0672 -94.8939 -94.8914 -94.8895 -49.8426 -49.8232 -49.8181 -49.8131
   -49.7994 -49.7967 -49.7940 -49.7925 -49.7831 -49.7747 -49.7740 -49.7676
   -49.7536 -49.7422 -49.7258 -49.7247 -49.6997 -49.6971 -49.6808 -49.6784
   -49.6728 -49.6700 -49.6697 -49.6677 -49.6553 -49.6549 -49.6360 -49.6312
   -49.6277 -49.6224 -49.6145 -49.6137 -49.6129 -49.6059 -49.5999 -49.5992
   -49.5929 -49.5916 -49.5902 -49.5871 -49.5802 -49.5795 -49.5722 -49.5713
   -49.5678 -49.5611 -49.5568 -49.5494 -49.5472 -49.5375 -49.5236 -49.5000
   -49.4830 -49.4774 -49.4669 -49.4660 -49.4513 -49.4480 -49.4281 -49.4270
   -49.4234 -49.4227 -49.4193 -49.4190 -49.3792 -49.3600 -49.3525 -49.3523
   -49.3187 -49.3183 -49.3034 -49.3017 -49.2975 -49.2808 -49.2614 -49.2611
   -49.2586 -49.2507 -49.2482 -49.2343 -49.2337 -49.2111 -49.2073 -49.1853
   -49.1650 -49.1322 -49.1196 -49.1031 -49.0932 -49.0765 -49.0497 -49.0404
   -49.0384 -49.0211 -49.0192 -49.0114 -49.0101 -49.0082 -49.0056 -49.0031
   -48.9988 -48.9979 -48.9938 -48.9885 -48.9881 -48.8079 -48.8025 -48.8001
   -11.9265  -5.7938  -4.7335  -4.4990  -3.8750  -3.8742  -3.5820  -3.4701
    -3.4053  -3.3354  -3.2703  -3.2331  -3.2311  -3.0072  -2.9752  -2.9231
    -2.9162  -2.8154  -2.6796  -2.6238  -2.5855  -2.5835  -2.5481  -2.5421
    -2.5222  -2.5133  -2.4697  -2.4392  -2.3586  -2.3353  -2.3199  -2.3058
    -2.1036  -2.0996  -2.0587  -2.0446  -2.0182  -2.0149  -1.8207  -1.8148
    -1.7389  -1.7200  -1.6879  -1.6181  -1.5721  -1.5714  -1.5466  -1.5176
    -1.3827  -1.3780  -1.3207  -1.2950  -1.2787  -1.2742  -1.1866  -1.1566
    -1.1291  -1.0206  -0.9375  -0.9341  -0.9138  -0.8011  -0.7676  -0.7392
    -0.7354  -0.7000  -0.6944  -0.6747  -0.6070  -0.4822  -0.4674  -0.4528
    -0.4436  -0.4122  -0.3886  -0.3797  -0.3443  -0.3117  -0.3101  -0.2465
    -0.2449  -0.2269  -0.2136  -0.1936  -0.1856  -0.1796  -0.1743  -0.1310
    -0.1208  -0.0880  -0.0590  -0.0341  -0.0263   0.0036   0.1156   0.1358
     0.1392   0.1607   0.1676   0.2102   0.2738   0.2768   0.2938   0.2987
     0.3307   0.3970   0.4768   0.4832   0.5390   0.5473   0.5914   0.6052
     0.6864   0.7173   0.8628   0.8855   0.8876   0.9107   0.9124   0.9305
     0.9395   0.9605   0.9621   1.0431   1.0541   1.0836   1.0866   1.1187
     1.1683   1.2361   1.2698   1.2903   1.3236   1.4579   1.4704   1.4921
     1.5011   1.5126   1.5242   1.6791   1.7465   1.7549   1.7726   1.7736
     1.8069   1.8180   1.8512   1.8899   1.9064   1.9655   1.9831   2.0272
     2.0918   2.1047   2.1078   2.1196   2.1276   2.1501   2.1720   2.3243
     2.3631   2.3831   2.4093   2.4259   2.4267   2.4541   2.5254   2.5432
     2.5901   2.6318   2.6349   2.6453   2.6516   2.7539   2.7742   2.7807
     2.8318   2.8398   2.8681   2.8779   2.8966   2.9227   2.9483   2.9523
     2.9528   2.9610   3.0529   3.0903   3.1098   3.1164   3.1313   3.1331
     3.3024   3.3123   3.3507   3.7163   3.7298   3.7989   3.8009   3.8161
     4.0909   4.1205   4.2731   4.9969   5.0466   5.1266   5.1492   5.2176
     5.7901   5.7930   5.8212   5.8243   6.5380   6.5615   7.0149   7.1884
     7.2769   7.2833   7.7309   7.7554   8.2115   8.2268   8.5451   8.5512
     8.5864   9.0178   9.0869   9.1540   9.1729   9.4482   9.4538   9.5499
     9.5562   9.7596   9.9153  10.0151  10.1420  10.1900  10.2602  10.2776
    10.4484  10.4736  10.5906  10.7356  11.0395  11.1312  11.1819  11.2045

     occupation numbers 
     1.0000   1.0000   1.0000   1.0000   1.0000   1.0000   1.0000   1.0000
     1.0000   1.0000   1.0000   1.0000   1.0000   1.0000   1.0000   1.0000
     1.0000   1.0000   1.0000   1.0000   1.0000   1.0000   1.0000   1.0000
     1.0000   1.0000   1.0000   1.0000   1.0000   1.0000   1.0000   1.0000
     1.0000   1.0000   1.0000   1.0000   1.0000   1.0000   1.0000   1.0000
     1.0000   1.0000   1.0000   1.0000   1.0000   1.0000   1.0000   1.0000
     1.0000   1.0000   1.0000   1.0000   1.0000   1.0000   1.0000   1.0000
     1.0000   1.0000   1.0000   1.0000   1.0000   1.0000   1.0000   1.0000
     1.0000   1.0000   1.0000   1.0000   1.0000   1.0000   1.0000   1.0000
     1.0000   1.0000   1.0000   1.0000   1.0000   1.0000   1.0000   1.0000
     1.0000   1.0000   1.0000   1.0000   1.0000   1.0000   1.0000   1.0000
     1.0000   1.0000   1.0000   1.0000   1.0000   1.0000   1.0000   1.0000
     1.0000   1.0000   1.0000   1.0000   1.0000   1.0000   1.0000   1.0000
     1.0000   1.0000   1.0000   1.0000   1.0000   1.0000   1.0000   1.0000
     1.0000   1.0000   1.0000   1.0000   1.0000   1.0000   1.0000   1.0000
     1.0000   1.0000   1.0000   1.0000   1.0000   1.0000   1.0000   1.0000
     1.0000   1.0000   1.0000   1.0000   1.0000   1.0000   1.0000   1.0000
     1.0000   1.0000   1.0000   1.0000   1.0000   1.0000   1.0000   1.0000
     1.0000   1.0000   1.0000   1.0000   1.0000   1.0000   1.0000   1.0000
     1.0000   1.0000   1.0000   1.0000   1.0000   1.0000   1.0000   1.0000
     1.0000   1.0000   1.0000   1.0000   1.0000   1.0000   1.0000   1.0000
     1.0000   1.0000   1.0000   1.0000   1.0000   1.0000   1.0000   1.0000
     1.0000   1.0000   1.0000   1.0000   1.0000   1.0000   1.0000   1.0000
     1.0000   1.0000   1.0000   1.0000   1.0000   1.0000   1.0000   1.0000
     1.0000   1.0000   1.0000   1.0000   1.0000   1.0000   1.0000   1.0000
     1.0000   1.0000   1.0000   1.0000   1.0000   1.0000   1.0000   1.0000
     1.0000   1.0000   1.0000   1.0000   1.0000   1.0000   1.0000   1.0000
     1.0000   1.0000   1.0000   1.0000   1.0000   1.0000   1.0000   1.0000
     1.0000   1.0000   1.0000   1.0000   1.0000   1.0000   1.0000   1.0000
     1.0000   1.0000   1.0000   1.0000   1.0000   1.0000   1.0000   1.0000
     1.0000   1.0000   1.0000   1.0000   1.0000   1.0000   1.0000   1.0000
     1.0000   1.0000   1.0000   1.0000   1.0000   1.0000   1.0000   1.0000
     1.0000   1.0000   1.0000   1.0000   1.0000   1.0000   1.0000   1.0000
     1.0000   1.0000   1.0000   1.0000   1.0000   1.0000   1.0000   1.0000
     1.0000   1.0000   1.0000   1.0000   1.0000   1.0000   1.0000   1.0000
     1.0000   1.0000   1.0000   1.0000   1.0000   1.0000   1.0000   1.0000
     1.0000   1.0000   1.0000   1.0000   1.0000   1.0000   1.0000   1.0000
     1.0000   1.0000   1.0000   1.0000   1.0000   1.0000   1.0000   1.0000
     1.0000   1.0000   1.0000   1.0000   1.0000   0.9999   0.9997   0.9995
     0.9987   0.9971   0.9969   0.9962   0.9957   0.9674   0.9518   0.9455
     0.8619   0.8419   0.7514   0.7128   0.6306   0.5035   0.3778   0.3593
     0.3569   0.3203   0.0698   0.0343   0.0234   0.0206   0.0154   0.0149
     0.0005   0.0004   0.0002   0.0000   0.0000   0.0000   0.0000   0.0000
     0.0000   0.0000   0.0000   0.0000   0.0000   0.0000   0.0000   0.0000
     0.0000   0.0000   0.0000   0.0000   0.0000   0.0000   0.0000   0.0000
     0.0000   0.0000   0.0000   0.0000   0.0000   0.0000   0.0000   0.0000
     0.0000   0.0000   0.0000   0.0000   0.0000   0.0000   0.0000   0.0000
     0.0000   0.0000   0.0000   0.0000   0.0000   0.0000   0.0000   0.0000
     0.0000   0.0000   0.0000   0.0000   0.0000   0.0000   0.0000   0.0000

          k = 0.3333-0.7698 0.0000 ( 88140 PWs)   bands (ev):

   -95.5394 -95.5352 -95.5297 -95.5284 -95.5281 -95.5238 -95.5218 -95.5207
   -95.5090 -95.5042 -95.5040 -95.5017 -95.5000 -95.4993 -95.4955 -95.4949
   -95.4938 -95.3952 -95.1405 -95.1345 -95.1337 -95.1007 -95.0937 -95.0918
   -95.0876 -95.0848 -95.0813 -95.0770 -95.0756 -95.0750 -95.0712 -95.0677
   -95.0671 -94.8939 -94.8914 -94.8895 -49.8467 -49.8350 -49.8278 -49.8179
   -49.8080 -49.8016 -49.7946 -49.7863 -49.7799 -49.7742 -49.7721 -49.7682
   -49.7583 -49.7457 -49.7423 -49.6936 -49.6871 -49.6840 -49.6805 -49.6739
   -49.6711 -49.6650 -49.6594 -49.6521 -49.6463 -49.6431 -49.6372 -49.6322
   -49.6270 -49.6226 -49.6187 -49.6138 -49.6098 -49.6080 -49.6056 -49.6025
   -49.5987 -49.5925 -49.5888 -49.5872 -49.5826 -49.5783 -49.5735 -49.5710
   -49.5685 -49.5676 -49.5647 -49.5593 -49.5471 -49.5406 -49.5274 -49.5029
   -49.4873 -49.4806 -49.4723 -49.4649 -49.4584 -49.4542 -49.4428 -49.4364
   -49.4290 -49.4151 -49.4120 -49.4055 -49.3825 -49.3775 -49.3381 -49.3105
   -49.3100 -49.3025 -49.2972 -49.2950 -49.2821 -49.2769 -49.2742 -49.2689
   -49.2632 -49.2562 -49.2552 -49.2487 -49.2345 -49.2181 -49.2041 -49.1920
   -49.1568 -49.1331 -49.1179 -49.1077 -49.0973 -49.0806 -49.0492 -49.0407
   -49.0386 -49.0207 -49.0174 -49.0131 -49.0102 -49.0083 -49.0080 -49.0012
   -48.9985 -48.9977 -48.9934 -48.9890 -48.9881 -48.8079 -48.8025 -48.8001
   -11.9265  -5.5025  -4.9635  -4.4662  -4.2224  -3.7470  -3.3957  -3.3444
    -3.3334  -3.2279  -3.1888  -3.1300  -3.0771  -3.0152  -3.0025  -2.8861
    -2.8120  -2.8053  -2.7386  -2.7000  -2.6659  -2.6539  -2.6321  -2.5975
    -2.5422  -2.5059  -2.4448  -2.4298  -2.3696  -2.3277  -2.2763  -2.2126
    -2.1928  -2.1718  -2.1222  -2.1050  -2.0047  -1.9634  -1.8845  -1.8382
    -1.7025  -1.6457  -1.6272  -1.5605  -1.5422  -1.5325  -1.5169  -1.4377
    -1.4220  -1.3806  -1.3426  -1.2867  -1.2255  -1.1937  -1.1733  -1.1407
    -1.1214  -1.0937  -1.0450  -1.0185  -0.9773  -0.9320  -0.8735  -0.8498
    -0.8447  -0.7944  -0.7663  -0.6641  -0.6280  -0.6067  -0.5532  -0.5377
    -0.5307  -0.5030  -0.4704  -0.4547  -0.4191  -0.3921  -0.3589  -0.3434
    -0.2727  -0.2510  -0.2336  -0.2099  -0.2045  -0.1681  -0.0902  -0.0663
    -0.0456  -0.0345  -0.0159   0.0411   0.0499   0.0738   0.0956   0.1048
     0.1199   0.1346   0.1563   0.1923   0.2022   0.2192   0.2384   0.2677
     0.3060   0.3339   0.3574   0.3948   0.4500   0.4814   0.5050   0.5936
     0.6112   0.6460   0.7454   0.8163   0.8452   0.8765   0.9011   0.9228
     0.9590   0.9820   0.9883   1.0492   1.0763   1.0898   1.1102   1.1357
     1.1739   1.2112   1.2201   1.2792   1.3227   1.3599   1.4790   1.5029
     1.5175   1.5468   1.5972   1.6337   1.6433   1.6584   1.6840   1.7110
     1.7239   1.7606   1.8291   1.8594   1.8888   1.9017   1.9123   1.9328
     1.9562   1.9703   2.0870   2.1178   2.1782   2.2436   2.2628   2.3456
     2.3765   2.3940   2.4531   2.4613   2.4882   2.5773   2.6191   2.6504
     2.6893   2.7039   2.7142   2.7179   2.7292   2.8037   2.8302   2.8327
     2.8710   2.8791   2.9042   2.9491   2.9516   2.9530   2.9575   2.9664
     3.0317   3.0436   3.1202   3.1308   3.1651   3.1885   3.2089   3.2185
     3.2695   3.2941   3.3455   3.9422   4.2053   4.2257   4.2795   4.3482
     4.6345   4.7884   4.8556   5.1542   5.2047   5.2364   5.2792   5.3734
     5.6329   5.7611   5.8427   6.0779   6.3714   6.4464   6.4991   6.6379
     6.8121   7.1128   7.2913   7.5388   7.5949   7.6220   8.3544   8.6070
     8.6267   8.6886   8.8707   9.1142   9.2034   9.2154   9.4465   9.4842
     9.5864   9.7296   9.8426   9.9381  10.0797  10.0947  10.1758  10.4410
    10.5383  10.8074  10.8350  10.9348  10.9478  10.9869  11.1185  11.1416

     occupation numbers 
     1.0000   1.0000   1.0000   1.0000   1.0000   1.0000   1.0000   1.0000
     1.0000   1.0000   1.0000   1.0000   1.0000   1.0000   1.0000   1.0000
     1.0000   1.0000   1.0000   1.0000   1.0000   1.0000   1.0000   1.0000
     1.0000   1.0000   1.0000   1.0000   1.0000   1.0000   1.0000   1.0000
     1.0000   1.0000   1.0000   1.0000   1.0000   1.0000   1.0000   1.0000
     1.0000   1.0000   1.0000   1.0000   1.0000   1.0000   1.0000   1.0000
     1.0000   1.0000   1.0000   1.0000   1.0000   1.0000   1.0000   1.0000
     1.0000   1.0000   1.0000   1.0000   1.0000   1.0000   1.0000   1.0000
     1.0000   1.0000   1.0000   1.0000   1.0000   1.0000   1.0000   1.0000
     1.0000   1.0000   1.0000   1.0000   1.0000   1.0000   1.0000   1.0000
     1.0000   1.0000   1.0000   1.0000   1.0000   1.0000   1.0000   1.0000
     1.0000   1.0000   1.0000   1.0000   1.0000   1.0000   1.0000   1.0000
     1.0000   1.0000   1.0000   1.0000   1.0000   1.0000   1.0000   1.0000
     1.0000   1.0000   1.0000   1.0000   1.0000   1.0000   1.0000   1.0000
     1.0000   1.0000   1.0000   1.0000   1.0000   1.0000   1.0000   1.0000
     1.0000   1.0000   1.0000   1.0000   1.0000   1.0000   1.0000   1.0000
     1.0000   1.0000   1.0000   1.0000   1.0000   1.0000   1.0000   1.0000
     1.0000   1.0000   1.0000   1.0000   1.0000   1.0000   1.0000   1.0000
     1.0000   1.0000   1.0000   1.0000   1.0000   1.0000   1.0000   1.0000
     1.0000   1.0000   1.0000   1.0000   1.0000   1.0000   1.0000   1.0000
     1.0000   1.0000   1.0000   1.0000   1.0000   1.0000   1.0000   1.0000
     1.0000   1.0000   1.0000   1.0000   1.0000   1.0000   1.0000   1.0000
     1.0000   1.0000   1.0000   1.0000   1.0000   1.0000   1.0000   1.0000
     1.0000   1.0000   1.0000   1.0000   1.0000   1.0000   1.0000   1.0000
     1.0000   1.0000   1.0000   1.0000   1.0000   1.0000   1.0000   1.0000
     1.0000   1.0000   1.0000   1.0000   1.0000   1.0000   1.0000   1.0000
     1.0000   1.0000   1.0000   1.0000   1.0000   1.0000   1.0000   1.0000
     1.0000   1.0000   1.0000   1.0000   1.0000   1.0000   1.0000   1.0000
     1.0000   1.0000   1.0000   1.0000   1.0000   1.0000   1.0000   1.0000
     1.0000   1.0000   1.0000   1.0000   1.0000   1.0000   1.0000   1.0000
     1.0000   1.0000   1.0000   1.0000   1.0000   1.0000   1.0000   1.0000
     1.0000   1.0000   1.0000   1.0000   1.0000   1.0000   1.0000   1.0000
     1.0000   1.0000   1.0000   1.0000   1.0000   1.0000   1.0000   1.0000
     1.0000   1.0000   1.0000   1.0000   1.0000   1.0000   1.0000   1.0000
     1.0000   1.0000   1.0000   1.0000   1.0000   1.0000   1.0000   1.0000
     1.0000   1.0000   1.0000   1.0000   1.0000   1.0000   1.0000   1.0000
     1.0000   1.0000   1.0000   1.0000   1.0000   1.0000   1.0000   1.0000
     1.0000   1.0000   1.0000   1.0000   1.0000   1.0000   1.0000   1.0000
     1.0000   1.0000   0.9999   0.9999   0.9998   0.9990   0.9977   0.9958
     0.9908   0.9877   0.9850   0.9838   0.9798   0.9163   0.8657   0.8599
     0.7404   0.7081   0.5948   0.3741   0.3624   0.3561   0.3356   0.2973
     0.1029   0.0828   0.0191   0.0155   0.0079   0.0050   0.0033   0.0027
     0.0010   0.0006   0.0002   0.0000   0.0000   0.0000   0.0000   0.0000
     0.0000   0.0000   0.0000   0.0000   0.0000   0.0000   0.0000   0.0000
     0.0000   0.0000   0.0000   0.0000   0.0000   0.0000   0.0000   0.0000
     0.0000   0.0000   0.0000   0.0000   0.0000   0.0000   0.0000   0.0000
     0.0000   0.0000   0.0000   0.0000   0.0000   0.0000   0.0000   0.0000
     0.0000   0.0000   0.0000   0.0000   0.0000   0.0000   0.0000   0.0000
     0.0000   0.0000   0.0000   0.0000   0.0000   0.0000   0.0000   0.0000

          k = 0.3333-0.5774 0.0000 ( 88062 PWs)   bands (ev):

   -95.5390 -95.5356 -95.5300 -95.5284 -95.5280 -95.5239 -95.5217 -95.5207
   -95.5090 -95.5042 -95.5040 -95.5017 -95.5002 -95.4992 -95.4950 -95.4948
   -95.4942 -95.3952 -95.1404 -95.1345 -95.1337 -95.1007 -95.0937 -95.0918
   -95.0864 -95.0857 -95.0822 -95.0758 -95.0756 -95.0755 -95.0711 -95.0678
   -95.0670 -94.8939 -94.8914 -94.8894 -49.8456 -49.8392 -49.8374 -49.8158
   -49.8150 -49.8090 -49.7900 -49.7821 -49.7741 -49.7730 -49.7709 -49.7692
   -49.7588 -49.7534 -49.7473 -49.6892 -49.6876 -49.6866 -49.6705 -49.6653
   -49.6615 -49.6535 -49.6508 -49.6490 -49.6453 -49.6418 -49.6349 -49.6295
   -49.6289 -49.6232 -49.6181 -49.6173 -49.6150 -49.6086 -49.6025 -49.6022
   -49.6003 -49.5943 -49.5930 -49.5861 -49.5855 -49.5836 -49.5756 -49.5749
   -49.5730 -49.5667 -49.5618 -49.5597 -49.5465 -49.5445 -49.5324 -49.4973
   -49.4944 -49.4786 -49.4778 -49.4641 -49.4636 -49.4509 -49.4493 -49.4481
   -49.4300 -49.3997 -49.3976 -49.3971 -49.3966 -49.3951 -49.3246 -49.3173
   -49.2923 -49.2823 -49.2813 -49.2806 -49.2804 -49.2731 -49.2714 -49.2710
   -49.2697 -49.2695 -49.2675 -49.2672 -49.2476 -49.2050 -49.2031 -49.2028
   -49.1497 -49.1305 -49.1288 -49.1058 -49.0943 -49.0862 -49.0490 -49.0408
   -49.0387 -49.0205 -49.0152 -49.0147 -49.0101 -49.0098 -49.0083 -48.9991
   -48.9988 -48.9983 -48.9933 -48.9893 -48.9880 -48.8080 -48.8025 -48.8001
   -11.9265  -5.0715  -5.0581  -4.9950  -3.8454  -3.8308  -3.7312  -3.2041
    -3.1847  -3.1810  -3.0609  -3.0588  -3.0323  -2.9099  -2.8792  -2.8374
    -2.7601  -2.7386  -2.7301  -2.7206  -2.7196  -2.7010  -2.6902  -2.6724
    -2.5903  -2.5621  -2.5414  -2.4997  -2.3325  -2.3253  -2.3067  -2.2493
    -2.2423  -2.2203  -2.1909  -2.1506  -2.1452  -1.7769  -1.7712  -1.7364
    -1.7216  -1.6685  -1.6588  -1.6559  -1.6299  -1.6243  -1.2995  -1.2961
    -1.2847  -1.2823  -1.2679  -1.2522  -1.2043  -1.1957  -1.1869  -1.1581
    -1.1185  -1.0920  -1.0630  -1.0612  -1.0267  -1.0060  -0.9853  -0.9836
    -0.8111  -0.7725  -0.7484  -0.7245  -0.7078  -0.6758  -0.5794  -0.5710
    -0.5685  -0.5594  -0.5466  -0.4568  -0.3647  -0.3547  -0.3319  -0.3097
    -0.2969  -0.2415  -0.2390  -0.2319  -0.2099  -0.2068  -0.1965  -0.1868
    -0.1655  -0.0819  -0.0684  -0.0207  -0.0079  -0.0042   0.1349   0.1609
     0.1771   0.1808   0.1847   0.2003   0.2125   0.2163   0.2180   0.2517
     0.2616   0.2865   0.3584   0.3714   0.4019   0.4022   0.4166   0.4283
     0.7712   0.7963   0.8135   0.8266   0.8445   0.8461   0.8558   0.8696
     0.9069   0.9233   0.9270   0.9334   1.0774   1.0917   1.1041   1.1334
     1.1615   1.1630   1.1957   1.2896   1.2938   1.4049   1.4147   1.4229
     1.5945   1.6041   1.6087   1.6574   1.6738   1.6954   1.7040   1.7271
     1.7313   1.7550   1.7622   1.7634   1.8453   1.8751   1.9014   2.0089
     2.0299   2.0707   2.0984   2.1014   2.1109   2.1186   2.1368   2.1466
     2.5190   2.5319   2.5371   2.5474   2.5607   2.5743   2.6577   2.6674
     2.6698   2.7329   2.7611   2.7637   2.8357   2.8392   2.8396   2.9155
     2.9188   2.9314   2.9341   2.9451   2.9474   2.9507   2.9540   2.9544
     3.0410   3.0552   3.0575   3.1153   3.1177   3.1301   3.1576   3.1686
     3.1896   3.9812   3.9827   3.9947   4.2488   4.2611   4.2732   4.6998
     4.7062   4.7466   5.2595   5.2676   5.2773   5.2931   5.3098   5.3293
     6.0625   6.0691   6.0736   6.4583   6.4758   6.4847   6.5595   6.5795
     6.6110   6.6722   6.6900   6.7038   7.2779   7.3073   7.3100   8.6321
     8.6352   8.6625   8.8097   8.8628   8.8865   9.5094   9.5224   9.5336
     9.5730   9.5963   9.6247  10.2792  10.3837  10.3924  10.3999  10.5096
    10.5216  10.8086  10.8393  10.8626  11.1106  11.1363  11.1569  11.1937

     occupation numbers 
     1.0000   1.0000   1.0000   1.0000   1.0000   1.0000   1.0000   1.0000
     1.0000   1.0000   1.0000   1.0000   1.0000   1.0000   1.0000   1.0000
     1.0000   1.0000   1.0000   1.0000   1.0000   1.0000   1.0000   1.0000
     1.0000   1.0000   1.0000   1.0000   1.0000   1.0000   1.0000   1.0000
     1.0000   1.0000   1.0000   1.0000   1.0000   1.0000   1.0000   1.0000
     1.0000   1.0000   1.0000   1.0000   1.0000   1.0000   1.0000   1.0000
     1.0000   1.0000   1.0000   1.0000   1.0000   1.0000   1.0000   1.0000
     1.0000   1.0000   1.0000   1.0000   1.0000   1.0000   1.0000   1.0000
     1.0000   1.0000   1.0000   1.0000   1.0000   1.0000   1.0000   1.0000
     1.0000   1.0000   1.0000   1.0000   1.0000   1.0000   1.0000   1.0000
     1.0000   1.0000   1.0000   1.0000   1.0000   1.0000   1.0000   1.0000
     1.0000   1.0000   1.0000   1.0000   1.0000   1.0000   1.0000   1.0000
     1.0000   1.0000   1.0000   1.0000   1.0000   1.0000   1.0000   1.0000
     1.0000   1.0000   1.0000   1.0000   1.0000   1.0000   1.0000   1.0000
     1.0000   1.0000   1.0000   1.0000   1.0000   1.0000   1.0000   1.0000
     1.0000   1.0000   1.0000   1.0000   1.0000   1.0000   1.0000   1.0000
     1.0000   1.0000   1.0000   1.0000   1.0000   1.0000   1.0000   1.0000
     1.0000   1.0000   1.0000   1.0000   1.0000   1.0000   1.0000   1.0000
     1.0000   1.0000   1.0000   1.0000   1.0000   1.0000   1.0000   1.0000
     1.0000   1.0000   1.0000   1.0000   1.0000   1.0000   1.0000   1.0000
     1.0000   1.0000   1.0000   1.0000   1.0000   1.0000   1.0000   1.0000
     1.0000   1.0000   1.0000   1.0000   1.0000   1.0000   1.0000   1.0000
     1.0000   1.0000   1.0000   1.0000   1.0000   1.0000   1.0000   1.0000
     1.0000   1.0000   1.0000   1.0000   1.0000   1.0000   1.0000   1.0000
     1.0000   1.0000   1.0000   1.0000   1.0000   1.0000   1.0000   1.0000
     1.0000   1.0000   1.0000   1.0000   1.0000   1.0000   1.0000   1.0000
     1.0000   1.0000   1.0000   1.0000   1.0000   1.0000   1.0000   1.0000
     1.0000   1.0000   1.0000   1.0000   1.0000   1.0000   1.0000   1.0000
     1.0000   1.0000   1.0000   1.0000   1.0000   1.0000   1.0000   1.0000
     1.0000   1.0000   1.0000   1.0000   1.0000   1.0000   1.0000   1.0000
     1.0000   1.0000   1.0000   1.0000   1.0000   1.0000   1.0000   1.0000
     1.0000   1.0000   1.0000   1.0000   1.0000   1.0000   1.0000   1.0000
     1.0000   1.0000   1.0000   1.0000   1.0000   1.0000   1.0000   1.0000
     1.0000   1.0000   1.0000   1.0000   1.0000   1.0000   1.0000   1.0000
     1.0000   1.0000   1.0000   1.0000   1.0000   1.0000   1.0000   1.0000
     1.0000   1.0000   1.0000   1.0000   1.0000   1.0000   1.0000   1.0000
     1.0000   1.0000   1.0000   1.0000   1.0000   1.0000   1.0000   1.0000
     1.0000   1.0000   1.0000   1.0000   1.0000   1.0000   1.0000   1.0000
     0.9997   0.9996   0.9996   0.9995   0.9993   0.9991   0.9951   0.9941
     0.9938   0.9783   0.9625   0.9606   0.8523   0.8435   0.8424   0.5393
     0.5231   0.4600   0.4464   0.3929   0.3822   0.3666   0.3516   0.3495
     0.0869   0.0668   0.0641   0.0211   0.0201   0.0158   0.0091   0.0074
     0.0048   0.0000   0.0000   0.0000   0.0000   0.0000   0.0000   0.0000
     0.0000   0.0000   0.0000   0.0000   0.0000   0.0000   0.0000   0.0000
     0.0000   0.0000   0.0000   0.0000   0.0000   0.0000   0.0000   0.0000
     0.0000   0.0000   0.0000   0.0000   0.0000   0.0000   0.0000   0.0000
     0.0000   0.0000   0.0000   0.0000   0.0000   0.0000   0.0000   0.0000
     0.0000   0.0000   0.0000   0.0000   0.0000   0.0000   0.0000   0.0000
     0.0000   0.0000   0.0000   0.0000   0.0000   0.0000   0.0000   0.0000

          k = 0.3333-0.3849 0.0000 ( 88140 PWs)   bands (ev):

   -95.5394 -95.5352 -95.5297 -95.5284 -95.5281 -95.5238 -95.5218 -95.5207
   -95.5090 -95.5042 -95.5040 -95.5017 -95.4999 -95.4993 -95.4955 -95.4949
   -95.4938 -95.3952 -95.1405 -95.1345 -95.1337 -95.1007 -95.0937 -95.0918
   -95.0876 -95.0848 -95.0813 -95.0770 -95.0756 -95.0750 -95.0712 -95.0677
   -95.0671 -94.8939 -94.8914 -94.8895 -49.8467 -49.8350 -49.8278 -49.8179
   -49.8080 -49.8016 -49.7946 -49.7863 -49.7799 -49.7742 -49.7721 -49.7682
   -49.7583 -49.7457 -49.7422 -49.6935 -49.6871 -49.6840 -49.6805 -49.6739
   -49.6711 -49.6650 -49.6594 -49.6521 -49.6464 -49.6431 -49.6372 -49.6322
   -49.6270 -49.6226 -49.6187 -49.6138 -49.6098 -49.6080 -49.6056 -49.6025
   -49.5987 -49.5925 -49.5888 -49.5872 -49.5826 -49.5783 -49.5735 -49.5710
   -49.5685 -49.5676 -49.5647 -49.5593 -49.5471 -49.5406 -49.5273 -49.5029
   -49.4873 -49.4806 -49.4723 -49.4649 -49.4584 -49.4542 -49.4428 -49.4364
   -49.4290 -49.4151 -49.4120 -49.4055 -49.3825 -49.3775 -49.3381 -49.3104
   -49.3100 -49.3025 -49.2972 -49.2950 -49.2821 -49.2769 -49.2742 -49.2689
   -49.2632 -49.2562 -49.2552 -49.2487 -49.2345 -49.2181 -49.2041 -49.1920
   -49.1568 -49.1331 -49.1179 -49.1077 -49.0973 -49.0806 -49.0492 -49.0407
   -49.0386 -49.0207 -49.0174 -49.0131 -49.0101 -49.0083 -49.0080 -49.0012
   -48.9985 -48.9977 -48.9934 -48.9890 -48.9881 -48.8079 -48.8025 -48.8001
   -11.9265  -5.5025  -4.9635  -4.4662  -4.2224  -3.7470  -3.3957  -3.3444
    -3.3334  -3.2279  -3.1888  -3.1300  -3.0771  -3.0152  -3.0026  -2.8861
    -2.8120  -2.8053  -2.7386  -2.7000  -2.6659  -2.6539  -2.6321  -2.5975
    -2.5422  -2.5059  -2.4448  -2.4298  -2.3696  -2.3277  -2.2763  -2.2126
    -2.1928  -2.1718  -2.1222  -2.1050  -2.0047  -1.9634  -1.8845  -1.8382
    -1.7025  -1.6457  -1.6272  -1.5605  -1.5423  -1.5325  -1.5169  -1.4377
    -1.4221  -1.3806  -1.3426  -1.2867  -1.2255  -1.1937  -1.1734  -1.1407
    -1.1214  -1.0937  -1.0450  -1.0185  -0.9773  -0.9320  -0.8735  -0.8498
    -0.8447  -0.7944  -0.7664  -0.6641  -0.6280  -0.6067  -0.5532  -0.5377
    -0.5307  -0.5029  -0.4704  -0.4547  -0.4192  -0.3921  -0.3589  -0.3434
    -0.2727  -0.2510  -0.2336  -0.2098  -0.2045  -0.1681  -0.0901  -0.0663
    -0.0455  -0.0345  -0.0158   0.0411   0.0499   0.0738   0.0956   0.1049
     0.1200   0.1346   0.1563   0.1924   0.2022   0.2192   0.2384   0.2677
     0.3060   0.3338   0.3574   0.3948   0.4500   0.4814   0.5050   0.5937
     0.6112   0.6460   0.7454   0.8163   0.8452   0.8765   0.9011   0.9228
     0.9590   0.9820   0.9883   1.0492   1.0762   1.0898   1.1102   1.1357
     1.1739   1.2112   1.2201   1.2792   1.3227   1.3599   1.4790   1.5029
     1.5175   1.5468   1.5972   1.6337   1.6433   1.6584   1.6840   1.7110
     1.7239   1.7606   1.8291   1.8594   1.8888   1.9017   1.9123   1.9328
     1.9562   1.9704   2.0870   2.1178   2.1781   2.2436   2.2628   2.3457
     2.3765   2.3940   2.4531   2.4613   2.4882   2.5773   2.6191   2.6504
     2.6893   2.7040   2.7142   2.7179   2.7292   2.8037   2.8302   2.8327
     2.8710   2.8791   2.9042   2.9491   2.9516   2.9530   2.9575   2.9664
     3.0317   3.0436   3.1202   3.1308   3.1651   3.1885   3.2088   3.2185
     3.2695   3.2940   3.3455   3.9422   4.2053   4.2257   4.2796   4.3482
     4.6345   4.7884   4.8556   5.1542   5.2047   5.2363   5.2792   5.3734
     5.6329   5.7611   5.8427   6.0779   6.3714   6.4464   6.4991   6.6378
     6.8121   7.1129   7.2913   7.5389   7.5949   7.6219   8.3544   8.6070
     8.6268   8.6886   8.8707   9.1141   9.2034   9.2154   9.4465   9.4844
     9.5864   9.7295   9.8425   9.9381  10.0796  10.0947  10.1758  10.4410
    10.5383  10.8074  10.8351  10.9348  10.9478  10.9870  11.1186  11.1416

     occupation numbers 
     1.0000   1.0000   1.0000   1.0000   1.0000   1.0000   1.0000   1.0000
     1.0000   1.0000   1.0000   1.0000   1.0000   1.0000   1.0000   1.0000
     1.0000   1.0000   1.0000   1.0000   1.0000   1.0000   1.0000   1.0000
     1.0000   1.0000   1.0000   1.0000   1.0000   1.0000   1.0000   1.0000
     1.0000   1.0000   1.0000   1.0000   1.0000   1.0000   1.0000   1.0000
     1.0000   1.0000   1.0000   1.0000   1.0000   1.0000   1.0000   1.0000
     1.0000   1.0000   1.0000   1.0000   1.0000   1.0000   1.0000   1.0000
     1.0000   1.0000   1.0000   1.0000   1.0000   1.0000   1.0000   1.0000
     1.0000   1.0000   1.0000   1.0000   1.0000   1.0000   1.0000   1.0000
     1.0000   1.0000   1.0000   1.0000   1.0000   1.0000   1.0000   1.0000
     1.0000   1.0000   1.0000   1.0000   1.0000   1.0000   1.0000   1.0000
     1.0000   1.0000   1.0000   1.0000   1.0000   1.0000   1.0000   1.0000
     1.0000   1.0000   1.0000   1.0000   1.0000   1.0000   1.0000   1.0000
     1.0000   1.0000   1.0000   1.0000   1.0000   1.0000   1.0000   1.0000
     1.0000   1.0000   1.0000   1.0000   1.0000   1.0000   1.0000   1.0000
     1.0000   1.0000   1.0000   1.0000   1.0000   1.0000   1.0000   1.0000
     1.0000   1.0000   1.0000   1.0000   1.0000   1.0000   1.0000   1.0000
     1.0000   1.0000   1.0000   1.0000   1.0000   1.0000   1.0000   1.0000
     1.0000   1.0000   1.0000   1.0000   1.0000   1.0000   1.0000   1.0000
     1.0000   1.0000   1.0000   1.0000   1.0000   1.0000   1.0000   1.0000
     1.0000   1.0000   1.0000   1.0000   1.0000   1.0000   1.0000   1.0000
     1.0000   1.0000   1.0000   1.0000   1.0000   1.0000   1.0000   1.0000
     1.0000   1.0000   1.0000   1.0000   1.0000   1.0000   1.0000   1.0000
     1.0000   1.0000   1.0000   1.0000   1.0000   1.0000   1.0000   1.0000
     1.0000   1.0000   1.0000   1.0000   1.0000   1.0000   1.0000   1.0000
     1.0000   1.0000   1.0000   1.0000   1.0000   1.0000   1.0000   1.0000
     1.0000   1.0000   1.0000   1.0000   1.0000   1.0000   1.0000   1.0000
     1.0000   1.0000   1.0000   1.0000   1.0000   1.0000   1.0000   1.0000
     1.0000   1.0000   1.0000   1.0000   1.0000   1.0000   1.0000   1.0000
     1.0000   1.0000   1.0000   1.0000   1.0000   1.0000   1.0000   1.0000
     1.0000   1.0000   1.0000   1.0000   1.0000   1.0000   1.0000   1.0000
     1.0000   1.0000   1.0000   1.0000   1.0000   1.0000   1.0000   1.0000
     1.0000   1.0000   1.0000   1.0000   1.0000   1.0000   1.0000   1.0000
     1.0000   1.0000   1.0000   1.0000   1.0000   1.0000   1.0000   1.0000
     1.0000   1.0000   1.0000   1.0000   1.0000   1.0000   1.0000   1.0000
     1.0000   1.0000   1.0000   1.0000   1.0000   1.0000   1.0000   1.0000
     1.0000   1.0000   1.0000   1.0000   1.0000   1.0000   1.0000   1.0000
     1.0000   1.0000   1.0000   1.0000   1.0000   1.0000   1.0000   1.0000
     1.0000   1.0000   0.9999   0.9999   0.9998   0.9990   0.9977   0.9958
     0.9908   0.9877   0.9850   0.9838   0.9798   0.9163   0.8657   0.8599
     0.7404   0.7081   0.5948   0.3741   0.3626   0.3559   0.3356   0.2973
     0.1029   0.0828   0.0191   0.0155   0.0079   0.0050   0.0033   0.0027
     0.0010   0.0006   0.0002   0.0000   0.0000   0.0000   0.0000   0.0000
     0.0000   0.0000   0.0000   0.0000   0.0000   0.0000   0.0000   0.0000
     0.0000   0.0000   0.0000   0.0000   0.0000   0.0000   0.0000   0.0000
     0.0000   0.0000   0.0000   0.0000   0.0000   0.0000   0.0000   0.0000
     0.0000   0.0000   0.0000   0.0000   0.0000   0.0000   0.0000   0.0000
     0.0000   0.0000   0.0000   0.0000   0.0000   0.0000   0.0000   0.0000
     0.0000   0.0000   0.0000   0.0000   0.0000   0.0000   0.0000   0.0000

          k =-0.5000 0.2887 0.0000 ( 88178 PWs)   bands (ev):

   -95.5393 -95.5353 -95.5292 -95.5287 -95.5283 -95.5239 -95.5219 -95.5206
   -95.5090 -95.5042 -95.5041 -95.5017 -95.4998 -95.4994 -95.4958 -95.4945
   -95.4939 -95.3952 -95.1405 -95.1345 -95.1337 -95.1007 -95.0937 -95.0918
   -95.0874 -95.0854 -95.0803 -95.0782 -95.0754 -95.0748 -95.0712 -95.0676
   -95.0672 -94.8939 -94.8913 -94.8895 -49.8509 -49.8296 -49.8226 -49.8176
   -49.8042 -49.8000 -49.7981 -49.7966 -49.7805 -49.7782 -49.7769 -49.7739
   -49.7523 -49.7421 -49.7159 -49.7153 -49.6829 -49.6820 -49.6758 -49.6748
   -49.6718 -49.6650 -49.6635 -49.6580 -49.6536 -49.6440 -49.6398 -49.6299
   -49.6246 -49.6195 -49.6191 -49.6135 -49.6120 -49.6032 -49.6025 -49.5991
   -49.5941 -49.5929 -49.5891 -49.5863 -49.5813 -49.5786 -49.5767 -49.5743
   -49.5696 -49.5651 -49.5633 -49.5599 -49.5530 -49.5413 -49.5212 -49.5089
   -49.4849 -49.4830 -49.4694 -49.4675 -49.4587 -49.4489 -49.4298 -49.4295
   -49.4275 -49.4265 -49.4248 -49.4243 -49.3707 -49.3448 -49.3445 -49.3400
   -49.3092 -49.3022 -49.2892 -49.2889 -49.2863 -49.2859 -49.2843 -49.2576
   -49.2517 -49.2504 -49.2503 -49.2495 -49.2364 -49.2362 -49.1966 -49.1938
   -49.1592 -49.1288 -49.1149 -49.1073 -49.1054 -49.0781 -49.0492 -49.0409
   -49.0384 -49.0207 -49.0170 -49.0142 -49.0102 -49.0082 -49.0058 -49.0035
   -48.9981 -48.9973 -48.9934 -48.9888 -48.9883 -48.8079 -48.8024 -48.8001
   -11.9265  -5.3423  -5.2941  -4.0933  -4.0327  -3.8856  -3.8726  -3.4664
    -3.3045  -3.0293  -2.9995  -2.9643  -2.9529  -2.9359  -2.9236  -2.9147
    -2.8934  -2.8760  -2.8561  -2.8066  -2.7660  -2.7484  -2.7173  -2.7117
    -2.6127  -2.5247  -2.3888  -2.3864  -2.3506  -2.3481  -2.1255  -2.1212
    -2.0978  -2.0682  -2.0436  -2.0339  -1.9683  -1.9629  -1.8289  -1.8192
    -1.7468  -1.7349  -1.7303  -1.6533  -1.6472  -1.5194  -1.5183  -1.4836
    -1.4582  -1.3953  -1.3630  -1.2586  -1.2546  -1.2396  -1.1843  -1.1344
    -1.1250  -1.0984  -1.0938  -0.9903  -0.9764  -0.9174  -0.8768  -0.8528
    -0.8079  -0.7901  -0.6759  -0.6403  -0.6359  -0.6288  -0.5936  -0.5840
    -0.5785  -0.5696  -0.5307  -0.3595  -0.3385  -0.3169  -0.3153  -0.3112
    -0.3106  -0.2793  -0.2662  -0.2630  -0.2291  -0.2141  -0.1416  -0.1402
    -0.0958  -0.0907  -0.0773  -0.0465   0.0151   0.0740   0.1281   0.1495
     0.1600   0.1667   0.1770   0.1833   0.1997   0.2302   0.2703   0.2917
     0.4120   0.4284   0.4341   0.5249   0.6085   0.6607   0.7138   0.7330
     0.7537   0.7603   0.8293   0.8453   0.8575   0.8731   0.8780   0.8811
     0.9037   0.9176   0.9470   0.9623   0.9955   1.0450   1.0458   1.0699
     1.0741   1.1278   1.1843   1.2128   1.2287   1.2579   1.2904   1.4315
     1.4514   1.5901   1.6383   1.6544   1.6595   1.6611   1.6903   1.7878
     1.8161   1.8909   1.8995   1.9119   1.9173   1.9285   1.9479   2.0175
     2.0298   2.0514   2.0517   2.0707   2.1539   2.1740   2.2249   2.2630
     2.3061   2.3913   2.4392   2.4399   2.4490   2.5387   2.5554   2.6305
     2.6317   2.6431   2.6491   2.6973   2.7018   2.7236   2.7347   2.7470
     2.7941   2.9168   2.9250   2.9277   2.9435   2.9495   2.9528   2.9529
     2.9576   2.9603   3.0119   3.1792   3.2055   3.2110   3.2202   3.2233
     3.4268   3.4647   3.7286   3.7425   3.9233   4.3963   4.4422   4.7881
     4.7915   4.7942   4.7994   5.2645   5.2747   5.2867   5.3048   5.3257
     5.6132   5.7879   5.7915   5.9095   6.1734   6.1965   6.3414   6.3640
     6.3781   6.4211   8.2530   8.2542   8.2868   8.3105   8.5171   8.5424
     8.6394   8.7948   8.8284   8.8440   8.8724   8.8986   9.3213   9.3315
     9.3612   9.7637   9.7694   9.8340   9.8845  10.2509  10.3379  10.3877
    10.4198  10.6132  10.7960  10.8613  10.8933  10.8983  10.9605  10.9647

     occupation numbers 
     1.0000   1.0000   1.0000   1.0000   1.0000   1.0000   1.0000   1.0000
     1.0000   1.0000   1.0000   1.0000   1.0000   1.0000   1.0000   1.0000
     1.0000   1.0000   1.0000   1.0000   1.0000   1.0000   1.0000   1.0000
     1.0000   1.0000   1.0000   1.0000   1.0000   1.0000   1.0000   1.0000
     1.0000   1.0000   1.0000   1.0000   1.0000   1.0000   1.0000   1.0000
     1.0000   1.0000   1.0000   1.0000   1.0000   1.0000   1.0000   1.0000
     1.0000   1.0000   1.0000   1.0000   1.0000   1.0000   1.0000   1.0000
     1.0000   1.0000   1.0000   1.0000   1.0000   1.0000   1.0000   1.0000
     1.0000   1.0000   1.0000   1.0000   1.0000   1.0000   1.0000   1.0000
     1.0000   1.0000   1.0000   1.0000   1.0000   1.0000   1.0000   1.0000
     1.0000   1.0000   1.0000   1.0000   1.0000   1.0000   1.0000   1.0000
     1.0000   1.0000   1.0000   1.0000   1.0000   1.0000   1.0000   1.0000
     1.0000   1.0000   1.0000   1.0000   1.0000   1.0000   1.0000   1.0000
     1.0000   1.0000   1.0000   1.0000   1.0000   1.0000   1.0000   1.0000
     1.0000   1.0000   1.0000   1.0000   1.0000   1.0000   1.0000   1.0000
     1.0000   1.0000   1.0000   1.0000   1.0000   1.0000   1.0000   1.0000
     1.0000   1.0000   1.0000   1.0000   1.0000   1.0000   1.0000   1.0000
     1.0000   1.0000   1.0000   1.0000   1.0000   1.0000   1.0000   1.0000
     1.0000   1.0000   1.0000   1.0000   1.0000   1.0000   1.0000   1.0000
     1.0000   1.0000   1.0000   1.0000   1.0000   1.0000   1.0000   1.0000
     1.0000   1.0000   1.0000   1.0000   1.0000   1.0000   1.0000   1.0000
     1.0000   1.0000   1.0000   1.0000   1.0000   1.0000   1.0000   1.0000
     1.0000   1.0000   1.0000   1.0000   1.0000   1.0000   1.0000   1.0000
     1.0000   1.0000   1.0000   1.0000   1.0000   1.0000   1.0000   1.0000
     1.0000   1.0000   1.0000   1.0000   1.0000   1.0000   1.0000   1.0000
     1.0000   1.0000   1.0000   1.0000   1.0000   1.0000   1.0000   1.0000
     1.0000   1.0000   1.0000   1.0000   1.0000   1.0000   1.0000   1.0000
     1.0000   1.0000   1.0000   1.0000   1.0000   1.0000   1.0000   1.0000
     1.0000   1.0000   1.0000   1.0000   1.0000   1.0000   1.0000   1.0000
     1.0000   1.0000   1.0000   1.0000   1.0000   1.0000   1.0000   1.0000
     1.0000   1.0000   1.0000   1.0000   1.0000   1.0000   1.0000   1.0000
     1.0000   1.0000   1.0000   1.0000   1.0000   1.0000   1.0000   1.0000
     1.0000   1.0000   1.0000   1.0000   1.0000   1.0000   1.0000   1.0000
     1.0000   1.0000   1.0000   1.0000   1.0000   1.0000   1.0000   1.0000
     1.0000   1.0000   1.0000   1.0000   1.0000   1.0000   1.0000   1.0000
     1.0000   1.0000   1.0000   1.0000   1.0000   1.0000   1.0000   1.0000
     1.0000   1.0000   1.0000   1.0000   1.0000   1.0000   1.0000   1.0000
     1.0000   1.0000   1.0000   1.0000   1.0000   1.0000   1.0000   1.0000
     1.0000   1.0000   0.9999   0.9999   0.9999   0.9995   0.9994   0.9971
     0.9971   0.9963   0.9959   0.9892   0.9883   0.9819   0.9775   0.9715
     0.9299   0.5329   0.4919   0.4783   0.4007   0.3724   0.3572   0.3565
     0.3352   0.3233   0.1456   0.0060   0.0035   0.0032   0.0026   0.0025
     0.0000   0.0000   0.0000   0.0000   0.0000   0.0000   0.0000   0.0000
     0.0000   0.0000   0.0000   0.0000   0.0000   0.0000   0.0000   0.0000
     0.0000   0.0000   0.0000   0.0000   0.0000   0.0000   0.0000   0.0000
     0.0000   0.0000   0.0000   0.0000   0.0000   0.0000   0.0000   0.0000
     0.0000   0.0000   0.0000   0.0000   0.0000   0.0000   0.0000   0.0000
     0.0000   0.0000   0.0000   0.0000   0.0000   0.0000   0.0000   0.0000
     0.0000   0.0000   0.0000   0.0000   0.0000   0.0000   0.0000   0.0000

          k =-0.5000 0.4811 0.0000 ( 88140 PWs)   bands (ev):

   -95.5394 -95.5352 -95.5297 -95.5284 -95.5282 -95.5238 -95.5219 -95.5206
   -95.5090 -95.5042 -95.5041 -95.5017 -95.5000 -95.4993 -95.4955 -95.4949
   -95.4938 -95.3952 -95.1405 -95.1345 -95.1337 -95.1007 -95.0937 -95.0918
   -95.0876 -95.0848 -95.0813 -95.0770 -95.0756 -95.0750 -95.0712 -95.0677
   -95.0671 -94.8939 -94.8913 -94.8895 -49.8466 -49.8339 -49.8286 -49.8181
   -49.8079 -49.8017 -49.7945 -49.7863 -49.7800 -49.7743 -49.7720 -49.7682
   -49.7586 -49.7460 -49.7422 -49.6945 -49.6872 -49.6836 -49.6801 -49.6734
   -49.6708 -49.6652 -49.6594 -49.6522 -49.6466 -49.6435 -49.6372 -49.6323
   -49.6268 -49.6225 -49.6183 -49.6135 -49.6098 -49.6080 -49.6055 -49.6025
   -49.5985 -49.5929 -49.5885 -49.5871 -49.5828 -49.5778 -49.5738 -49.5712
   -49.5684 -49.5673 -49.5646 -49.5591 -49.5474 -49.5409 -49.5274 -49.5028
   -49.4875 -49.4805 -49.4723 -49.4650 -49.4584 -49.4542 -49.4426 -49.4367
   -49.4290 -49.4151 -49.4117 -49.4058 -49.3828 -49.3776 -49.3379 -49.3104
   -49.3099 -49.3028 -49.2968 -49.2947 -49.2821 -49.2771 -49.2740 -49.2692
   -49.2634 -49.2561 -49.2552 -49.2489 -49.2344 -49.2182 -49.2039 -49.1921
   -49.1567 -49.1327 -49.1183 -49.1081 -49.0971 -49.0806 -49.0492 -49.0408
   -49.0384 -49.0207 -49.0174 -49.0131 -49.0102 -49.0083 -49.0079 -49.0012
   -48.9986 -48.9976 -48.9934 -48.9890 -48.9881 -48.8079 -48.8024 -48.8001
   -11.9265  -5.5026  -4.9634  -4.4665  -4.2225  -3.7469  -3.3957  -3.3440
    -3.3332  -3.2279  -3.1900  -3.1302  -3.0774  -3.0145  -3.0017  -2.8854
    -2.8127  -2.8056  -2.7387  -2.7006  -2.6674  -2.6539  -2.6319  -2.5975
    -2.5419  -2.5042  -2.4447  -2.4296  -2.3699  -2.3279  -2.2757  -2.2135
    -2.1930  -2.1717  -2.1227  -2.1059  -2.0045  -1.9621  -1.8844  -1.8383
    -1.7025  -1.6456  -1.6273  -1.5600  -1.5420  -1.5320  -1.5166  -1.4372
    -1.4222  -1.3807  -1.3426  -1.2873  -1.2249  -1.1933  -1.1735  -1.1416
    -1.1210  -1.0937  -1.0452  -1.0180  -0.9768  -0.9305  -0.8729  -0.8495
    -0.8439  -0.7950  -0.7648  -0.6636  -0.6295  -0.6073  -0.5533  -0.5378
    -0.5308  -0.5036  -0.4717  -0.4545  -0.4184  -0.3928  -0.3604  -0.3437
    -0.2728  -0.2509  -0.2323  -0.2101  -0.2043  -0.1680  -0.0903  -0.0677
    -0.0469  -0.0351  -0.0159   0.0411   0.0500   0.0721   0.0959   0.1039
     0.1201   0.1345   0.1560   0.1933   0.2041   0.2205   0.2393   0.2686
     0.3053   0.3338   0.3566   0.3952   0.4495   0.4813   0.5050   0.5928
     0.6110   0.6458   0.7441   0.8161   0.8445   0.8772   0.9016   0.9230
     0.9581   0.9814   0.9882   1.0508   1.0772   1.0897   1.1106   1.1353
     1.1738   1.2110   1.2208   1.2791   1.3223   1.3596   1.4792   1.5018
     1.5175   1.5470   1.5961   1.6336   1.6429   1.6564   1.6853   1.7118
     1.7241   1.7598   1.8299   1.8600   1.8885   1.9026   1.9128   1.9335
     1.9567   1.9707   2.0864   2.1178   2.1799   2.2428   2.2623   2.3455
     2.3756   2.3931   2.4537   2.4614   2.4887   2.5777   2.6185   2.6503
     2.6903   2.7033   2.7145   2.7180   2.7301   2.8016   2.8292   2.8328
     2.8709   2.8796   2.9052   2.9489   2.9514   2.9526   2.9573   2.9651
     3.0313   3.0459   3.1178   3.1290   3.1651   3.1884   3.2112   3.2208
     3.2697   3.2953   3.3455   3.9421   4.2045   4.2250   4.2794   4.3481
     4.6338   4.7894   4.8559   5.1560   5.2052   5.2363   5.2798   5.3739
     5.6327   5.7614   5.8415   6.0789   6.3700   6.4467   6.4985   6.6373
     6.8130   7.1113   7.2929   7.5364   7.5966   7.6215   8.3535   8.6050
     8.6256   8.6902   8.8708   9.1136   9.2025   9.2156   9.4479   9.4847
     9.5861   9.7318   9.8483   9.9385  10.0819  10.0902  10.1760  10.4433
    10.5381  10.8074  10.8329  10.9348  10.9477  10.9861  11.1177  11.1428

     occupation numbers 
     1.0000   1.0000   1.0000   1.0000   1.0000   1.0000   1.0000   1.0000
     1.0000   1.0000   1.0000   1.0000   1.0000   1.0000   1.0000   1.0000
     1.0000   1.0000   1.0000   1.0000   1.0000   1.0000   1.0000   1.0000
     1.0000   1.0000   1.0000   1.0000   1.0000   1.0000   1.0000   1.0000
     1.0000   1.0000   1.0000   1.0000   1.0000   1.0000   1.0000   1.0000
     1.0000   1.0000   1.0000   1.0000   1.0000   1.0000   1.0000   1.0000
     1.0000   1.0000   1.0000   1.0000   1.0000   1.0000   1.0000   1.0000
     1.0000   1.0000   1.0000   1.0000   1.0000   1.0000   1.0000   1.0000
     1.0000   1.0000   1.0000   1.0000   1.0000   1.0000   1.0000   1.0000
     1.0000   1.0000   1.0000   1.0000   1.0000   1.0000   1.0000   1.0000
     1.0000   1.0000   1.0000   1.0000   1.0000   1.0000   1.0000   1.0000
     1.0000   1.0000   1.0000   1.0000   1.0000   1.0000   1.0000   1.0000
     1.0000   1.0000   1.0000   1.0000   1.0000   1.0000   1.0000   1.0000
     1.0000   1.0000   1.0000   1.0000   1.0000   1.0000   1.0000   1.0000
     1.0000   1.0000   1.0000   1.0000   1.0000   1.0000   1.0000   1.0000
     1.0000   1.0000   1.0000   1.0000   1.0000   1.0000   1.0000   1.0000
     1.0000   1.0000   1.0000   1.0000   1.0000   1.0000   1.0000   1.0000
     1.0000   1.0000   1.0000   1.0000   1.0000   1.0000   1.0000   1.0000
     1.0000   1.0000   1.0000   1.0000   1.0000   1.0000   1.0000   1.0000
     1.0000   1.0000   1.0000   1.0000   1.0000   1.0000   1.0000   1.0000
     1.0000   1.0000   1.0000   1.0000   1.0000   1.0000   1.0000   1.0000
     1.0000   1.0000   1.0000   1.0000   1.0000   1.0000   1.0000   1.0000
     1.0000   1.0000   1.0000   1.0000   1.0000   1.0000   1.0000   1.0000
     1.0000   1.0000   1.0000   1.0000   1.0000   1.0000   1.0000   1.0000
     1.0000   1.0000   1.0000   1.0000   1.0000   1.0000   1.0000   1.0000
     1.0000   1.0000   1.0000   1.0000   1.0000   1.0000   1.0000   1.0000
     1.0000   1.0000   1.0000   1.0000   1.0000   1.0000   1.0000   1.0000
     1.0000   1.0000   1.0000   1.0000   1.0000   1.0000   1.0000   1.0000
     1.0000   1.0000   1.0000   1.0000   1.0000   1.0000   1.0000   1.0000
     1.0000   1.0000   1.0000   1.0000   1.0000   1.0000   1.0000   1.0000
     1.0000   1.0000   1.0000   1.0000   1.0000   1.0000   1.0000   1.0000
     1.0000   1.0000   1.0000   1.0000   1.0000   1.0000   1.0000   1.0000
     1.0000   1.0000   1.0000   1.0000   1.0000   1.0000   1.0000   1.0000
     1.0000   1.0000   1.0000   1.0000   1.0000   1.0000   1.0000   1.0000
     1.0000   1.0000   1.0000   1.0000   1.0000   1.0000   1.0000   1.0000
     1.0000   1.0000   1.0000   1.0000   1.0000   1.0000   1.0000   1.0000
     1.0000   1.0000   1.0000   1.0000   1.0000   1.0000   1.0000   1.0000
     1.0000   1.0000   1.0000   1.0000   1.0000   1.0000   1.0000   1.0000
     1.0000   1.0000   0.9999   0.9999   0.9998   0.9990   0.9978   0.9958
     0.9906   0.9879   0.9849   0.9838   0.9795   0.9194   0.8680   0.8595
     0.7406   0.7060   0.5897   0.3753   0.3637   0.3581   0.3368   0.3027
     0.1035   0.0794   0.0201   0.0161   0.0079   0.0050   0.0032   0.0026
     0.0010   0.0006   0.0002   0.0000   0.0000   0.0000   0.0000   0.0000
     0.0000   0.0000   0.0000   0.0000   0.0000   0.0000   0.0000   0.0000
     0.0000   0.0000   0.0000   0.0000   0.0000   0.0000   0.0000   0.0000
     0.0000   0.0000   0.0000   0.0000   0.0000   0.0000   0.0000   0.0000
     0.0000   0.0000   0.0000   0.0000   0.0000   0.0000   0.0000   0.0000
     0.0000   0.0000   0.0000   0.0000   0.0000   0.0000   0.0000   0.0000
     0.0000   0.0000   0.0000   0.0000   0.0000   0.0000   0.0000   0.0000

          k =-0.5000 0.6736 0.0000 ( 88140 PWs)   bands (ev):

   -95.5394 -95.5352 -95.5297 -95.5284 -95.5282 -95.5238 -95.5219 -95.5206
   -95.5090 -95.5042 -95.5040 -95.5017 -95.5000 -95.4993 -95.4955 -95.4949
   -95.4938 -95.3952 -95.1405 -95.1345 -95.1336 -95.1007 -95.0937 -95.0918
   -95.0876 -95.0848 -95.0813 -95.0770 -95.0756 -95.0750 -95.0712 -95.0677
   -95.0671 -94.8939 -94.8913 -94.8895 -49.8466 -49.8339 -49.8286 -49.8181
   -49.8079 -49.8017 -49.7945 -49.7863 -49.7800 -49.7743 -49.7720 -49.7682
   -49.7586 -49.7460 -49.7422 -49.6945 -49.6872 -49.6836 -49.6802 -49.6734
   -49.6708 -49.6652 -49.6594 -49.6522 -49.6466 -49.6434 -49.6372 -49.6323
   -49.6268 -49.6225 -49.6183 -49.6135 -49.6098 -49.6080 -49.6055 -49.6025
   -49.5985 -49.5929 -49.5885 -49.5871 -49.5828 -49.5778 -49.5738 -49.5712
   -49.5684 -49.5673 -49.5646 -49.5591 -49.5474 -49.5409 -49.5274 -49.5028
   -49.4875 -49.4805 -49.4723 -49.4650 -49.4584 -49.4542 -49.4426 -49.4367
   -49.4290 -49.4151 -49.4117 -49.4058 -49.3828 -49.3776 -49.3379 -49.3104
   -49.3099 -49.3028 -49.2968 -49.2947 -49.2821 -49.2770 -49.2740 -49.2692
   -49.2634 -49.2561 -49.2552 -49.2489 -49.2344 -49.2182 -49.2039 -49.1921
   -49.1567 -49.1327 -49.1183 -49.1081 -49.0971 -49.0806 -49.0492 -49.0408
   -49.0384 -49.0207 -49.0174 -49.0131 -49.0102 -49.0083 -49.0079 -49.0012
   -48.9986 -48.9977 -48.9934 -48.9890 -48.9881 -48.8079 -48.8024 -48.8001
   -11.9265  -5.5026  -4.9634  -4.4665  -4.2225  -3.7469  -3.3957  -3.3440
    -3.3332  -3.2279  -3.1900  -3.1302  -3.0774  -3.0145  -3.0017  -2.8854
    -2.8127  -2.8056  -2.7387  -2.7006  -2.6674  -2.6539  -2.6319  -2.5975
    -2.5419  -2.5042  -2.4447  -2.4296  -2.3699  -2.3279  -2.2757  -2.2134
    -2.1929  -2.1716  -2.1227  -2.1059  -2.0045  -1.9622  -1.8844  -1.8382
    -1.7025  -1.6456  -1.6273  -1.5601  -1.5420  -1.5320  -1.5167  -1.4372
    -1.4222  -1.3806  -1.3426  -1.2873  -1.2249  -1.1933  -1.1735  -1.1416
    -1.1210  -1.0937  -1.0452  -1.0180  -0.9768  -0.9305  -0.8729  -0.8495
    -0.8439  -0.7950  -0.7648  -0.6636  -0.6294  -0.6073  -0.5533  -0.5378
    -0.5309  -0.5036  -0.4717  -0.4545  -0.4184  -0.3928  -0.3604  -0.3437
    -0.2728  -0.2509  -0.2323  -0.2101  -0.2042  -0.1680  -0.0903  -0.0677
    -0.0468  -0.0351  -0.0159   0.0411   0.0500   0.0721   0.0959   0.1039
     0.1201   0.1345   0.1560   0.1933   0.2041   0.2205   0.2393   0.2686
     0.3053   0.3338   0.3566   0.3952   0.4495   0.4813   0.5050   0.5928
     0.6110   0.6458   0.7441   0.8161   0.8445   0.8772   0.9016   0.9229
     0.9581   0.9813   0.9882   1.0508   1.0772   1.0898   1.1106   1.1353
     1.1738   1.2109   1.2207   1.2791   1.3223   1.3596   1.4792   1.5018
     1.5175   1.5470   1.5961   1.6336   1.6430   1.6564   1.6853   1.7118
     1.7241   1.7599   1.8299   1.8600   1.8885   1.9026   1.9128   1.9335
     1.9567   1.9706   2.0864   2.1177   2.1799   2.2428   2.2623   2.3455
     2.3757   2.3931   2.4537   2.4614   2.4887   2.5777   2.6185   2.6503
     2.6903   2.7033   2.7145   2.7180   2.7300   2.8017   2.8293   2.8328
     2.8709   2.8796   2.9052   2.9489   2.9514   2.9526   2.9573   2.9651
     3.0313   3.0459   3.1179   3.1290   3.1651   3.1884   3.2112   3.2208
     3.2697   3.2953   3.3455   3.9421   4.2045   4.2250   4.2794   4.3481
     4.6338   4.7894   4.8559   5.1560   5.2052   5.2363   5.2798   5.3739
     5.6328   5.7614   5.8415   6.0789   6.3700   6.4467   6.4985   6.6374
     6.8129   7.1113   7.2929   7.5364   7.5965   7.6216   8.3535   8.6050
     8.6256   8.6902   8.8708   9.1137   9.2026   9.2156   9.4480   9.4846
     9.5861   9.7318   9.8483   9.9384  10.0819  10.0903  10.1761  10.4433
    10.5381  10.8074  10.8329  10.9349  10.9476  10.9861  11.1177  11.1428

     occupation numbers 
     1.0000   1.0000   1.0000   1.0000   1.0000   1.0000   1.0000   1.0000
     1.0000   1.0000   1.0000   1.0000   1.0000   1.0000   1.0000   1.0000
     1.0000   1.0000   1.0000   1.0000   1.0000   1.0000   1.0000   1.0000
     1.0000   1.0000   1.0000   1.0000   1.0000   1.0000   1.0000   1.0000
     1.0000   1.0000   1.0000   1.0000   1.0000   1.0000   1.0000   1.0000
     1.0000   1.0000   1.0000   1.0000   1.0000   1.0000   1.0000   1.0000
     1.0000   1.0000   1.0000   1.0000   1.0000   1.0000   1.0000   1.0000
     1.0000   1.0000   1.0000   1.0000   1.0000   1.0000   1.0000   1.0000
     1.0000   1.0000   1.0000   1.0000   1.0000   1.0000   1.0000   1.0000
     1.0000   1.0000   1.0000   1.0000   1.0000   1.0000   1.0000   1.0000
     1.0000   1.0000   1.0000   1.0000   1.0000   1.0000   1.0000   1.0000
     1.0000   1.0000   1.0000   1.0000   1.0000   1.0000   1.0000   1.0000
     1.0000   1.0000   1.0000   1.0000   1.0000   1.0000   1.0000   1.0000
     1.0000   1.0000   1.0000   1.0000   1.0000   1.0000   1.0000   1.0000
     1.0000   1.0000   1.0000   1.0000   1.0000   1.0000   1.0000   1.0000
     1.0000   1.0000   1.0000   1.0000   1.0000   1.0000   1.0000   1.0000
     1.0000   1.0000   1.0000   1.0000   1.0000   1.0000   1.0000   1.0000
     1.0000   1.0000   1.0000   1.0000   1.0000   1.0000   1.0000   1.0000
     1.0000   1.0000   1.0000   1.0000   1.0000   1.0000   1.0000   1.0000
     1.0000   1.0000   1.0000   1.0000   1.0000   1.0000   1.0000   1.0000
     1.0000   1.0000   1.0000   1.0000   1.0000   1.0000   1.0000   1.0000
     1.0000   1.0000   1.0000   1.0000   1.0000   1.0000   1.0000   1.0000
     1.0000   1.0000   1.0000   1.0000   1.0000   1.0000   1.0000   1.0000
     1.0000   1.0000   1.0000   1.0000   1.0000   1.0000   1.0000   1.0000
     1.0000   1.0000   1.0000   1.0000   1.0000   1.0000   1.0000   1.0000
     1.0000   1.0000   1.0000   1.0000   1.0000   1.0000   1.0000   1.0000
     1.0000   1.0000   1.0000   1.0000   1.0000   1.0000   1.0000   1.0000
     1.0000   1.0000   1.0000   1.0000   1.0000   1.0000   1.0000   1.0000
     1.0000   1.0000   1.0000   1.0000   1.0000   1.0000   1.0000   1.0000
     1.0000   1.0000   1.0000   1.0000   1.0000   1.0000   1.0000   1.0000
     1.0000   1.0000   1.0000   1.0000   1.0000   1.0000   1.0000   1.0000
     1.0000   1.0000   1.0000   1.0000   1.0000   1.0000   1.0000   1.0000
     1.0000   1.0000   1.0000   1.0000   1.0000   1.0000   1.0000   1.0000
     1.0000   1.0000   1.0000   1.0000   1.0000   1.0000   1.0000   1.0000
     1.0000   1.0000   1.0000   1.0000   1.0000   1.0000   1.0000   1.0000
     1.0000   1.0000   1.0000   1.0000   1.0000   1.0000   1.0000   1.0000
     1.0000   1.0000   1.0000   1.0000   1.0000   1.0000   1.0000   1.0000
     1.0000   1.0000   1.0000   1.0000   1.0000   1.0000   1.0000   1.0000
     1.0000   1.0000   0.9999   0.9999   0.9998   0.9990   0.9978   0.9958
     0.9906   0.9879   0.9849   0.9838   0.9795   0.9194   0.8679   0.8595
     0.7406   0.7061   0.5898   0.3753   0.3636   0.3581   0.3368   0.3026
     0.1035   0.0795   0.0200   0.0161   0.0079   0.0050   0.0032   0.0026
     0.0010   0.0006   0.0002   0.0000   0.0000   0.0000   0.0000   0.0000
     0.0000   0.0000   0.0000   0.0000   0.0000   0.0000   0.0000   0.0000
     0.0000   0.0000   0.0000   0.0000   0.0000   0.0000   0.0000   0.0000
     0.0000   0.0000   0.0000   0.0000   0.0000   0.0000   0.0000   0.0000
     0.0000   0.0000   0.0000   0.0000   0.0000   0.0000   0.0000   0.0000
     0.0000   0.0000   0.0000   0.0000   0.0000   0.0000   0.0000   0.0000
     0.0000   0.0000   0.0000   0.0000   0.0000   0.0000   0.0000   0.0000

          k =-0.5000-0.2887 0.0000 ( 88178 PWs)   bands (ev):

   -95.5394 -95.5353 -95.5292 -95.5287 -95.5283 -95.5239 -95.5219 -95.5206
   -95.5090 -95.5042 -95.5041 -95.5017 -95.4998 -95.4994 -95.4958 -95.4945
   -95.4939 -95.3952 -95.1405 -95.1345 -95.1337 -95.1007 -95.0937 -95.0918
   -95.0874 -95.0854 -95.0803 -95.0782 -95.0753 -95.0748 -95.0712 -95.0676
   -95.0672 -94.8939 -94.8913 -94.8895 -49.8508 -49.8296 -49.8226 -49.8176
   -49.8042 -49.8000 -49.7981 -49.7966 -49.7805 -49.7782 -49.7769 -49.7739
   -49.7523 -49.7421 -49.7159 -49.7153 -49.6829 -49.6820 -49.6758 -49.6748
   -49.6718 -49.6650 -49.6635 -49.6580 -49.6536 -49.6440 -49.6398 -49.6298
   -49.6246 -49.6195 -49.6191 -49.6135 -49.6120 -49.6032 -49.6025 -49.5991
   -49.5942 -49.5929 -49.5891 -49.5863 -49.5813 -49.5786 -49.5767 -49.5743
   -49.5696 -49.5652 -49.5633 -49.5599 -49.5530 -49.5413 -49.5212 -49.5089
   -49.4849 -49.4830 -49.4694 -49.4675 -49.4587 -49.4489 -49.4298 -49.4295
   -49.4275 -49.4265 -49.4248 -49.4243 -49.3707 -49.3448 -49.3445 -49.3400
   -49.3092 -49.3022 -49.2892 -49.2889 -49.2863 -49.2859 -49.2842 -49.2576
   -49.2517 -49.2505 -49.2503 -49.2495 -49.2364 -49.2362 -49.1967 -49.1938
   -49.1592 -49.1288 -49.1149 -49.1073 -49.1054 -49.0781 -49.0492 -49.0409
   -49.0383 -49.0207 -49.0170 -49.0142 -49.0102 -49.0082 -49.0058 -49.0035
   -48.9981 -48.9973 -48.9934 -48.9888 -48.9883 -48.8079 -48.8024 -48.8001
   -11.9265  -5.3423  -5.2941  -4.0933  -4.0327  -3.8856  -3.8726  -3.4664
    -3.3045  -3.0293  -2.9995  -2.9643  -2.9529  -2.9359  -2.9236  -2.9147
    -2.8934  -2.8760  -2.8561  -2.8066  -2.7661  -2.7484  -2.7173  -2.7117
    -2.6127  -2.5247  -2.3887  -2.3863  -2.3506  -2.3481  -2.1255  -2.1211
    -2.0978  -2.0681  -2.0436  -2.0339  -1.9683  -1.9628  -1.8289  -1.8192
    -1.7467  -1.7349  -1.7303  -1.6533  -1.6472  -1.5194  -1.5183  -1.4836
    -1.4582  -1.3953  -1.3629  -1.2587  -1.2546  -1.2396  -1.1843  -1.1344
    -1.1250  -1.0983  -1.0938  -0.9903  -0.9764  -0.9174  -0.8768  -0.8528
    -0.8079  -0.7901  -0.6759  -0.6404  -0.6359  -0.6288  -0.5936  -0.5840
    -0.5785  -0.5696  -0.5307  -0.3594  -0.3385  -0.3169  -0.3153  -0.3112
    -0.3106  -0.2792  -0.2662  -0.2630  -0.2291  -0.2142  -0.1416  -0.1401
    -0.0958  -0.0906  -0.0773  -0.0464   0.0150   0.0740   0.1281   0.1494
     0.1600   0.1666   0.1770   0.1833   0.1996   0.2302   0.2704   0.2918
     0.4120   0.4284   0.4341   0.5249   0.6085   0.6606   0.7138   0.7330
     0.7537   0.7603   0.8293   0.8452   0.8575   0.8731   0.8781   0.8811
     0.9038   0.9177   0.9470   0.9622   0.9956   1.0450   1.0457   1.0699
     1.0740   1.1278   1.1843   1.2128   1.2287   1.2579   1.2904   1.4314
     1.4514   1.5902   1.6383   1.6544   1.6596   1.6611   1.6903   1.7877
     1.8161   1.8909   1.8995   1.9119   1.9174   1.9286   1.9479   2.0175
     2.0298   2.0514   2.0517   2.0708   2.1539   2.1740   2.2249   2.2630
     2.3061   2.3912   2.4392   2.4399   2.4490   2.5387   2.5554   2.6305
     2.6317   2.6431   2.6491   2.6973   2.7018   2.7235   2.7347   2.7470
     2.7941   2.9168   2.9250   2.9277   2.9435   2.9495   2.9527   2.9529
     2.9576   2.9603   3.0119   3.1792   3.2056   3.2111   3.2202   3.2233
     3.4268   3.4647   3.7286   3.7425   3.9232   4.3963   4.4422   4.7880
     4.7915   4.7942   4.7995   5.2645   5.2747   5.2867   5.3048   5.3257
     5.6134   5.7879   5.7916   5.9095   6.1733   6.1964   6.3414   6.3640
     6.3780   6.4212   8.2530   8.2542   8.2868   8.3105   8.5171   8.5425
     8.6393   8.7948   8.8285   8.8440   8.8724   8.8987   9.3213   9.3315
     9.3611   9.7638   9.7694   9.8340   9.8845  10.2509  10.3379  10.3877
    10.4197  10.6131  10.7960  10.8613  10.8933  10.8983  10.9606  10.9647

     occupation numbers 
     1.0000   1.0000   1.0000   1.0000   1.0000   1.0000   1.0000   1.0000
     1.0000   1.0000   1.0000   1.0000   1.0000   1.0000   1.0000   1.0000
     1.0000   1.0000   1.0000   1.0000   1.0000   1.0000   1.0000   1.0000
     1.0000   1.0000   1.0000   1.0000   1.0000   1.0000   1.0000   1.0000
     1.0000   1.0000   1.0000   1.0000   1.0000   1.0000   1.0000   1.0000
     1.0000   1.0000   1.0000   1.0000   1.0000   1.0000   1.0000   1.0000
     1.0000   1.0000   1.0000   1.0000   1.0000   1.0000   1.0000   1.0000
     1.0000   1.0000   1.0000   1.0000   1.0000   1.0000   1.0000   1.0000
     1.0000   1.0000   1.0000   1.0000   1.0000   1.0000   1.0000   1.0000
     1.0000   1.0000   1.0000   1.0000   1.0000   1.0000   1.0000   1.0000
     1.0000   1.0000   1.0000   1.0000   1.0000   1.0000   1.0000   1.0000
     1.0000   1.0000   1.0000   1.0000   1.0000   1.0000   1.0000   1.0000
     1.0000   1.0000   1.0000   1.0000   1.0000   1.0000   1.0000   1.0000
     1.0000   1.0000   1.0000   1.0000   1.0000   1.0000   1.0000   1.0000
     1.0000   1.0000   1.0000   1.0000   1.0000   1.0000   1.0000   1.0000
     1.0000   1.0000   1.0000   1.0000   1.0000   1.0000   1.0000   1.0000
     1.0000   1.0000   1.0000   1.0000   1.0000   1.0000   1.0000   1.0000
     1.0000   1.0000   1.0000   1.0000   1.0000   1.0000   1.0000   1.0000
     1.0000   1.0000   1.0000   1.0000   1.0000   1.0000   1.0000   1.0000
     1.0000   1.0000   1.0000   1.0000   1.0000   1.0000   1.0000   1.0000
     1.0000   1.0000   1.0000   1.0000   1.0000   1.0000   1.0000   1.0000
     1.0000   1.0000   1.0000   1.0000   1.0000   1.0000   1.0000   1.0000
     1.0000   1.0000   1.0000   1.0000   1.0000   1.0000   1.0000   1.0000
     1.0000   1.0000   1.0000   1.0000   1.0000   1.0000   1.0000   1.0000
     1.0000   1.0000   1.0000   1.0000   1.0000   1.0000   1.0000   1.0000
     1.0000   1.0000   1.0000   1.0000   1.0000   1.0000   1.0000   1.0000
     1.0000   1.0000   1.0000   1.0000   1.0000   1.0000   1.0000   1.0000
     1.0000   1.0000   1.0000   1.0000   1.0000   1.0000   1.0000   1.0000
     1.0000   1.0000   1.0000   1.0000   1.0000   1.0000   1.0000   1.0000
     1.0000   1.0000   1.0000   1.0000   1.0000   1.0000   1.0000   1.0000
     1.0000   1.0000   1.0000   1.0000   1.0000   1.0000   1.0000   1.0000
     1.0000   1.0000   1.0000   1.0000   1.0000   1.0000   1.0000   1.0000
     1.0000   1.0000   1.0000   1.0000   1.0000   1.0000   1.0000   1.0000
     1.0000   1.0000   1.0000   1.0000   1.0000   1.0000   1.0000   1.0000
     1.0000   1.0000   1.0000   1.0000   1.0000   1.0000   1.0000   1.0000
     1.0000   1.0000   1.0000   1.0000   1.0000   1.0000   1.0000   1.0000
     1.0000   1.0000   1.0000   1.0000   1.0000   1.0000   1.0000   1.0000
     1.0000   1.0000   1.0000   1.0000   1.0000   1.0000   1.0000   1.0000
     1.0000   1.0000   0.9999   0.9999   0.9999   0.9995   0.9994   0.9971
     0.9971   0.9963   0.9959   0.9892   0.9883   0.9820   0.9776   0.9715
     0.9299   0.5328   0.4919   0.4782   0.4008   0.3723   0.3573   0.3564
     0.3351   0.3234   0.1455   0.0060   0.0035   0.0032   0.0026   0.0025
     0.0000   0.0000   0.0000   0.0000   0.0000   0.0000   0.0000   0.0000
     0.0000   0.0000   0.0000   0.0000   0.0000   0.0000   0.0000   0.0000
     0.0000   0.0000   0.0000   0.0000   0.0000   0.0000   0.0000   0.0000
     0.0000   0.0000   0.0000   0.0000   0.0000   0.0000   0.0000   0.0000
     0.0000   0.0000   0.0000   0.0000   0.0000   0.0000   0.0000   0.0000
     0.0000   0.0000   0.0000   0.0000   0.0000   0.0000   0.0000   0.0000
     0.0000   0.0000   0.0000   0.0000   0.0000   0.0000   0.0000   0.0000

     the Fermi energy is     2.9234 ev

!    total energy              =  -33081.81206740 Ry
     total all-electron energy =  -1325975.497717 Ry
     estimated scf accuracy    <       0.00000041 Ry
     smearing contrib. (-TS)   =      -0.05259007 Ry
     internal energy E=F+TS    =  -33081.75947734 Ry

     The total energy is F=E-TS. E is the sum of the following terms:
     one-electron contribution =  -90405.00365487 Ry
     hartree contribution      =   45271.71814336 Ry
     xc contribution           =   -1381.02574927 Ry
     ewald contribution        =   37584.36080370 Ry
     electric field correction =       0.00570453 Ry
     one-center paw contrib.   =  -24151.81472479 Ry
      -> PAW hartree energy AE =     350.75049575 Ry
      -> PAW hartree energy PS =    -349.06674718 Ry
      -> PAW xc energy AE      =   -1416.47591504 Ry
      -> PAW xc energy PS      =      73.56631317 Ry
      -> total E_H with PAW    =   45273.40189193 Ry
      -> total E_XC with PAW   =   -2723.93535113 Ry

     total magnetization       =     1.94 Bohr mag/cell
     absolute magnetization    =     1.94 Bohr mag/cell

     convergence has been achieved in  44 iterations

     negative rho (up, down):  5.887E-04 5.559E-04

     Forces acting on atoms (cartesian axes, Ry/au):

     atom    1 type  1   force =     0.00035465   -0.00026626   -0.00439906
     atom    2 type  1   force =    -0.00034620   -0.00026855   -0.00438846
     atom    3 type  1   force =    -0.00001280   -0.00015640   -0.00363098
     atom    4 type  1   force =     0.00000367   -0.00073909   -0.00355286
     atom    5 type  1   force =    -0.00007453    0.00000313   -0.00366076
     atom    6 type  1   force =     0.00006796    0.00001425   -0.00366139
     atom    7 type  1   force =     0.00059877    0.00026979   -0.00356692
     atom    8 type  1   force =     0.00000619    0.00033602   -0.00446729
     atom    9 type  1   force =    -0.00060700    0.00027839   -0.00355750
     atom   10 type  1   force =     0.00001747    0.00260684    0.00214120
     atom   11 type  1   force =     0.00077244    0.00049014    0.00729484
     atom   12 type  1   force =    -0.00078523    0.00050542    0.00729314
     atom   13 type  1   force =     0.00125223   -0.00058560    0.00343632
     atom   14 type  1   force =     0.00000728   -0.00085313    0.00705348
     atom   15 type  1   force =    -0.00125274   -0.00056554    0.00343823
     atom   16 type  1   force =    -0.00220810   -0.00105688    0.00227361
     atom   17 type  1   force =     0.00223253   -0.00105131    0.00227571
     atom   18 type  1   force =    -0.00001743    0.00172919    0.00366761
     atom   19 type  1   force =    -0.00262553   -0.00318392    0.00016465
     atom   20 type  1   force =     0.00262187   -0.00321506    0.00013258
     atom   21 type  1   force =     0.00000815    0.00016263    0.02035001
     atom   22 type  1   force =    -0.00002036   -0.00023182    0.00209804
     atom   23 type  1   force =     0.00379365   -0.00068548    0.00039834
     atom   24 type  1   force =    -0.00377708   -0.00068443    0.00041988
     atom   25 type  1   force =     0.00157084    0.00369113   -0.00038675
     atom   26 type  1   force =     0.00001431   -0.00008879    0.00345470
     atom   27 type  1   force =    -0.00159152    0.00368830   -0.00039760
     atom   28 type  1   force =    -0.01135113    0.00671758    0.00415219
     atom   29 type  1   force =     0.01135579    0.00669804    0.00415001
     atom   30 type  1   force =    -0.00000030    0.02636527   -0.01933661
     atom   31 type  1   force =    -0.00002815   -0.00060640    0.00568493
     atom   32 type  1   force =     0.02295510   -0.01303012   -0.01915772
     atom   33 type  1   force =    -0.02293582   -0.01301889   -0.01916563
     atom   34 type  1   force =     0.00058984    0.00020112    0.00598846
     atom   35 type  1   force =     0.00002016   -0.01364865    0.00377639
     atom   36 type  1   force =    -0.00060981    0.00018197    0.00596946
     atom   37 type  2   force =     0.00000082   -0.00000289   -0.00228428
     The non-local contrib.  to forces
     atom    1 type  1   force =    -0.00036939    0.00024689   -0.08742907
     atom    2 type  1   force =     0.00038195    0.00024467   -0.08741760
     atom    3 type  1   force =    -0.00001281   -0.00001660   -0.08727915
     atom    4 type  1   force =     0.00000561    0.00096150   -0.08664312
     atom    5 type  1   force =    -0.00005016    0.00000951   -0.08721340
     atom    6 type  1   force =     0.00004572    0.00002183   -0.08721610
     atom    7 type  1   force =    -0.00084415   -0.00046419   -0.08662448
     atom    8 type  1   force =     0.00000842   -0.00041394   -0.08740637
     atom    9 type  1   force =     0.00083766   -0.00045421   -0.08661313
     atom   10 type  1   force =     0.00001840    0.00304839   -0.00479059
     atom   11 type  1   force =     0.00060409    0.00051861   -0.00188343
     atom   12 type  1   force =    -0.00061563    0.00053667   -0.00188212
     atom   13 type  1   force =    -0.00023261    0.00026876   -0.00560813
     atom   14 type  1   force =     0.00001026   -0.00068833   -0.00203008
     atom   15 type  1   force =     0.00023056    0.00029006   -0.00560547
     atom   16 type  1   force =    -0.00251265   -0.00122837   -0.00457929
     atom   17 type  1   force =     0.00254044   -0.00122382   -0.00457700
     atom   18 type  1   force =    -0.00001922   -0.00003410   -0.00541221
     atom   19 type  1   force =     0.00521903   -0.00365233    0.00663109
     atom   20 type  1   force =    -0.00522006   -0.00368576    0.00659850
     atom   21 type  1   force =     0.00000955    0.00022447    0.02450611
     atom   22 type  1   force =    -0.00001951   -0.00023694    0.01422331
     atom   23 type  1   force =     0.00022898    0.00637378    0.00685027
     atom   24 type  1   force =    -0.00021303    0.00637535    0.00687219
     atom   25 type  1   force =     0.00597971   -0.00286437    0.00598869
     atom   26 type  1   force =     0.00001660    0.00004489    0.01656380
     atom   27 type  1   force =    -0.00600183   -0.00286408    0.00597729
     atom   28 type  1   force =    -0.00748950    0.00445975    0.08303213
     atom   29 type  1   force =     0.00749443    0.00444190    0.08301858
     atom   30 type  1   force =    -0.00000364    0.04218225    0.09568994
     atom   31 type  1   force =    -0.00003355    0.00428231    0.08015556
     atom   32 type  1   force =     0.03699355   -0.02104836    0.09547230
     atom   33 type  1   force =    -0.03697968   -0.02103682    0.09546782
     atom   34 type  1   force =    -0.00387594   -0.00243684    0.08022213
     atom   35 type  1   force =     0.00001836   -0.00965921    0.08315611
     atom   36 type  1   force =     0.00385298   -0.00245927    0.08021276
     atom   37 type  2   force =     0.00001662    0.00001532   -0.03382232
     The ionic contribution  to forces
     atom    1 type  1   force =    -0.05475175    0.02964900 -326.67006043
     atom    2 type  1   force =     0.05474969    0.02972069 -326.67005170
     atom    3 type  1   force =     0.00000321    0.07774277 -326.57444437
     atom    4 type  1   force =     0.00005616   -0.03204883 -326.71298066
     atom    5 type  1   force =     0.06878977   -0.04093752 -326.57896160
     atom    6 type  1   force =    -0.06884581   -0.04097411 -326.57905801
     atom    7 type  1   force =     0.02693475    0.01848180 -326.70997537
     atom    8 type  1   force =    -0.00006366   -0.06000922 -326.67263029
     atom    9 type  1   force =    -0.02687028    0.01851021 -326.71009546
     atom   10 type  1   force =     0.00047060    0.32886465 -110.92747770
     atom   11 type  1   force =     0.39855670    0.21748857 -110.21073963
     atom   12 type  1   force =    -0.39886410    0.21729896 -110.21085661
     atom   13 type  1   force =     0.46167493   -0.25730096 -111.13013665
     atom   14 type  1   force =    -0.00032734   -0.46585960 -110.22871840
     atom   15 type  1   force =    -0.46104652   -0.25741141 -111.13065466
     atom   16 type  1   force =    -0.30438402   -0.14554162 -110.90697181
     atom   17 type  1   force =     0.30427365   -0.14491412 -110.90780544
     atom   18 type  1   force =     0.00038846    0.55680973 -111.11165910
     atom   19 type  1   force =    -1.56784926   -0.59612850  107.14903122
     atom   20 type  1   force =     1.56707673   -0.59728168  107.15059553
     atom   21 type  1   force =     0.00120404    0.02743568  112.55932093
     atom   22 type  1   force =    -0.00039058   -0.01523157  104.17354726
     atom   23 type  1   force =     1.29100203   -1.05476100  107.15432978
     atom   24 type  1   force =    -1.29071752   -1.05630000  107.15203737
     atom   25 type  1   force =    -0.24021142    1.64496203  107.25731505
     atom   26 type  1   force =    -0.00036310   -0.00429325  102.84752215
     atom   27 type  1   force =     0.24032050    1.64534076  107.25683592
     atom   28 type  1   force =    -1.60699414    0.95277309  318.59186827
     atom   29 type  1   force =     1.60648510    0.95105130  318.59122929
     atom   30 type  1   force =     0.00059801    5.35949377  325.28878197
     atom   31 type  1   force =    -0.00313735   -0.49208913  319.13491923
     atom   32 type  1   force =     4.67115524   -2.63501314  325.08429970
     atom   33 type  1   force =    -4.66883542   -2.63452334  325.08065448
     atom   34 type  1   force =     0.44513056    0.20660432  319.08205004
     atom   35 type  1   force =     0.00113957   -1.95692664  318.64263937
     atom   36 type  1   force =    -0.44638347    0.20392009  319.08314053
     atom   37 type  2   force =     0.00002604    0.00139821   85.36315980
     The local contribution  to forces
     atom    1 type  1   force =     0.05545920   -0.03011479  326.65515251
     atom    2 type  1   force =    -0.05539257   -0.03019705  326.65520435
     atom    3 type  1   force =    -0.00007262   -0.07795818  326.56043619
     atom    4 type  1   force =    -0.00003122    0.03039552  326.69845347
     atom    5 type  1   force =    -0.06890346    0.04094747  326.56488542
     atom    6 type  1   force =     0.06893128    0.04104806  326.56497610
     atom    7 type  1   force =    -0.02555333   -0.01784778  326.69537085
     atom    8 type  1   force =     0.00010505    0.06065256  326.65766705
     atom    9 type  1   force =     0.02544430   -0.01782191  326.69554846
     atom   10 type  1   force =    -0.00039342   -0.32918049  110.84538364
     atom   11 type  1   force =    -0.39857794   -0.21761031  110.13109376
     atom   12 type  1   force =     0.39880599   -0.21733225  110.13122049
     atom   13 type  1   force =    -0.46014237    0.25632593  111.05033454
     atom   14 type  1   force =     0.00036614    0.46585534  110.14898685
     atom   15 type  1   force =     0.45947312    0.25654986  111.05090585
     atom   16 type  1   force =     0.30467890    0.14560606  110.82478660
     atom   17 type  1   force =    -0.30445262    0.14499819  110.82566495
     atom   18 type  1   force =    -0.00050505   -0.55501580  111.03192371
     atom   19 type  1   force =     1.55984535    0.59671359 -107.24812790
     atom   20 type  1   force =    -1.55907807    0.59774576 -107.24974480
     atom   21 type  1   force =    -0.00120085   -0.02743173 -112.65503574
     atom   22 type  1   force =     0.00028159    0.01520689 -104.27847032
     atom   23 type  1   force =    -1.28728641    1.04751414 -107.25341438
     atom   24 type  1   force =     1.28710930    1.04911215 -107.25112346
     atom   25 type  1   force =     0.23568104   -1.63825163 -107.35630385
     atom   26 type  1   force =     0.00046403    0.00413807 -102.95314809
     atom   27 type  1   force =    -0.23589450   -1.63869686 -107.35587920
     atom   28 type  1   force =     1.60283314   -0.95028554 -318.75564594
     atom   29 type  1   force =    -1.60230323   -0.94864134 -318.75504199
     atom   30 type  1   force =    -0.00061273   -5.37535338 -325.48859695
     atom   31 type  1   force =     0.00308436    0.48731116 -319.29427580
     atom   32 type  1   force =    -4.68521232    2.64308705 -325.28375276
     atom   33 type  1   force =     4.68294944    2.64265128 -325.28012333
     atom   34 type  1   force =    -0.44074532   -0.20399853 -319.24114469
     atom   35 type  1   force =    -0.00105857    1.95256980 -318.80695327
     atom   36 type  1   force =     0.44192245   -0.20133516 -319.24229975
     atom   37 type  2   force =    -0.00003927   -0.00142335  -85.36198013
     The core correction contribution to forces
     atom    1 type  1   force =     0.00003128   -0.00000735    0.00753575
     atom    2 type  1   force =    -0.00003094   -0.00000737    0.00753563
     atom    3 type  1   force =     0.00000017    0.00007042    0.00728979
     atom    4 type  1   force =     0.00000020    0.00001326    0.00729106
     atom    5 type  1   force =     0.00005110   -0.00002059    0.00729167
     atom    6 type  1   force =    -0.00005087   -0.00002067    0.00729155
     atom    7 type  1   force =    -0.00000092    0.00001101    0.00729286
     atom    8 type  1   force =     0.00000023    0.00004705    0.00754648
     atom    9 type  1   force =     0.00000135    0.00001097    0.00729287
     atom   10 type  1   force =    -0.00000002   -0.00002887   -0.00155485
     atom   11 type  1   force =     0.00013583    0.00009850   -0.00178345
     atom   12 type  1   force =    -0.00013520    0.00009862   -0.00178311
     atom   13 type  1   force =    -0.00011185    0.00008076   -0.00175061
     atom   14 type  1   force =     0.00000042   -0.00014909   -0.00176611
     atom   15 type  1   force =     0.00011197    0.00008059   -0.00175018
     atom   16 type  1   force =     0.00003923    0.00002611   -0.00155482
     atom   17 type  1   force =    -0.00003900    0.00002591   -0.00155457
     atom   18 type  1   force =     0.00000021   -0.00013315   -0.00176398
     atom   19 type  1   force =     0.00021508    0.00003985    0.00174681
     atom   20 type  1   force =    -0.00021533    0.00004002    0.00174756
     atom   21 type  1   force =     0.00000001   -0.00000260    0.00061035
     atom   22 type  1   force =     0.00000012   -0.00000340    0.00191465
     atom   23 type  1   force =    -0.00015278    0.00016131    0.00173452
     atom   24 type  1   force =     0.00015247    0.00016125    0.00173366
     atom   25 type  1   force =     0.00007167   -0.00022003    0.00175605
     atom   26 type  1   force =    -0.00000011   -0.00001121    0.00165990
     atom   27 type  1   force =    -0.00007171   -0.00021995    0.00175593
     atom   28 type  1   force =     0.00037637   -0.00023670   -0.00616289
     atom   29 type  1   force =    -0.00037679   -0.00023637   -0.00616305
     atom   30 type  1   force =    -0.00000029   -0.00008069   -0.00636936
     atom   31 type  1   force =    -0.00000024   -0.00004508   -0.00624854
     atom   32 type  1   force =    -0.00005405    0.00001399   -0.00634591
     atom   33 type  1   force =     0.00005318    0.00001386   -0.00634531
     atom   34 type  1   force =     0.00002033   -0.00000455   -0.00624126
     atom   35 type  1   force =    -0.00000040    0.00040688   -0.00616140
     atom   36 type  1   force =    -0.00002075   -0.00000456   -0.00624143
     atom   37 type  2   force =     0.00000025   -0.00000040    0.00025812
     The Hubbard contrib.    to forces
     atom    1 type  1   force =     0.00000000    0.00000000    0.00000000
     atom    2 type  1   force =     0.00000000    0.00000000    0.00000000
     atom    3 type  1   force =     0.00000000    0.00000000    0.00000000
     atom    4 type  1   force =     0.00000000    0.00000000    0.00000000
     atom    5 type  1   force =     0.00000000    0.00000000    0.00000000
     atom    6 type  1   force =     0.00000000    0.00000000    0.00000000
     atom    7 type  1   force =     0.00000000    0.00000000    0.00000000
     atom    8 type  1   force =     0.00000000    0.00000000    0.00000000
     atom    9 type  1   force =     0.00000000    0.00000000    0.00000000
     atom   10 type  1   force =     0.00000000    0.00000000    0.00000000
     atom   11 type  1   force =     0.00000000    0.00000000    0.00000000
     atom   12 type  1   force =     0.00000000    0.00000000    0.00000000
     atom   13 type  1   force =     0.00000000    0.00000000    0.00000000
     atom   14 type  1   force =     0.00000000    0.00000000    0.00000000
     atom   15 type  1   force =     0.00000000    0.00000000    0.00000000
     atom   16 type  1   force =     0.00000000    0.00000000    0.00000000
     atom   17 type  1   force =     0.00000000    0.00000000    0.00000000
     atom   18 type  1   force =     0.00000000    0.00000000    0.00000000
     atom   19 type  1   force =     0.00000000    0.00000000    0.00000000
     atom   20 type  1   force =     0.00000000    0.00000000    0.00000000
     atom   21 type  1   force =     0.00000000    0.00000000    0.00000000
     atom   22 type  1   force =     0.00000000    0.00000000    0.00000000
     atom   23 type  1   force =     0.00000000    0.00000000    0.00000000
     atom   24 type  1   force =     0.00000000    0.00000000    0.00000000
     atom   25 type  1   force =     0.00000000    0.00000000    0.00000000
     atom   26 type  1   force =     0.00000000    0.00000000    0.00000000
     atom   27 type  1   force =     0.00000000    0.00000000    0.00000000
     atom   28 type  1   force =     0.00000000    0.00000000    0.00000000
     atom   29 type  1   force =     0.00000000    0.00000000    0.00000000
     atom   30 type  1   force =     0.00000000    0.00000000    0.00000000
     atom   31 type  1   force =     0.00000000    0.00000000    0.00000000
     atom   32 type  1   force =     0.00000000    0.00000000    0.00000000
     atom   33 type  1   force =     0.00000000    0.00000000    0.00000000
     atom   34 type  1   force =     0.00000000    0.00000000    0.00000000
     atom   35 type  1   force =     0.00000000    0.00000000    0.00000000
     atom   36 type  1   force =     0.00000000    0.00000000    0.00000000
     atom   37 type  2   force =     0.00000000    0.00000000    0.00000000
     The SCF correction term to forces
     atom    1 type  1   force =    -0.00000000   -0.00000000    0.00000000
     atom    2 type  1   force =    -0.00000000   -0.00000000   -0.00000000
     atom    3 type  1   force =     0.00000000    0.00000000   -0.00000000
     atom    4 type  1   force =    -0.00000000   -0.00000000   -0.00000000
     atom    5 type  1   force =     0.00000000    0.00000000   -0.00000000
     atom    6 type  1   force =    -0.00000000   -0.00000000   -0.00000000
     atom    7 type  1   force =     0.00000000    0.00000000   -0.00000000
     atom    8 type  1   force =    -0.00000000    0.00000000   -0.00000000
     atom    9 type  1   force =    -0.00000000    0.00000000   -0.00000000
     atom   10 type  1   force =    -0.00000000   -0.00000000    0.00000000
     atom   11 type  1   force =     0.00000000   -0.00000000    0.00000000
     atom   12 type  1   force =     0.00000000   -0.00000000    0.00000000
     atom   13 type  1   force =     0.00000000    0.00000000    0.00000000
     atom   14 type  1   force =    -0.00000000   -0.00000000    0.00000000
     atom   15 type  1   force =    -0.00000000   -0.00000000    0.00000000
     atom   16 type  1   force =    -0.00000000    0.00000000    0.00000000
     atom   17 type  1   force =    -0.00000000    0.00000000    0.00000000
     atom   18 type  1   force =     0.00000000    0.00000000    0.00000000
     atom   19 type  1   force =    -0.00005566   -0.00015669    0.00048130
     atom   20 type  1   force =     0.00005866   -0.00003357    0.00053365
     atom   21 type  1   force =    -0.00000454   -0.00006335    0.00054621
     atom   22 type  1   force =     0.00010809    0.00003303    0.00048100
     atom   23 type  1   force =     0.00000189    0.00002614    0.00049600
     atom   24 type  1   force =    -0.00010824   -0.00003333    0.00049798
     atom   25 type  1   force =     0.00004989    0.00006497    0.00045516
     atom   26 type  1   force =    -0.00010304    0.00003255    0.00045479
     atom   27 type  1   force =     0.00005609    0.00012828    0.00051032
     atom   28 type  1   force =    -0.00007694    0.00000683    0.00065847
     atom   29 type  1   force =     0.00005633    0.00008239    0.00070504
     atom   30 type  1   force =     0.00001841    0.00012317    0.00075565
     atom   31 type  1   force =     0.00005869   -0.00006583    0.00073234
     atom   32 type  1   force =     0.00007274   -0.00006981    0.00076681
     atom   33 type  1   force =    -0.00012328   -0.00012403    0.00077857
     atom   34 type  1   force =     0.00006027    0.00003657    0.00070009
     atom   35 type  1   force =    -0.00007874   -0.00003963    0.00069343
     atom   36 type  1   force =     0.00001905    0.00006072    0.00075520
     atom   37 type  2   force =    -0.00000276    0.00000717    0.00032421

     Total force =     0.066452     Total SCF correction =     0.002700

     Writing all to output data dir ./output/pt-o-4p7.save/ :
     XML data file, charge density, pseudopotentials, collected wavefunctions

     init_run     :    335.91s CPU    340.20s WALL (       1 calls)
     electrons    :  44340.13s CPU  44655.73s WALL (       1 calls)
     forces       :    179.25s CPU    179.92s WALL (       1 calls)

     Called by init_run:
     wfcinit      :    325.85s CPU    329.59s WALL (       1 calls)
     wfcinit:atom :      1.02s CPU      1.58s WALL (      40 calls)
     wfcinit:wfcr :    320.57s CPU    323.13s WALL (      40 calls)
     potinit      :      5.04s CPU      5.27s WALL (       1 calls)
     hinit0       :      0.82s CPU      0.85s WALL (       1 calls)

     Called by electrons:
     c_bands      :  39948.46s CPU  40221.57s WALL (      44 calls)
     sum_band     :   3938.08s CPU   3968.80s WALL (      44 calls)
     v_of_rho     :     98.35s CPU     98.94s WALL (      45 calls)
     v_h          :      3.13s CPU      3.14s WALL (      45 calls)
     v_xc         :     93.86s CPU     94.36s WALL (      46 calls)
     newd         :    124.80s CPU    134.56s WALL (      45 calls)
     PAW_pot      :    147.20s CPU    147.70s WALL (      45 calls)
     mix_rho      :     83.23s CPU     83.69s WALL (      44 calls)

     Called by c_bands:
     init_us_2    :    253.55s CPU    255.28s WALL (    3600 calls)
     cegterg      :  39394.49s CPU  39664.00s WALL (    1760 calls)

     Called by sum_band:
     sum_band:wei :      1.01s CPU      1.01s WALL (      44 calls)
     sum_band:loo :   3706.91s CPU   3724.24s WALL (      44 calls)
     sum_band:buf :     50.19s CPU     50.78s WALL (    1760 calls)
     sum_band:ini :    123.79s CPU    124.57s WALL (    1760 calls)
     sum_band:cal :   1748.04s CPU   1752.25s WALL (    1760 calls)
     sum_band:bec :      9.28s CPU      9.33s WALL (    1760 calls)
     addusdens    :    220.70s CPU    234.02s WALL (      44 calls)
                                        0.00s GPU  (      44 calls)
     addusd:skk   :      2.32s CPU      3.70s WALL (      88 calls)
                                        0.00s GPU  (      88 calls)

     Called by *egterg:
     cdiaghg      :   2166.85s CPU   2171.10s WALL (    6604 calls)
     cegterg:over :   3894.60s CPU   3903.83s WALL (    4844 calls)
     cegterg:upda :   2504.89s CPU   2535.63s WALL (    4844 calls)
     cegterg:last :   6176.13s CPU   6191.48s WALL (    3029 calls)
     cdiaghg:chol :    114.27s CPU    114.64s WALL (    6604 calls)
     cdiaghg:inve :     33.76s CPU     33.90s WALL (    6604 calls)
     cdiaghg:para :    366.91s CPU    367.94s WALL (   13208 calls)
     h_psi        :  19671.26s CPU  19809.17s WALL (    6644 calls)
     s_psi        :   3536.45s CPU   3543.99s WALL (    6644 calls)
     g_psi        :     53.82s CPU     54.01s WALL (    4844 calls)

     Called by h_psi:
     h_psi:calbec :   3641.51s CPU   3650.75s WALL (    6644 calls)
     vloc_psi     :  12406.53s CPU  12489.09s WALL (    6644 calls)
     add_vuspsi   :   3547.89s CPU   3555.38s WALL (    6644 calls)

     General routines
     calbec       :   5549.18s CPU   5562.91s WALL (    8564 calls)
     fft          :     58.66s CPU     58.96s WALL (    1138 calls)
     ffts         :     33.22s CPU     33.38s WALL (    5467 calls)
     fftw         :   9187.63s CPU   9242.96s WALL ( 3516788 calls)
     interpolate  :      5.29s CPU      5.32s WALL (      90 calls)

     Parallel routines

     PAW routines
     PAW_pot      :    147.20s CPU    147.70s WALL (      45 calls)

     PWSCF        :     12h27m CPU     12h34m WALL


   This run was terminated on:  22:23:11   9Jun2026            

=------------------------------------------------------------------------------=
   JOB DONE.
=------------------------------------------------------------------------------=
