
     Program PWSCF v.7.4.1 starts on 28Jul2026 at 11:20:36 

     This program is part of the open-source Quantum ESPRESSO suite
     for quantum simulation of materials; please cite
         "P. Giannozzi et al., J. Phys.:Condens. Matter 21 395502 (2009);
         "P. Giannozzi et al., J. Phys.:Condens. Matter 29 465901 (2017);
         "P. Giannozzi et al., J. Chem. Phys. 152 154105 (2020);
          URL http://www.quantum-espresso.org", 
     in publications or presentations arising from this work. More details at
     http://www.quantum-espresso.org/quote

     Parallel version (MPI), running on    20 processors

     MPI processes distributed on     1 nodes
     452442 MiB available memory on the printing compute node when the environment starts

     Reading input from n-ni100-5.0A.in
Warning: card &CELL ignored
Warning: card / ignored

     Current dimensions of program PWSCF are:
     Max number of different atomic species (ntypx) = 10
     Max number of k-points (npk) =  40000
     Max angular momentum in pseudopotentials (lmaxx) =  4
     file N.pbe-n-kjpaw_psl.1.0.0.UPF: wavefunction(s)  2S renormalized

     IMPORTANT: XC functional enforced from input :
     Exchange-correlation= RPBE
                           (   1   4  44   4   0   0   0)
     Any further DFT definition will be discarded
     Please, verify this is what you really want

     Message from routine setup:
     using ibrav=0 with symmetry is DISCOURAGED, use correct ibrav instead

     R & G space division:  proc/nbgrp/npool/nimage =      20
     Subspace diagonalization in iterative solution of the eigenvalue problem:
     one sub-group per band group will be used
     custom distributed-memory algorithm (size of sub-group:  2*  2 procs)


     Parallelization info
     --------------------
     sticks:   dense  smooth     PW     G-vecs:    dense   smooth      PW
     Min         213      85     24                53165    13445    2006
     Max         215      86     25                53176    13460    2023
     Sum        4281    1709    489              1063469   269015   40189

     Using Slab Decomposition



     bravais-lattice index     =            0
     lattice parameter (alat)  =       9.4658  a.u.
     unit-cell volume          =    4286.0189 (a.u.)^3
     number of atoms/cell      =           17
     number of atomic types    =            2
     number of electrons       =       293.00
     number of Kohn-Sham states=          176
     kinetic-energy cutoff     =      60.0000  Ry
     charge density cutoff     =     600.0000  Ry
     scf convergence threshold =      1.0E-06
     mixing beta               =       0.5000
     number of iterations used =           20  TF        mixing
     Exchange-correlation= RPBE
                           (   1   4  44   4   0   0   0)

     celldm(1)=   9.465780  celldm(2)=   0.000000  celldm(3)=   0.000000
     celldm(4)=   0.000000  celldm(5)=   0.000000  celldm(6)=   0.000000

     crystal axes: (cart. coord. in units of alat)
               a(1) = (   1.000000   0.000000   0.000000 )  
               a(2) = (   0.000000   1.000000   0.000000 )  
               a(3) = (   0.000000   0.000000   5.053413 )  

     reciprocal axes: (cart. coord. in units 2 pi/alat)
               b(1) = (  1.000000  0.000000  0.000000 )  
               b(2) = (  0.000000  1.000000  0.000000 )  
               b(3) = (  0.000000  0.000000  0.197886 )  


     PseudoPot. # 1 for Ni read from file:
     ./pseudo/ni_pbe_v1.4.uspp.F.UPF
     MD5 check sum: 849734e1fde98a49bebfeab896d3cd68
     Pseudo is Ultrasoft + core correction, Zval = 18.0
     Generated by new atomic code, or converted to UPF format
     Using radial grid of  865 points,  6 beta functions with: 
                l(1) =   0
                l(2) =   0
                l(3) =   1
                l(4) =   1
                l(5) =   2
                l(6) =   2
     Q(r) pseudized with 10 coefficients,  rinner =    0.980   0.980   0.980
                                                       0.980   0.980

     PseudoPot. # 2 for N  read from file:
     ./pseudo/N.pbe-n-kjpaw_psl.1.0.0.UPF
     MD5 check sum: c39a4aec4ba7352d52c1696935a53a89
     Pseudo is Projector augmented-wave + core cor, Zval =  5.0
     Generated using &quot;atomic&quot; code by A. Dal Corso  v.6.3
     Shape of augmentation charge: PSQ
     Using radial grid of 1085 points,  4 beta functions with: 
                l(1) =   0
                l(2) =   0
                l(3) =   1
                l(4) =   1
     Q(r) pseudized with 0 coefficients 


     atomic species   valence    mass     pseudopotential
     Ni               18.00    58.69340     Ni( 1.00)
     N                 5.00    14.00700     N ( 1.00)

     Starting magnetic structure 
     atomic species   magnetization
     Ni              0.500
     N               0.000

      8 Sym. Ops. (no inversion) found ( 6 have fractional translation)


                                    s                        frac. trans.

      isym =  1     identity                                     

 cryst.   s( 1) = (     1          0          0      )
                  (     0          1          0      )
                  (     0          0          1      )

 cart.    s( 1) = (  1.0000000  0.0000000  0.0000000 )
                  (  0.0000000  1.0000000  0.0000000 )
                  (  0.0000000  0.0000000  1.0000000 )


      isym =  2     180 deg rotation - cart. axis [0,0,1]        

 cryst.   s( 2) = (    -1          0          0      )    f =( -0.5000000 )
                  (     0         -1          0      )       ( -0.5000000 )
                  (     0          0          1      )       (  0.0000000 )

 cart.    s( 2) = ( -1.0000000  0.0000000  0.0000000 )    f =( -0.5000000 )
                  (  0.0000000 -1.0000000  0.0000000 )       ( -0.5000000 )
                  (  0.0000000  0.0000000  1.0000000 )       (  0.0000000 )


      isym =  3      90 deg rotation - cart. axis [0,0,-1]       

 cryst.   s( 3) = (     0         -1          0      )    f =(  0.0000000 )
                  (     1          0          0      )       ( -0.5000000 )
                  (     0          0          1      )       (  0.0000000 )

 cart.    s( 3) = (  0.0000000  1.0000000  0.0000000 )    f =(  0.0000000 )
                  ( -1.0000000  0.0000000  0.0000000 )       ( -0.5000000 )
                  (  0.0000000  0.0000000  1.0000000 )       (  0.0000000 )


      isym =  4      90 deg rotation - cart. axis [0,0,1]        

 cryst.   s( 4) = (     0          1          0      )    f =( -0.5000000 )
                  (    -1          0          0      )       (  0.0000000 )
                  (     0          0          1      )       (  0.0000000 )

 cart.    s( 4) = (  0.0000000 -1.0000000  0.0000000 )    f =( -0.5000000 )
                  (  1.0000000  0.0000000  0.0000000 )       (  0.0000000 )
                  (  0.0000000  0.0000000  1.0000000 )       (  0.0000000 )


      isym =  5     inv. 180 deg rotation - cart. axis [0,1,0]   

 cryst.   s( 5) = (     1          0          0      )    f =(  0.0000000 )
                  (     0         -1          0      )       ( -0.5000000 )
                  (     0          0          1      )       (  0.0000000 )

 cart.    s( 5) = (  1.0000000  0.0000000  0.0000000 )    f =(  0.0000000 )
                  (  0.0000000 -1.0000000  0.0000000 )       ( -0.5000000 )
                  (  0.0000000  0.0000000  1.0000000 )       (  0.0000000 )


      isym =  6     inv. 180 deg rotation - cart. axis [1,0,0]   

 cryst.   s( 6) = (    -1          0          0      )    f =( -0.5000000 )
                  (     0          1          0      )       (  0.0000000 )
                  (     0          0          1      )       (  0.0000000 )

 cart.    s( 6) = ( -1.0000000  0.0000000  0.0000000 )    f =( -0.5000000 )
                  (  0.0000000  1.0000000  0.0000000 )       (  0.0000000 )
                  (  0.0000000  0.0000000  1.0000000 )       (  0.0000000 )


      isym =  7     inv. 180 deg rotation - cart. axis [1,1,0]   

 cryst.   s( 7) = (     0         -1          0      )    f =( -0.5000000 )
                  (    -1          0          0      )       ( -0.5000000 )
                  (     0          0          1      )       (  0.0000000 )

 cart.    s( 7) = (  0.0000000 -1.0000000  0.0000000 )    f =( -0.5000000 )
                  ( -1.0000000  0.0000000  0.0000000 )       ( -0.5000000 )
                  (  0.0000000  0.0000000  1.0000000 )       (  0.0000000 )


      isym =  8     inv. 180 deg rotation - cart. axis [1,-1,0]  

 cryst.   s( 8) = (     0          1          0      )
                  (     1          0          0      )
                  (     0          0          1      )

 cart.    s( 8) = (  0.0000000  1.0000000  0.0000000 )
                  (  1.0000000  0.0000000  0.0000000 )
                  (  0.0000000  0.0000000  1.0000000 )


   Cartesian axes

     site n.     atom                  positions (alat units)
         1        Ni     tau(   1) = (   0.2500000   0.2500000   0.3992753  )
         2        Ni     tau(   2) = (   0.7500000   0.2500000   0.3992753  )
         3        Ni     tau(   3) = (   0.2500000   0.7500000   0.3992753  )
         4        Ni     tau(   4) = (   0.7500000   0.7500000   0.3992753  )
         5        Ni     tau(   5) = (   0.0000000   0.0000000   0.7528287  )
         6        Ni     tau(   6) = (   0.5000000   0.0000000   0.7528287  )
         7        Ni     tau(   7) = (   0.0000000   0.5000000   0.7528287  )
         8        Ni     tau(   8) = (   0.5000000   0.5000000   0.7528287  )
         9        Ni     tau(   9) = (   0.2500000   0.2500000   1.1013438  )
        10        Ni     tau(  10) = (   0.7500000   0.2500000   1.1076682  )
        11        Ni     tau(  11) = (   0.2500000   0.7500000   1.1076682  )
        12        Ni     tau(  12) = (   0.7500000   0.7500000   1.1167030  )
        13        Ni     tau(  13) = (  -0.0023997  -0.0023997   1.4715263  )
        14        Ni     tau(  14) = (   0.5023997  -0.0023997   1.4715263  )
        15        Ni     tau(  15) = (  -0.0023997   0.5023997   1.4715263  )
        16        Ni     tau(  16) = (   0.5023997   0.5023997   1.4715263  )
        17        N      tau(  17) = (   0.2500000   0.2500000   2.4697146  )

     Fixed atoms
     site n.  direction
         1    0   0   0
         2    0   0   0
         3    0   0   0
         4    0   0   0
         5    0   0   0
         6    0   0   0
         7    0   0   0
         8    0   0   0
         9    1   1   1
        10    1   1   1
        11    1   1   1
        12    1   1   1
        13    1   1   1
        14    1   1   1
        15    1   1   1
        16    1   1   1
        17    0   0   0

   Crystallographic axes

     site n.     atom                  positions (cryst. coord.)
         1        Ni     tau(   1) = (  0.2500000  0.2500000  0.0790110  )
         2        Ni     tau(   2) = (  0.7500000  0.2500000  0.0790110  )
         3        Ni     tau(   3) = (  0.2500000  0.7500000  0.0790110  )
         4        Ni     tau(   4) = (  0.7500000  0.7500000  0.0790110  )
         5        Ni     tau(   5) = (  0.0000000  0.0000000  0.1489743  )
         6        Ni     tau(   6) = (  0.5000000  0.0000000  0.1489743  )
         7        Ni     tau(   7) = (  0.0000000  0.5000000  0.1489743  )
         8        Ni     tau(   8) = (  0.5000000  0.5000000  0.1489743  )
         9        Ni     tau(   9) = (  0.2500000  0.2500000  0.2179406  )
        10        Ni     tau(  10) = (  0.7500000  0.2500000  0.2191921  )
        11        Ni     tau(  11) = (  0.2500000  0.7500000  0.2191921  )
        12        Ni     tau(  12) = (  0.7500000  0.7500000  0.2209799  )
        13        Ni     tau(  13) = ( -0.0023997 -0.0023997  0.2911945  )
        14        Ni     tau(  14) = (  0.5023997 -0.0023997  0.2911945  )
        15        Ni     tau(  15) = ( -0.0023997  0.5023997  0.2911945  )
        16        Ni     tau(  16) = (  0.5023997  0.5023997  0.2911945  )
        17        N      tau(  17) = (  0.2500000  0.2500000  0.4887221  )

     number of k points=    15  Fermi-Dirac smearing, width (Ry)=  0.0037
                       cart. coord. in units 2pi/alat
        k(    1) = (   0.0000000   0.0000000   0.0000000), wk =   0.0156250
        k(    2) = (   0.0000000   0.1250000   0.0000000), wk =   0.0625000
        k(    3) = (   0.0000000   0.2500000   0.0000000), wk =   0.0625000
        k(    4) = (   0.0000000   0.3750000   0.0000000), wk =   0.0625000
        k(    5) = (   0.0000000  -0.5000000   0.0000000), wk =   0.0312500
        k(    6) = (   0.1250000   0.1250000   0.0000000), wk =   0.0625000
        k(    7) = (   0.1250000   0.2500000   0.0000000), wk =   0.1250000
        k(    8) = (   0.1250000   0.3750000   0.0000000), wk =   0.1250000
        k(    9) = (   0.1250000  -0.5000000   0.0000000), wk =   0.0625000
        k(   10) = (   0.2500000   0.2500000   0.0000000), wk =   0.0625000
        k(   11) = (   0.2500000   0.3750000   0.0000000), wk =   0.1250000
        k(   12) = (   0.2500000  -0.5000000   0.0000000), wk =   0.0625000
        k(   13) = (   0.3750000   0.3750000   0.0000000), wk =   0.0625000
        k(   14) = (   0.3750000  -0.5000000   0.0000000), wk =   0.0625000
        k(   15) = (  -0.5000000  -0.5000000   0.0000000), wk =   0.0156250

                       cryst. coord.
        k(    1) = (   0.0000000   0.0000000   0.0000000), wk =   0.0156250
        k(    2) = (   0.0000000   0.1250000   0.0000000), wk =   0.0625000
        k(    3) = (   0.0000000   0.2500000   0.0000000), wk =   0.0625000
        k(    4) = (   0.0000000   0.3750000   0.0000000), wk =   0.0625000
        k(    5) = (   0.0000000  -0.5000000   0.0000000), wk =   0.0312500
        k(    6) = (   0.1250000   0.1250000   0.0000000), wk =   0.0625000
        k(    7) = (   0.1250000   0.2500000   0.0000000), wk =   0.1250000
        k(    8) = (   0.1250000   0.3750000   0.0000000), wk =   0.1250000
        k(    9) = (   0.1250000  -0.5000000   0.0000000), wk =   0.0625000
        k(   10) = (   0.2500000   0.2500000   0.0000000), wk =   0.0625000
        k(   11) = (   0.2500000   0.3750000   0.0000000), wk =   0.1250000
        k(   12) = (   0.2500000  -0.5000000   0.0000000), wk =   0.0625000
        k(   13) = (   0.3750000   0.3750000   0.0000000), wk =   0.0625000
        k(   14) = (   0.3750000  -0.5000000   0.0000000), wk =   0.0625000
        k(   15) = (  -0.5000000  -0.5000000   0.0000000), wk =   0.0156250

     Dense  grid:  1063469 G-vectors     FFT dimensions: (  80,  80, 375)

     Smooth grid:   269015 G-vectors     FFT dimensions: (  48,  48, 240)

     Dynamical RAM for                 wfc:       4.51 MB

     Dynamical RAM for     wfc (w. buffer):     139.95 MB

     Dynamical RAM for           str. fact:       1.62 MB

     Dynamical RAM for           local pot:       0.00 MB

     Dynamical RAM for          nlocal pot:       7.59 MB

     Dynamical RAM for                qrad:       3.93 MB

     Dynamical RAM for          rho,v,vnew:      10.43 MB

     Dynamical RAM for               rhoin:       3.48 MB

     Dynamical RAM for            rho*nmix:      64.91 MB

     Dynamical RAM for           G-vectors:       3.15 MB

     Dynamical RAM for          h,s,v(r/c):       0.35 MB

     Dynamical RAM for          <psi|beta>:       0.79 MB

     Dynamical RAM for      wfcinit/wfcrot:       9.74 MB

     Dynamical RAM for           addusdens:     164.71 MB

     Dynamical RAM for          addusforce:     189.17 MB

     Dynamical RAM for         addusstress:     164.30 MB

     Estimated static dynamical RAM per process >     178.15 MB

     Estimated max dynamical RAM per process >     432.23 MB

     Estimated total dynamical RAM >       8.44 GB

     Check: negative core charge=   -0.000005
     Generating pointlists ...
     new r_m :   0.2043 (alat units)  1.9336 (a.u.) for type    1
     new r_m :   0.4125 (alat units)  3.9046 (a.u.) for type    2

     Initial potential from superposition of free atoms

     starting charge     261.0000, renormalised to     293.0000

     negative rho (up, down):  2.346E-04 7.777E-05
     Starting wfcs are  212 randomized atomic wfcs
     Checking if some PAW data can be deallocated... 
       PAW data deallocated on   19 nodes for type:  2

     total cpu time spent up to now is       41.7 secs

     per-process dynamical memory:   223.4 Mb

     Self-consistent Calculation

     iteration #  1     ecut=    60.00 Ry     beta= 0.50
     CG style diagonalization

---- Real-time Memory Report at c_bands before calling an iterative solver
           244 MiB given to the printing process from OS
           218 MiB allocation reported by mallinfo(arena+hblkhd)
        448575 MiB available memory on the node where the printing process lives
------------------
     c_bands:  5 eigenvalues not converged
     c_bands:  3 eigenvalues not converged
     c_bands:  1 eigenvalues not converged
     c_bands:  1 eigenvalues not converged
     c_bands:  1 eigenvalues not converged
     c_bands:  2 eigenvalues not converged
     c_bands:  2 eigenvalues not converged
     c_bands:  3 eigenvalues not converged
     c_bands:  3 eigenvalues not converged
     c_bands:  1 eigenvalues not converged
     c_bands:  1 eigenvalues not converged
     c_bands:  4 eigenvalues not converged
     c_bands:  2 eigenvalues not converged
     c_bands:  5 eigenvalues not converged
     c_bands:  1 eigenvalues not converged
     c_bands:  1 eigenvalues not converged
     c_bands:  3 eigenvalues not converged
     c_bands:  3 eigenvalues not converged
     c_bands:  4 eigenvalues not converged
     c_bands:  4 eigenvalues not converged
     c_bands:  4 eigenvalues not converged
     c_bands:  5 eigenvalues not converged
     c_bands:  1 eigenvalues not converged
     c_bands:  3 eigenvalues not converged
     c_bands:  1 eigenvalues not converged
     c_bands:  4 eigenvalues not converged
     ethr =  1.00E-04,  avg # of iterations = 21.8

     negative rho (up, down):  1.867E-01 1.863E-01

     total cpu time spent up to now is     2567.6 secs

     total energy              =   -5316.97995872 Ry
     estimated scf accuracy    <    2380.05754491 Ry

     total magnetization       =    19.31 Bohr mag/cell
     absolute magnetization    =    20.35 Bohr mag/cell

     iteration #  2     ecut=    60.00 Ry     beta= 0.50
     CG style diagonalization

---- Real-time Memory Report at c_bands before calling an iterative solver
           423 MiB given to the printing process from OS
           262 MiB allocation reported by mallinfo(arena+hblkhd)
        447254 MiB available memory on the node where the printing process lives
------------------
     ethr =  1.00E-02,  avg # of iterations =  6.7

     negative rho (up, down):  8.904E-02 6.874E-02

     total cpu time spent up to now is     3306.1 secs

     total energy              =   -5491.99369794 Ry
     estimated scf accuracy    <     214.72925832 Ry

     total magnetization       =    -0.02 Bohr mag/cell
     absolute magnetization    =     7.23 Bohr mag/cell

     iteration #  3     ecut=    60.00 Ry     beta= 0.50
     CG style diagonalization

---- Real-time Memory Report at c_bands before calling an iterative solver
           429 MiB given to the printing process from OS
           262 MiB allocation reported by mallinfo(arena+hblkhd)
        447141 MiB available memory on the node where the printing process lives
------------------
     ethr =  1.00E-02,  avg # of iterations =  4.1

     negative rho (up, down):  6.752E-02 5.280E-02

     total cpu time spent up to now is     3717.9 secs

     total energy              =   -5517.58331245 Ry
     estimated scf accuracy    <      79.38289433 Ry

     total magnetization       =    21.15 Bohr mag/cell
     absolute magnetization    =    25.03 Bohr mag/cell

     iteration #  4     ecut=    60.00 Ry     beta= 0.50
     CG style diagonalization

---- Real-time Memory Report at c_bands before calling an iterative solver
           430 MiB given to the printing process from OS
           263 MiB allocation reported by mallinfo(arena+hblkhd)
        447145 MiB available memory on the node where the printing process lives
------------------
     ethr =  1.00E-02,  avg # of iterations =  3.2

     negative rho (up, down):  5.284E-02 4.054E-02

     total cpu time spent up to now is     4015.8 secs

     total energy              =   -5518.46886691 Ry
     estimated scf accuracy    <      34.28159407 Ry

     total magnetization       =    15.64 Bohr mag/cell
     absolute magnetization    =    19.50 Bohr mag/cell

     iteration #  5     ecut=    60.00 Ry     beta= 0.50
     CG style diagonalization

---- Real-time Memory Report at c_bands before calling an iterative solver
           431 MiB given to the printing process from OS
           264 MiB allocation reported by mallinfo(arena+hblkhd)
        447167 MiB available memory on the node where the printing process lives
------------------
     ethr =  1.00E-02,  avg # of iterations =  3.1

     negative rho (up, down):  3.663E-02 3.511E-02

     total cpu time spent up to now is     4319.8 secs

     total energy              =   -5520.07392895 Ry
     estimated scf accuracy    <     136.55492356 Ry

     total magnetization       =    15.69 Bohr mag/cell
     absolute magnetization    =    19.76 Bohr mag/cell

     iteration #  6     ecut=    60.00 Ry     beta= 0.50
     CG style diagonalization

---- Real-time Memory Report at c_bands before calling an iterative solver
           432 MiB given to the printing process from OS
           265 MiB allocation reported by mallinfo(arena+hblkhd)
        447186 MiB available memory on the node where the printing process lives
------------------
     ethr =  1.00E-02,  avg # of iterations =  3.0

     negative rho (up, down):  3.694E-02 3.416E-02

     total cpu time spent up to now is     4596.6 secs

     total energy              =   -5520.86727904 Ry
     estimated scf accuracy    <      28.85550163 Ry

     total magnetization       =    14.07 Bohr mag/cell
     absolute magnetization    =    17.95 Bohr mag/cell

     iteration #  7     ecut=    60.00 Ry     beta= 0.50
     CG style diagonalization

---- Real-time Memory Report at c_bands before calling an iterative solver
           432 MiB given to the printing process from OS
           266 MiB allocation reported by mallinfo(arena+hblkhd)
        447201 MiB available memory on the node where the printing process lives
------------------
     ethr =  9.85E-03,  avg # of iterations =  3.0

     negative rho (up, down):  3.647E-02 3.343E-02

     total cpu time spent up to now is     4874.4 secs

     total energy              =   -5521.17899107 Ry
     estimated scf accuracy    <       8.20652608 Ry

     total magnetization       =    12.05 Bohr mag/cell
     absolute magnetization    =    17.86 Bohr mag/cell

     iteration #  8     ecut=    60.00 Ry     beta= 0.50
     CG style diagonalization

---- Real-time Memory Report at c_bands before calling an iterative solver
           433 MiB given to the printing process from OS
           267 MiB allocation reported by mallinfo(arena+hblkhd)
        447198 MiB available memory on the node where the printing process lives
------------------
     ethr =  2.80E-03,  avg # of iterations =  3.0

     negative rho (up, down):  3.149E-02 3.350E-02

     total cpu time spent up to now is     5153.7 secs

     total energy              =   -5521.17535955 Ry
     estimated scf accuracy    <      25.25203569 Ry

     total magnetization       =    10.48 Bohr mag/cell
     absolute magnetization    =    13.47 Bohr mag/cell

     iteration #  9     ecut=    60.00 Ry     beta= 0.50
     CG style diagonalization

---- Real-time Memory Report at c_bands before calling an iterative solver
           434 MiB given to the printing process from OS
           268 MiB allocation reported by mallinfo(arena+hblkhd)
        447186 MiB available memory on the node where the printing process lives
------------------
     ethr =  2.80E-03,  avg # of iterations =  3.0

     negative rho (up, down):  3.181E-02 3.144E-02

     total cpu time spent up to now is     5429.8 secs

     total energy              =   -5521.22152020 Ry
     estimated scf accuracy    <       2.84591104 Ry

     total magnetization       =     8.10 Bohr mag/cell
     absolute magnetization    =    16.16 Bohr mag/cell

     iteration # 10     ecut=    60.00 Ry     beta= 0.50
     CG style diagonalization

---- Real-time Memory Report at c_bands before calling an iterative solver
           435 MiB given to the printing process from OS
           269 MiB allocation reported by mallinfo(arena+hblkhd)
        447202 MiB available memory on the node where the printing process lives
------------------
     ethr =  9.71E-04,  avg # of iterations =  3.1

     negative rho (up, down):  3.072E-02 2.938E-02

     total cpu time spent up to now is     5714.6 secs

     total energy              =   -5522.00968092 Ry
     estimated scf accuracy    <      18.55619292 Ry

     total magnetization       =     8.69 Bohr mag/cell
     absolute magnetization    =    10.98 Bohr mag/cell

     iteration # 11     ecut=    60.00 Ry     beta= 0.50
     CG style diagonalization

---- Real-time Memory Report at c_bands before calling an iterative solver
           436 MiB given to the printing process from OS
           270 MiB allocation reported by mallinfo(arena+hblkhd)
        447199 MiB available memory on the node where the printing process lives
------------------
     ethr =  9.71E-04,  avg # of iterations =  3.0

     negative rho (up, down):  3.021E-02 2.889E-02

     total cpu time spent up to now is     5991.7 secs

     total energy              =   -5522.14818395 Ry
     estimated scf accuracy    <      44.15395852 Ry

     total magnetization       =     8.06 Bohr mag/cell
     absolute magnetization    =    10.16 Bohr mag/cell

     iteration # 12     ecut=    60.00 Ry     beta= 0.50
     CG style diagonalization

---- Real-time Memory Report at c_bands before calling an iterative solver
           437 MiB given to the printing process from OS
           271 MiB allocation reported by mallinfo(arena+hblkhd)
        447183 MiB available memory on the node where the printing process lives
------------------
     ethr =  9.71E-04,  avg # of iterations =  3.0

     negative rho (up, down):  3.077E-02 2.875E-02

     total cpu time spent up to now is     6268.1 secs

     total energy              =   -5522.00317895 Ry
     estimated scf accuracy    <      47.35580060 Ry

     total magnetization       =     7.27 Bohr mag/cell
     absolute magnetization    =     9.09 Bohr mag/cell

     iteration # 13     ecut=    60.00 Ry     beta= 0.50
     CG style diagonalization

---- Real-time Memory Report at c_bands before calling an iterative solver
           438 MiB given to the printing process from OS
           272 MiB allocation reported by mallinfo(arena+hblkhd)
        447144 MiB available memory on the node where the printing process lives
------------------
     ethr =  9.71E-04,  avg # of iterations =  3.0

     negative rho (up, down):  3.130E-02 2.869E-02

     total cpu time spent up to now is     6544.7 secs

     total energy              =   -5521.91630744 Ry
     estimated scf accuracy    <      37.14299948 Ry

     total magnetization       =     7.08 Bohr mag/cell
     absolute magnetization    =     8.71 Bohr mag/cell

     iteration # 14     ecut=    60.00 Ry     beta= 0.50
     CG style diagonalization

---- Real-time Memory Report at c_bands before calling an iterative solver
           439 MiB given to the printing process from OS
           272 MiB allocation reported by mallinfo(arena+hblkhd)
        447128 MiB available memory on the node where the printing process lives
------------------
     ethr =  9.71E-04,  avg # of iterations =  3.0

     negative rho (up, down):  3.260E-02 2.897E-02

     total cpu time spent up to now is     6820.8 secs

     total energy              =   -5521.73236019 Ry
     estimated scf accuracy    <      33.40812363 Ry

     total magnetization       =     7.01 Bohr mag/cell
     absolute magnetization    =     8.52 Bohr mag/cell

     iteration # 15     ecut=    60.00 Ry     beta= 0.50
     CG style diagonalization

---- Real-time Memory Report at c_bands before calling an iterative solver
           440 MiB given to the printing process from OS
           273 MiB allocation reported by mallinfo(arena+hblkhd)
        447126 MiB available memory on the node where the printing process lives
------------------
     ethr =  9.71E-04,  avg # of iterations =  3.0

     negative rho (up, down):  3.550E-02 3.005E-02

     total cpu time spent up to now is     7096.2 secs

     total energy              =   -5521.53697359 Ry
     estimated scf accuracy    <      31.64428464 Ry

     total magnetization       =     6.83 Bohr mag/cell
     absolute magnetization    =     8.18 Bohr mag/cell

     iteration # 16     ecut=    60.00 Ry     beta= 0.50
     CG style diagonalization

---- Real-time Memory Report at c_bands before calling an iterative solver
           441 MiB given to the printing process from OS
           274 MiB allocation reported by mallinfo(arena+hblkhd)
        447098 MiB available memory on the node where the printing process lives
------------------
     ethr =  9.71E-04,  avg # of iterations =  3.0

     negative rho (up, down):  3.805E-02 3.141E-02

     total cpu time spent up to now is     7372.0 secs

     total energy              =   -5521.38133493 Ry
     estimated scf accuracy    <      32.87178176 Ry

     total magnetization       =     6.42 Bohr mag/cell
     absolute magnetization    =     7.67 Bohr mag/cell

     iteration # 17     ecut=    60.00 Ry     beta= 0.50
     CG style diagonalization

---- Real-time Memory Report at c_bands before calling an iterative solver
           442 MiB given to the printing process from OS
           275 MiB allocation reported by mallinfo(arena+hblkhd)
        447072 MiB available memory on the node where the printing process lives
------------------
     ethr =  9.71E-04,  avg # of iterations =  3.0

     negative rho (up, down):  5.839E-02 3.770E-02

     total cpu time spent up to now is     7648.7 secs

     total energy              =   -5521.06658992 Ry
     estimated scf accuracy    <      20.58673296 Ry

     total magnetization       =     4.92 Bohr mag/cell
     absolute magnetization    =     9.72 Bohr mag/cell

     iteration # 18     ecut=    60.00 Ry     beta= 0.50
     CG style diagonalization

---- Real-time Memory Report at c_bands before calling an iterative solver
           443 MiB given to the printing process from OS
           276 MiB allocation reported by mallinfo(arena+hblkhd)
        447078 MiB available memory on the node where the printing process lives
------------------
     ethr =  9.71E-04,  avg # of iterations =  3.0

     negative rho (up, down):  7.241E-02 4.384E-02

     total cpu time spent up to now is     7927.1 secs

     total energy              =   -5521.18350796 Ry
     estimated scf accuracy    <       5.26979578 Ry

     total magnetization       =     4.51 Bohr mag/cell
     absolute magnetization    =    11.38 Bohr mag/cell

     iteration # 19     ecut=    60.00 Ry     beta= 0.50
     CG style diagonalization

---- Real-time Memory Report at c_bands before calling an iterative solver
           443 MiB given to the printing process from OS
           277 MiB allocation reported by mallinfo(arena+hblkhd)
        447055 MiB available memory on the node where the printing process lives
------------------
     ethr =  9.71E-04,  avg # of iterations =  3.0

     negative rho (up, down):  9.512E-02 5.215E-02

     total cpu time spent up to now is     8202.4 secs

     total energy              =   -5521.14927174 Ry
     estimated scf accuracy    <       1.77162748 Ry

     total magnetization       =     5.64 Bohr mag/cell
     absolute magnetization    =    12.66 Bohr mag/cell

     iteration # 20     ecut=    60.00 Ry     beta= 0.50
     CG style diagonalization

---- Real-time Memory Report at c_bands before calling an iterative solver
           444 MiB given to the printing process from OS
           278 MiB allocation reported by mallinfo(arena+hblkhd)
        447055 MiB available memory on the node where the printing process lives
------------------
     ethr =  6.05E-04,  avg # of iterations =  3.0

     negative rho (up, down):  9.987E-02 5.445E-02

     total cpu time spent up to now is     8479.6 secs

     total energy              =   -5521.20263085 Ry
     estimated scf accuracy    <       1.53049455 Ry

     total magnetization       =     6.86 Bohr mag/cell
     absolute magnetization    =    14.12 Bohr mag/cell

     iteration # 21     ecut=    60.00 Ry     beta= 0.50
     CG style diagonalization

---- Real-time Memory Report at c_bands before calling an iterative solver
           445 MiB given to the printing process from OS
           279 MiB allocation reported by mallinfo(arena+hblkhd)
        447036 MiB available memory on the node where the printing process lives
------------------
     ethr =  5.22E-04,  avg # of iterations =  3.0

     negative rho (up, down):  7.123E-02 5.344E-02

     total cpu time spent up to now is     8754.9 secs

     total energy              =   -5521.20494579 Ry
     estimated scf accuracy    <       0.94341461 Ry

     total magnetization       =     6.98 Bohr mag/cell
     absolute magnetization    =    14.29 Bohr mag/cell

     iteration # 22     ecut=    60.00 Ry     beta= 0.50
     CG style diagonalization

---- Real-time Memory Report at c_bands before calling an iterative solver
           446 MiB given to the printing process from OS
           280 MiB allocation reported by mallinfo(arena+hblkhd)
        447034 MiB available memory on the node where the printing process lives
------------------
     ethr =  3.22E-04,  avg # of iterations =  3.0

     negative rho (up, down):  1.011E-01 7.490E-02

     total cpu time spent up to now is     9032.2 secs

     total energy              =   -5521.41621344 Ry
     estimated scf accuracy    <      13.76940327 Ry

     total magnetization       =     8.35 Bohr mag/cell
     absolute magnetization    =    10.19 Bohr mag/cell

     iteration # 23     ecut=    60.00 Ry     beta= 0.50
     CG style diagonalization

---- Real-time Memory Report at c_bands before calling an iterative solver
           447 MiB given to the printing process from OS
           280 MiB allocation reported by mallinfo(arena+hblkhd)
        447028 MiB available memory on the node where the printing process lives
------------------
     ethr =  3.22E-04,  avg # of iterations =  3.0

     negative rho (up, down):  1.131E-01 8.512E-02

     total cpu time spent up to now is     9309.1 secs

     total energy              =   -5521.26415627 Ry
     estimated scf accuracy    <      14.87306438 Ry

     total magnetization       =     8.18 Bohr mag/cell
     absolute magnetization    =    10.25 Bohr mag/cell

     iteration # 24     ecut=    60.00 Ry     beta= 0.50
     CG style diagonalization

---- Real-time Memory Report at c_bands before calling an iterative solver
           447 MiB given to the printing process from OS
           280 MiB allocation reported by mallinfo(arena+hblkhd)
        447036 MiB available memory on the node where the printing process lives
------------------
     ethr =  3.22E-04,  avg # of iterations =  3.0

     negative rho (up, down):  1.114E-01 8.350E-02

     total cpu time spent up to now is     9587.0 secs

     total energy              =   -5521.28155097 Ry
     estimated scf accuracy    <      11.01719237 Ry

     total magnetization       =     8.03 Bohr mag/cell
     absolute magnetization    =    10.77 Bohr mag/cell

     iteration # 25     ecut=    60.00 Ry     beta= 0.50
     CG style diagonalization

---- Real-time Memory Report at c_bands before calling an iterative solver
           447 MiB given to the printing process from OS
           280 MiB allocation reported by mallinfo(arena+hblkhd)
        447061 MiB available memory on the node where the printing process lives
------------------
     ethr =  3.22E-04,  avg # of iterations =  3.0

     negative rho (up, down):  1.069E-01 8.096E-02

     total cpu time spent up to now is     9864.0 secs

     total energy              =   -5521.19545320 Ry
     estimated scf accuracy    <      12.76426657 Ry

     total magnetization       =     8.06 Bohr mag/cell
     absolute magnetization    =    10.40 Bohr mag/cell

     iteration # 26     ecut=    60.00 Ry     beta= 0.50
     CG style diagonalization

---- Real-time Memory Report at c_bands before calling an iterative solver
           447 MiB given to the printing process from OS
           280 MiB allocation reported by mallinfo(arena+hblkhd)
        447067 MiB available memory on the node where the printing process lives
------------------
     ethr =  3.22E-04,  avg # of iterations =  3.0

     negative rho (up, down):  9.507E-02 6.879E-02

     total cpu time spent up to now is    10140.7 secs

     total energy              =   -5521.24610951 Ry
     estimated scf accuracy    <       0.92097539 Ry

     total magnetization       =     7.58 Bohr mag/cell
     absolute magnetization    =    14.30 Bohr mag/cell

     iteration # 27     ecut=    60.00 Ry     beta= 0.50
     CG style diagonalization

---- Real-time Memory Report at c_bands before calling an iterative solver
           447 MiB given to the printing process from OS
           280 MiB allocation reported by mallinfo(arena+hblkhd)
        447075 MiB available memory on the node where the printing process lives
------------------
     ethr =  3.14E-04,  avg # of iterations =  3.0

     negative rho (up, down):  1.133E-01 5.651E-02

     total cpu time spent up to now is    10416.4 secs

     total energy              =   -5521.18298276 Ry
     estimated scf accuracy    <      14.38796408 Ry

     total magnetization       =     8.43 Bohr mag/cell
     absolute magnetization    =    10.55 Bohr mag/cell

     iteration # 28     ecut=    60.00 Ry     beta= 0.50
     CG style diagonalization

---- Real-time Memory Report at c_bands before calling an iterative solver
           447 MiB given to the printing process from OS
           280 MiB allocation reported by mallinfo(arena+hblkhd)
        447078 MiB available memory on the node where the printing process lives
------------------
     ethr =  3.14E-04,  avg # of iterations =  3.0

     negative rho (up, down):  1.059E-01 7.758E-02

     total cpu time spent up to now is    10693.0 secs

     total energy              =   -5521.29992401 Ry
     estimated scf accuracy    <       1.14029268 Ry

     total magnetization       =     8.71 Bohr mag/cell
     absolute magnetization    =    15.34 Bohr mag/cell

     iteration # 29     ecut=    60.00 Ry     beta= 0.50
     CG style diagonalization

---- Real-time Memory Report at c_bands before calling an iterative solver
           447 MiB given to the printing process from OS
           280 MiB allocation reported by mallinfo(arena+hblkhd)
        447078 MiB available memory on the node where the printing process lives
------------------
     ethr =  3.14E-04,  avg # of iterations =  3.0

     negative rho (up, down):  9.794E-02 7.509E-02

     total cpu time spent up to now is    10976.8 secs

     total energy              =   -5521.47399222 Ry
     estimated scf accuracy    <      14.49297006 Ry

     total magnetization       =     9.00 Bohr mag/cell
     absolute magnetization    =    11.34 Bohr mag/cell

     iteration # 30     ecut=    60.00 Ry     beta= 0.50
     CG style diagonalization

---- Real-time Memory Report at c_bands before calling an iterative solver
           447 MiB given to the printing process from OS
           280 MiB allocation reported by mallinfo(arena+hblkhd)
        447100 MiB available memory on the node where the printing process lives
------------------
     ethr =  3.14E-04,  avg # of iterations =  3.0

     negative rho (up, down):  9.014E-02 7.117E-02

     total cpu time spent up to now is    11253.9 secs

     total energy              =   -5521.46175009 Ry
     estimated scf accuracy    <      14.12799680 Ry

     total magnetization       =     9.02 Bohr mag/cell
     absolute magnetization    =    11.32 Bohr mag/cell

     iteration # 31     ecut=    60.00 Ry     beta= 0.50
     CG style diagonalization

---- Real-time Memory Report at c_bands before calling an iterative solver
           447 MiB given to the printing process from OS
           280 MiB allocation reported by mallinfo(arena+hblkhd)
        447094 MiB available memory on the node where the printing process lives
------------------
     ethr =  3.14E-04,  avg # of iterations =  3.0

     negative rho (up, down):  8.640E-02 7.405E-02

     total cpu time spent up to now is    11532.8 secs

     total energy              =   -5521.39605643 Ry
     estimated scf accuracy    <      14.03090946 Ry

     total magnetization       =     8.95 Bohr mag/cell
     absolute magnetization    =    11.18 Bohr mag/cell

     iteration # 32     ecut=    60.00 Ry     beta= 0.50
     CG style diagonalization

---- Real-time Memory Report at c_bands before calling an iterative solver
           447 MiB given to the printing process from OS
           280 MiB allocation reported by mallinfo(arena+hblkhd)
        447096 MiB available memory on the node where the printing process lives
------------------
     ethr =  3.14E-04,  avg # of iterations =  3.0

     negative rho (up, down):  8.186E-02 7.305E-02

     total cpu time spent up to now is    11808.4 secs

     total energy              =   -5521.33503204 Ry
     estimated scf accuracy    <      13.79949662 Ry

     total magnetization       =     8.61 Bohr mag/cell
     absolute magnetization    =    10.63 Bohr mag/cell

     iteration # 33     ecut=    60.00 Ry     beta= 0.50
     CG style diagonalization

---- Real-time Memory Report at c_bands before calling an iterative solver
           447 MiB given to the printing process from OS
           280 MiB allocation reported by mallinfo(arena+hblkhd)
        447097 MiB available memory on the node where the printing process lives
------------------
     ethr =  3.14E-04,  avg # of iterations =  3.0

     negative rho (up, down):  7.582E-02 6.864E-02

     total cpu time spent up to now is    12084.8 secs

     total energy              =   -5521.23470541 Ry
     estimated scf accuracy    <      13.66759134 Ry

     total magnetization       =     8.67 Bohr mag/cell
     absolute magnetization    =    10.66 Bohr mag/cell

     iteration # 34     ecut=    60.00 Ry     beta= 0.50
     CG style diagonalization

---- Real-time Memory Report at c_bands before calling an iterative solver
           447 MiB given to the printing process from OS
           280 MiB allocation reported by mallinfo(arena+hblkhd)
        447090 MiB available memory on the node where the printing process lives
------------------
     ethr =  3.14E-04,  avg # of iterations =  3.0

     negative rho (up, down):  6.551E-02 5.847E-02

     total cpu time spent up to now is    12366.6 secs

     total energy              =   -5521.14507562 Ry
     estimated scf accuracy    <       5.89349174 Ry

     total magnetization       =     8.55 Bohr mag/cell
     absolute magnetization    =    12.54 Bohr mag/cell

     iteration # 35     ecut=    60.00 Ry     beta= 0.50
     CG style diagonalization

---- Real-time Memory Report at c_bands before calling an iterative solver
           447 MiB given to the printing process from OS
           280 MiB allocation reported by mallinfo(arena+hblkhd)
        447085 MiB available memory on the node where the printing process lives
------------------
     ethr =  3.14E-04,  avg # of iterations =  3.0

     negative rho (up, down):  7.014E-02 6.417E-02

     total cpu time spent up to now is    12642.8 secs

     total energy              =   -5521.21790590 Ry
     estimated scf accuracy    <       0.22021824 Ry

     total magnetization       =     8.21 Bohr mag/cell
     absolute magnetization    =    15.96 Bohr mag/cell

     iteration # 36     ecut=    60.00 Ry     beta= 0.50
     CG style diagonalization

---- Real-time Memory Report at c_bands before calling an iterative solver
           447 MiB given to the printing process from OS
           280 MiB allocation reported by mallinfo(arena+hblkhd)
        447092 MiB available memory on the node where the printing process lives
------------------
     ethr =  7.52E-05,  avg # of iterations =  3.1

     negative rho (up, down):  7.138E-02 6.423E-02

     total cpu time spent up to now is    12930.1 secs

     total energy              =   -5521.21503879 Ry
     estimated scf accuracy    <       0.50767152 Ry

     total magnetization       =     8.21 Bohr mag/cell
     absolute magnetization    =    15.38 Bohr mag/cell

     iteration # 37     ecut=    60.00 Ry     beta= 0.50
     CG style diagonalization

---- Real-time Memory Report at c_bands before calling an iterative solver
           447 MiB given to the printing process from OS
           280 MiB allocation reported by mallinfo(arena+hblkhd)
        447100 MiB available memory on the node where the printing process lives
------------------
     ethr =  7.52E-05,  avg # of iterations =  3.0

     negative rho (up, down):  7.035E-02 6.308E-02

     total cpu time spent up to now is    13208.1 secs

     total energy              =   -5521.21299791 Ry
     estimated scf accuracy    <       0.25266057 Ry

     total magnetization       =     8.19 Bohr mag/cell
     absolute magnetization    =    15.93 Bohr mag/cell

     iteration # 38     ecut=    60.00 Ry     beta= 0.50
     CG style diagonalization

---- Real-time Memory Report at c_bands before calling an iterative solver
           447 MiB given to the printing process from OS
           280 MiB allocation reported by mallinfo(arena+hblkhd)
        447117 MiB available memory on the node where the printing process lives
------------------
     ethr =  7.52E-05,  avg # of iterations =  3.0

     negative rho (up, down):  6.976E-02 6.101E-02

     total cpu time spent up to now is    13486.1 secs

     total energy              =   -5521.22069171 Ry
     estimated scf accuracy    <       0.27045880 Ry

     total magnetization       =     8.17 Bohr mag/cell
     absolute magnetization    =    15.98 Bohr mag/cell

     iteration # 39     ecut=    60.00 Ry     beta= 0.50
     CG style diagonalization

---- Real-time Memory Report at c_bands before calling an iterative solver
           447 MiB given to the printing process from OS
           280 MiB allocation reported by mallinfo(arena+hblkhd)
        447097 MiB available memory on the node where the printing process lives
------------------
     ethr =  7.52E-05,  avg # of iterations =  3.0

     negative rho (up, down):  5.551E-02 5.063E-02

     total cpu time spent up to now is    13763.1 secs

     total energy              =   -5521.22255950 Ry
     estimated scf accuracy    <       0.31400650 Ry

     total magnetization       =     8.17 Bohr mag/cell
     absolute magnetization    =    15.91 Bohr mag/cell

     iteration # 40     ecut=    60.00 Ry     beta= 0.50
     CG style diagonalization

---- Real-time Memory Report at c_bands before calling an iterative solver
           447 MiB given to the printing process from OS
           280 MiB allocation reported by mallinfo(arena+hblkhd)
        447100 MiB available memory on the node where the printing process lives
------------------
     ethr =  7.52E-05,  avg # of iterations =  3.0

     negative rho (up, down):  4.542E-02 4.177E-02

     total cpu time spent up to now is    14043.7 secs

     total energy              =   -5521.27890847 Ry
     estimated scf accuracy    <      13.73768878 Ry

     total magnetization       =     8.87 Bohr mag/cell
     absolute magnetization    =    10.96 Bohr mag/cell

     iteration # 41     ecut=    60.00 Ry     beta= 0.50
     CG style diagonalization

---- Real-time Memory Report at c_bands before calling an iterative solver
           447 MiB given to the printing process from OS
           280 MiB allocation reported by mallinfo(arena+hblkhd)
        447105 MiB available memory on the node where the printing process lives
------------------
     ethr =  7.52E-05,  avg # of iterations =  3.0

     negative rho (up, down):  3.566E-02 3.202E-02

     total cpu time spent up to now is    14319.7 secs

     total energy              =   -5521.25094471 Ry
     estimated scf accuracy    <      13.14918175 Ry

     total magnetization       =     8.84 Bohr mag/cell
     absolute magnetization    =    10.98 Bohr mag/cell

     iteration # 42     ecut=    60.00 Ry     beta= 0.50
     CG style diagonalization

---- Real-time Memory Report at c_bands before calling an iterative solver
           447 MiB given to the printing process from OS
           280 MiB allocation reported by mallinfo(arena+hblkhd)
        447108 MiB available memory on the node where the printing process lives
------------------
     ethr =  7.52E-05,  avg # of iterations =  3.0

     negative rho (up, down):  3.519E-02 3.153E-02

     total cpu time spent up to now is    14595.3 secs

     total energy              =   -5521.25094142 Ry
     estimated scf accuracy    <      10.38038515 Ry

     total magnetization       =     8.79 Bohr mag/cell
     absolute magnetization    =    11.61 Bohr mag/cell

     iteration # 43     ecut=    60.00 Ry     beta= 0.50
     CG style diagonalization

---- Real-time Memory Report at c_bands before calling an iterative solver
           447 MiB given to the printing process from OS
           280 MiB allocation reported by mallinfo(arena+hblkhd)
        447107 MiB available memory on the node where the printing process lives
------------------
     ethr =  7.52E-05,  avg # of iterations =  3.0

     negative rho (up, down):  3.312E-02 2.911E-02

     total cpu time spent up to now is    14871.7 secs

     total energy              =   -5521.26109599 Ry
     estimated scf accuracy    <      10.12891826 Ry

     total magnetization       =     8.79 Bohr mag/cell
     absolute magnetization    =    11.68 Bohr mag/cell

     iteration # 44     ecut=    60.00 Ry     beta= 0.50
     CG style diagonalization

---- Real-time Memory Report at c_bands before calling an iterative solver
           447 MiB given to the printing process from OS
           280 MiB allocation reported by mallinfo(arena+hblkhd)
        447089 MiB available memory on the node where the printing process lives
------------------
     ethr =  7.52E-05,  avg # of iterations =  3.0

     negative rho (up, down):  4.804E-02 3.621E-02

     total cpu time spent up to now is    15146.9 secs

     total energy              =   -5521.02586267 Ry
     estimated scf accuracy    <      11.82279864 Ry

     total magnetization       =     8.80 Bohr mag/cell
     absolute magnetization    =    11.24 Bohr mag/cell

     iteration # 45     ecut=    60.00 Ry     beta= 0.50
     CG style diagonalization

---- Real-time Memory Report at c_bands before calling an iterative solver
           447 MiB given to the printing process from OS
           280 MiB allocation reported by mallinfo(arena+hblkhd)
        447098 MiB available memory on the node where the printing process lives
------------------
     ethr =  7.52E-05,  avg # of iterations =  3.1

     negative rho (up, down):  5.246E-02 4.001E-02

     total cpu time spent up to now is    15429.1 secs

     total energy              =   -5521.20924346 Ry
     estimated scf accuracy    <       0.14624827 Ry

     total magnetization       =     8.33 Bohr mag/cell
     absolute magnetization    =    16.25 Bohr mag/cell

     iteration # 46     ecut=    60.00 Ry     beta= 0.50
     CG style diagonalization

---- Real-time Memory Report at c_bands before calling an iterative solver
           447 MiB given to the printing process from OS
           280 MiB allocation reported by mallinfo(arena+hblkhd)
        447106 MiB available memory on the node where the printing process lives
------------------
     ethr =  4.99E-05,  avg # of iterations =  3.0

     negative rho (up, down):  3.223E-02 2.153E-02

     total cpu time spent up to now is    15710.3 secs

     total energy              =   -5521.20592648 Ry
     estimated scf accuracy    <       0.07298954 Ry

     total magnetization       =     8.29 Bohr mag/cell
     absolute magnetization    =    16.19 Bohr mag/cell

     iteration # 47     ecut=    60.00 Ry     beta= 0.50
     CG style diagonalization

---- Real-time Memory Report at c_bands before calling an iterative solver
           447 MiB given to the printing process from OS
           280 MiB allocation reported by mallinfo(arena+hblkhd)
        447116 MiB available memory on the node where the printing process lives
------------------
     c_bands:  1 eigenvalues not converged
     c_bands:  1 eigenvalues not converged
     c_bands:  1 eigenvalues not converged
     ethr =  2.49E-05,  avg # of iterations =  3.1

     negative rho (up, down):  6.221E-03 3.692E-03

     total cpu time spent up to now is    16000.5 secs

     total energy              =   -5521.20045893 Ry
     estimated scf accuracy    <       0.05040535 Ry

     total magnetization       =     8.28 Bohr mag/cell
     absolute magnetization    =    16.19 Bohr mag/cell

     iteration # 48     ecut=    60.00 Ry     beta= 0.50
     CG style diagonalization

---- Real-time Memory Report at c_bands before calling an iterative solver
           447 MiB given to the printing process from OS
           280 MiB allocation reported by mallinfo(arena+hblkhd)
        447126 MiB available memory on the node where the printing process lives
------------------
     c_bands:  1 eigenvalues not converged
     c_bands:  1 eigenvalues not converged
     c_bands:  1 eigenvalues not converged
     c_bands:  1 eigenvalues not converged
     ethr =  1.72E-05,  avg # of iterations =  3.2

     negative rho (up, down):  1.761E-03 8.711E-04

     total cpu time spent up to now is    16316.6 secs

     total energy              =   -5521.19761633 Ry
     estimated scf accuracy    <       0.03291895 Ry

     total magnetization       =     8.28 Bohr mag/cell
     absolute magnetization    =    16.14 Bohr mag/cell

     iteration # 49     ecut=    60.00 Ry     beta= 0.50
     CG style diagonalization

---- Real-time Memory Report at c_bands before calling an iterative solver
           447 MiB given to the printing process from OS
           280 MiB allocation reported by mallinfo(arena+hblkhd)
        447126 MiB available memory on the node where the printing process lives
------------------
     c_bands:  1 eigenvalues not converged
     c_bands:  1 eigenvalues not converged
     c_bands:  1 eigenvalues not converged
     c_bands:  1 eigenvalues not converged
     c_bands:  1 eigenvalues not converged
     ethr =  1.12E-05,  avg # of iterations =  3.1

     negative rho (up, down):  1.588E-03 8.688E-04

     total cpu time spent up to now is    16608.5 secs

     total energy              =   -5521.19931591 Ry
     estimated scf accuracy    <       0.01995593 Ry

     total magnetization       =     8.25 Bohr mag/cell
     absolute magnetization    =    16.10 Bohr mag/cell

     iteration # 50     ecut=    60.00 Ry     beta= 0.50
     CG style diagonalization

---- Real-time Memory Report at c_bands before calling an iterative solver
           447 MiB given to the printing process from OS
           280 MiB allocation reported by mallinfo(arena+hblkhd)
        447117 MiB available memory on the node where the printing process lives
------------------
     c_bands:  1 eigenvalues not converged
     c_bands:  1 eigenvalues not converged
     c_bands:  1 eigenvalues not converged
     c_bands:  1 eigenvalues not converged
     ethr =  6.81E-06,  avg # of iterations =  3.1

     negative rho (up, down):  1.381E-03 6.963E-04

     total cpu time spent up to now is    16896.5 secs

     total energy              =   -5521.20050938 Ry
     estimated scf accuracy    <       0.03057321 Ry

     total magnetization       =     8.25 Bohr mag/cell
     absolute magnetization    =    16.10 Bohr mag/cell

     iteration # 51     ecut=    60.00 Ry     beta= 0.50
     CG style diagonalization

---- Real-time Memory Report at c_bands before calling an iterative solver
           447 MiB given to the printing process from OS
           280 MiB allocation reported by mallinfo(arena+hblkhd)
        447048 MiB available memory on the node where the printing process lives
------------------
     c_bands:  1 eigenvalues not converged
     ethr =  6.81E-06,  avg # of iterations =  3.0

     negative rho (up, down):  4.512E-03 1.383E-03

     total cpu time spent up to now is    17175.8 secs

     total energy              =   -5521.20298696 Ry
     estimated scf accuracy    <       0.03824337 Ry

     total magnetization       =     8.27 Bohr mag/cell
     absolute magnetization    =    16.11 Bohr mag/cell

     iteration # 52     ecut=    60.00 Ry     beta= 0.50
     CG style diagonalization

---- Real-time Memory Report at c_bands before calling an iterative solver
           447 MiB given to the printing process from OS
           280 MiB allocation reported by mallinfo(arena+hblkhd)
        447084 MiB available memory on the node where the printing process lives
------------------
     ethr =  6.81E-06,  avg # of iterations =  3.0

     negative rho (up, down):  8.220E-03 1.716E-03

     total cpu time spent up to now is    17457.5 secs

     total energy              =   -5521.20485498 Ry
     estimated scf accuracy    <       0.04066533 Ry

     total magnetization       =     8.26 Bohr mag/cell
     absolute magnetization    =    16.10 Bohr mag/cell

     iteration # 53     ecut=    60.00 Ry     beta= 0.50
     CG style diagonalization

---- Real-time Memory Report at c_bands before calling an iterative solver
           447 MiB given to the printing process from OS
           280 MiB allocation reported by mallinfo(arena+hblkhd)
        447095 MiB available memory on the node where the printing process lives
------------------
     ethr =  6.81E-06,  avg # of iterations =  3.1

     negative rho (up, down):  1.245E-02 1.488E-03

     total cpu time spent up to now is    17739.6 secs

     total energy              =   -5521.20599296 Ry
     estimated scf accuracy    <       0.03767697 Ry

     total magnetization       =     8.25 Bohr mag/cell
     absolute magnetization    =    16.08 Bohr mag/cell

     iteration # 54     ecut=    60.00 Ry     beta= 0.50
     CG style diagonalization

---- Real-time Memory Report at c_bands before calling an iterative solver
           447 MiB given to the printing process from OS
           280 MiB allocation reported by mallinfo(arena+hblkhd)
        447105 MiB available memory on the node where the printing process lives
------------------
     ethr =  6.81E-06,  avg # of iterations =  3.1

     negative rho (up, down):  1.383E-02 2.569E-03

     total cpu time spent up to now is    18021.7 secs

     total energy              =   -5521.21054139 Ry
     estimated scf accuracy    <       0.03851407 Ry

     total magnetization       =     8.23 Bohr mag/cell
     absolute magnetization    =    16.07 Bohr mag/cell

     iteration # 55     ecut=    60.00 Ry     beta= 0.50
     CG style diagonalization

---- Real-time Memory Report at c_bands before calling an iterative solver
           447 MiB given to the printing process from OS
           280 MiB allocation reported by mallinfo(arena+hblkhd)
        447109 MiB available memory on the node where the printing process lives
------------------
     c_bands:  1 eigenvalues not converged
     ethr =  6.81E-06,  avg # of iterations =  3.2

     negative rho (up, down):  1.337E-02 4.429E-03

     total cpu time spent up to now is    18318.0 secs

     total energy              =   -5521.18365851 Ry
     estimated scf accuracy    <       1.72640746 Ry

     total magnetization       =     8.44 Bohr mag/cell
     absolute magnetization    =    14.42 Bohr mag/cell

     iteration # 56     ecut=    60.00 Ry     beta= 0.50
     CG style diagonalization

---- Real-time Memory Report at c_bands before calling an iterative solver
           447 MiB given to the printing process from OS
           280 MiB allocation reported by mallinfo(arena+hblkhd)
        447109 MiB available memory on the node where the printing process lives
------------------
     c_bands:  1 eigenvalues not converged
     c_bands:  1 eigenvalues not converged
     ethr =  6.81E-06,  avg # of iterations =  3.1

     negative rho (up, down):  1.336E-02 5.563E-03

     total cpu time spent up to now is    18610.3 secs

     total energy              =   -5521.20737936 Ry
     estimated scf accuracy    <       0.03988539 Ry

     total magnetization       =     8.26 Bohr mag/cell
     absolute magnetization    =    16.09 Bohr mag/cell

     iteration # 57     ecut=    60.00 Ry     beta= 0.50
     CG style diagonalization

---- Real-time Memory Report at c_bands before calling an iterative solver
           447 MiB given to the printing process from OS
           280 MiB allocation reported by mallinfo(arena+hblkhd)
        447114 MiB available memory on the node where the printing process lives
------------------
     c_bands:  1 eigenvalues not converged
     ethr =  6.81E-06,  avg # of iterations =  3.0

     negative rho (up, down):  1.299E-02 7.046E-03

     total cpu time spent up to now is    18889.2 secs

     total energy              =   -5521.20809556 Ry
     estimated scf accuracy    <       0.05714449 Ry

     total magnetization       =     8.26 Bohr mag/cell
     absolute magnetization    =    16.05 Bohr mag/cell

     iteration # 58     ecut=    60.00 Ry     beta= 0.50
     CG style diagonalization

---- Real-time Memory Report at c_bands before calling an iterative solver
           447 MiB given to the printing process from OS
           280 MiB allocation reported by mallinfo(arena+hblkhd)
        447121 MiB available memory on the node where the printing process lives
------------------
     ethr =  6.81E-06,  avg # of iterations =  3.0

     negative rho (up, down):  1.177E-02 7.982E-03

     total cpu time spent up to now is    19176.1 secs

     total energy              =   -5521.20890090 Ry
     estimated scf accuracy    <       0.06180655 Ry

     total magnetization       =     8.26 Bohr mag/cell
     absolute magnetization    =    16.03 Bohr mag/cell

     iteration # 59     ecut=    60.00 Ry     beta= 0.50
     CG style diagonalization

---- Real-time Memory Report at c_bands before calling an iterative solver
           447 MiB given to the printing process from OS
           280 MiB allocation reported by mallinfo(arena+hblkhd)
        447118 MiB available memory on the node where the printing process lives
------------------
     ethr =  6.81E-06,  avg # of iterations =  3.0

     negative rho (up, down):  9.472E-03 6.930E-03

     total cpu time spent up to now is    19455.1 secs

     total energy              =   -5521.21148361 Ry
     estimated scf accuracy    <       0.09168723 Ry

     total magnetization       =     8.28 Bohr mag/cell
     absolute magnetization    =    15.95 Bohr mag/cell

     iteration # 60     ecut=    60.00 Ry     beta= 0.50
     CG style diagonalization

---- Real-time Memory Report at c_bands before calling an iterative solver
           447 MiB given to the printing process from OS
           280 MiB allocation reported by mallinfo(arena+hblkhd)
        447119 MiB available memory on the node where the printing process lives
------------------
     ethr =  6.81E-06,  avg # of iterations =  3.1

     negative rho (up, down):  9.406E-03 6.814E-03

     total cpu time spent up to now is    19742.7 secs

     total energy              =   -5521.20910796 Ry
     estimated scf accuracy    <       0.76298144 Ry

     total magnetization       =     8.37 Bohr mag/cell
     absolute magnetization    =    15.09 Bohr mag/cell

     iteration # 61     ecut=    60.00 Ry     beta= 0.50
     CG style diagonalization

---- Real-time Memory Report at c_bands before calling an iterative solver
           447 MiB given to the printing process from OS
           280 MiB allocation reported by mallinfo(arena+hblkhd)
        447126 MiB available memory on the node where the printing process lives
------------------
     ethr =  6.81E-06,  avg # of iterations =  3.0

     negative rho (up, down):  6.991E-03 5.474E-03

     total cpu time spent up to now is    20019.7 secs

     total energy              =   -5521.21002335 Ry
     estimated scf accuracy    <       0.19144972 Ry

     total magnetization       =     8.30 Bohr mag/cell
     absolute magnetization    =    15.75 Bohr mag/cell

     iteration # 62     ecut=    60.00 Ry     beta= 0.50
     CG style diagonalization

---- Real-time Memory Report at c_bands before calling an iterative solver
           447 MiB given to the printing process from OS
           280 MiB allocation reported by mallinfo(arena+hblkhd)
        447118 MiB available memory on the node where the printing process lives
------------------
     ethr =  6.81E-06,  avg # of iterations =  3.0

     negative rho (up, down):  4.527E-03 4.111E-03

     total cpu time spent up to now is    20296.3 secs

     total energy              =   -5521.20960407 Ry
     estimated scf accuracy    <       0.17415434 Ry

     total magnetization       =     8.30 Bohr mag/cell
     absolute magnetization    =    15.79 Bohr mag/cell

     iteration # 63     ecut=    60.00 Ry     beta= 0.50
     CG style diagonalization

---- Real-time Memory Report at c_bands before calling an iterative solver
           447 MiB given to the printing process from OS
           280 MiB allocation reported by mallinfo(arena+hblkhd)
        447121 MiB available memory on the node where the printing process lives
------------------
     ethr =  6.81E-06,  avg # of iterations =  3.0

     negative rho (up, down):  4.156E-03 4.005E-03

     total cpu time spent up to now is    20576.7 secs

     total energy              =   -5521.20910879 Ry
     estimated scf accuracy    <       0.13293936 Ry

     total magnetization       =     8.30 Bohr mag/cell
     absolute magnetization    =    15.88 Bohr mag/cell

     iteration # 64     ecut=    60.00 Ry     beta= 0.50
     CG style diagonalization

---- Real-time Memory Report at c_bands before calling an iterative solver
           447 MiB given to the printing process from OS
           280 MiB allocation reported by mallinfo(arena+hblkhd)
        447104 MiB available memory on the node where the printing process lives
------------------
     ethr =  6.81E-06,  avg # of iterations =  3.0

     negative rho (up, down):  4.223E-03 4.169E-03

     total cpu time spent up to now is    20853.4 secs

     total energy              =   -5521.20887305 Ry
     estimated scf accuracy    <       0.09170309 Ry

     total magnetization       =     8.28 Bohr mag/cell
     absolute magnetization    =    15.96 Bohr mag/cell

     iteration # 65     ecut=    60.00 Ry     beta= 0.50
     CG style diagonalization

---- Real-time Memory Report at c_bands before calling an iterative solver
           447 MiB given to the printing process from OS
           280 MiB allocation reported by mallinfo(arena+hblkhd)
        447118 MiB available memory on the node where the printing process lives
------------------
     ethr =  6.81E-06,  avg # of iterations =  3.0

     negative rho (up, down):  4.285E-03 4.164E-03

     total cpu time spent up to now is    21130.6 secs

     total energy              =   -5521.20865439 Ry
     estimated scf accuracy    <       0.07960646 Ry

     total magnetization       =     8.28 Bohr mag/cell
     absolute magnetization    =    15.99 Bohr mag/cell

     iteration # 66     ecut=    60.00 Ry     beta= 0.50
     CG style diagonalization

---- Real-time Memory Report at c_bands before calling an iterative solver
           447 MiB given to the printing process from OS
           280 MiB allocation reported by mallinfo(arena+hblkhd)
        447123 MiB available memory on the node where the printing process lives
------------------
     ethr =  6.81E-06,  avg # of iterations =  3.0

     negative rho (up, down):  3.822E-03 3.751E-03

     total cpu time spent up to now is    21408.4 secs

     total energy              =   -5521.20810885 Ry
     estimated scf accuracy    <       0.06800489 Ry

     total magnetization       =     8.28 Bohr mag/cell
     absolute magnetization    =    16.02 Bohr mag/cell

     iteration # 67     ecut=    60.00 Ry     beta= 0.50
     CG style diagonalization

---- Real-time Memory Report at c_bands before calling an iterative solver
           447 MiB given to the printing process from OS
           280 MiB allocation reported by mallinfo(arena+hblkhd)
        447122 MiB available memory on the node where the printing process lives
------------------
     ethr =  6.81E-06,  avg # of iterations =  3.0

     negative rho (up, down):  2.889E-03 2.837E-03

     total cpu time spent up to now is    21684.5 secs

     total energy              =   -5521.20841251 Ry
     estimated scf accuracy    <       0.05326372 Ry

     total magnetization       =     8.28 Bohr mag/cell
     absolute magnetization    =    16.07 Bohr mag/cell

     iteration # 68     ecut=    60.00 Ry     beta= 0.50
     CG style diagonalization

---- Real-time Memory Report at c_bands before calling an iterative solver
           447 MiB given to the printing process from OS
           280 MiB allocation reported by mallinfo(arena+hblkhd)
        447121 MiB available memory on the node where the printing process lives
------------------
     ethr =  6.81E-06,  avg # of iterations =  3.0

     negative rho (up, down):  1.570E-03 1.543E-03

     total cpu time spent up to now is    21961.6 secs

     total energy              =   -5521.20836379 Ry
     estimated scf accuracy    <       0.06077059 Ry

     total magnetization       =     8.28 Bohr mag/cell
     absolute magnetization    =    16.05 Bohr mag/cell

     iteration # 69     ecut=    60.00 Ry     beta= 0.50
     CG style diagonalization

---- Real-time Memory Report at c_bands before calling an iterative solver
           447 MiB given to the printing process from OS
           280 MiB allocation reported by mallinfo(arena+hblkhd)
        447134 MiB available memory on the node where the printing process lives
------------------
     ethr =  6.81E-06,  avg # of iterations =  3.0

     negative rho (up, down):  9.664E-04 9.348E-04

     total cpu time spent up to now is    22242.3 secs

     total energy              =   -5521.20737780 Ry
     estimated scf accuracy    <       0.06080403 Ry

     total magnetization       =     8.27 Bohr mag/cell
     absolute magnetization    =    16.05 Bohr mag/cell

     iteration # 70     ecut=    60.00 Ry     beta= 0.50
     CG style diagonalization

---- Real-time Memory Report at c_bands before calling an iterative solver
           447 MiB given to the printing process from OS
           280 MiB allocation reported by mallinfo(arena+hblkhd)
        447134 MiB available memory on the node where the printing process lives
------------------
     ethr =  6.81E-06,  avg # of iterations =  3.0

     negative rho (up, down):  6.704E-04 5.354E-04

     total cpu time spent up to now is    22522.8 secs

     total energy              =   -5521.20696192 Ry
     estimated scf accuracy    <       0.04393074 Ry

     total magnetization       =     8.26 Bohr mag/cell
     absolute magnetization    =    16.10 Bohr mag/cell

     iteration # 71     ecut=    60.00 Ry     beta= 0.50
     CG style diagonalization

---- Real-time Memory Report at c_bands before calling an iterative solver
           447 MiB given to the printing process from OS
           280 MiB allocation reported by mallinfo(arena+hblkhd)
        447132 MiB available memory on the node where the printing process lives
------------------
     ethr =  6.81E-06,  avg # of iterations =  3.0

     negative rho (up, down):  7.382E-04 4.598E-04

     total cpu time spent up to now is    22800.6 secs

     total energy              =   -5521.20643954 Ry
     estimated scf accuracy    <       0.04024606 Ry

     total magnetization       =     8.26 Bohr mag/cell
     absolute magnetization    =    16.11 Bohr mag/cell

     iteration # 72     ecut=    60.00 Ry     beta= 0.50
     CG style diagonalization

---- Real-time Memory Report at c_bands before calling an iterative solver
           447 MiB given to the printing process from OS
           280 MiB allocation reported by mallinfo(arena+hblkhd)
        447130 MiB available memory on the node where the printing process lives
------------------
     ethr =  6.81E-06,  avg # of iterations =  3.0

     negative rho (up, down):  5.856E-04 2.699E-04

     total cpu time spent up to now is    23076.2 secs

     total energy              =   -5521.20610229 Ry
     estimated scf accuracy    <       0.03712262 Ry

     total magnetization       =     8.26 Bohr mag/cell
     absolute magnetization    =    16.11 Bohr mag/cell

     iteration # 73     ecut=    60.00 Ry     beta= 0.50
     CG style diagonalization

---- Real-time Memory Report at c_bands before calling an iterative solver
           447 MiB given to the printing process from OS
           280 MiB allocation reported by mallinfo(arena+hblkhd)
        447127 MiB available memory on the node where the printing process lives
------------------
     ethr =  6.81E-06,  avg # of iterations =  3.0

     negative rho (up, down):  7.991E-04 4.580E-04

     total cpu time spent up to now is    23351.7 secs

     total energy              =   -5521.20586629 Ry
     estimated scf accuracy    <       0.03607912 Ry

     total magnetization       =     8.26 Bohr mag/cell
     absolute magnetization    =    16.11 Bohr mag/cell

     iteration # 74     ecut=    60.00 Ry     beta= 0.50
     CG style diagonalization

---- Real-time Memory Report at c_bands before calling an iterative solver
           447 MiB given to the printing process from OS
           280 MiB allocation reported by mallinfo(arena+hblkhd)
        447127 MiB available memory on the node where the printing process lives
------------------
     ethr =  6.81E-06,  avg # of iterations =  3.0

     negative rho (up, down):  7.662E-04 4.562E-04

     total cpu time spent up to now is    23636.1 secs

     total energy              =   -5521.20600829 Ry
     estimated scf accuracy    <       0.03521726 Ry

     total magnetization       =     8.26 Bohr mag/cell
     absolute magnetization    =    16.11 Bohr mag/cell

     iteration # 75     ecut=    60.00 Ry     beta= 0.50
     CG style diagonalization

---- Real-time Memory Report at c_bands before calling an iterative solver
           447 MiB given to the printing process from OS
           280 MiB allocation reported by mallinfo(arena+hblkhd)
        447120 MiB available memory on the node where the printing process lives
------------------
     ethr =  6.81E-06,  avg # of iterations =  3.0

     negative rho (up, down):  8.484E-04 5.417E-04

     total cpu time spent up to now is    23911.8 secs

     total energy              =   -5521.20598009 Ry
     estimated scf accuracy    <       0.03558898 Ry

     total magnetization       =     8.26 Bohr mag/cell
     absolute magnetization    =    16.11 Bohr mag/cell

     iteration # 76     ecut=    60.00 Ry     beta= 0.50
     CG style diagonalization

---- Real-time Memory Report at c_bands before calling an iterative solver
           447 MiB given to the printing process from OS
           280 MiB allocation reported by mallinfo(arena+hblkhd)
        447129 MiB available memory on the node where the printing process lives
------------------
     ethr =  6.81E-06,  avg # of iterations =  3.0

     negative rho (up, down):  9.571E-04 6.506E-04

     total cpu time spent up to now is    24199.5 secs

     total energy              =   -5521.20590538 Ry
     estimated scf accuracy    <       0.03549961 Ry

     total magnetization       =     8.26 Bohr mag/cell
     absolute magnetization    =    16.11 Bohr mag/cell

     iteration # 77     ecut=    60.00 Ry     beta= 0.50
     CG style diagonalization

---- Real-time Memory Report at c_bands before calling an iterative solver
           447 MiB given to the printing process from OS
           280 MiB allocation reported by mallinfo(arena+hblkhd)
        447103 MiB available memory on the node where the printing process lives
------------------
     ethr =  6.81E-06,  avg # of iterations =  3.0

     negative rho (up, down):  1.008E-03 7.090E-04

     total cpu time spent up to now is    24475.2 secs

     total energy              =   -5521.20607217 Ry
     estimated scf accuracy    <       0.03523805 Ry

     total magnetization       =     8.26 Bohr mag/cell
     absolute magnetization    =    16.11 Bohr mag/cell

     iteration # 78     ecut=    60.00 Ry     beta= 0.50
     CG style diagonalization

---- Real-time Memory Report at c_bands before calling an iterative solver
           447 MiB given to the printing process from OS
           280 MiB allocation reported by mallinfo(arena+hblkhd)
        447112 MiB available memory on the node where the printing process lives
------------------
     ethr =  6.81E-06,  avg # of iterations =  3.0

     negative rho (up, down):  1.076E-03 7.348E-04

     total cpu time spent up to now is    24751.6 secs

     total energy              =   -5521.20613956 Ry
     estimated scf accuracy    <       0.03562901 Ry

     total magnetization       =     8.26 Bohr mag/cell
     absolute magnetization    =    16.11 Bohr mag/cell

     iteration # 79     ecut=    60.00 Ry     beta= 0.50
     CG style diagonalization

---- Real-time Memory Report at c_bands before calling an iterative solver
           447 MiB given to the printing process from OS
           280 MiB allocation reported by mallinfo(arena+hblkhd)
        447119 MiB available memory on the node where the printing process lives
------------------
     ethr =  6.81E-06,  avg # of iterations =  3.0

     negative rho (up, down):  8.587E-04 5.370E-04

     total cpu time spent up to now is    25027.0 secs

     total energy              =   -5521.20591203 Ry
     estimated scf accuracy    <       0.03582221 Ry

     total magnetization       =     8.26 Bohr mag/cell
     absolute magnetization    =    16.11 Bohr mag/cell

     iteration # 80     ecut=    60.00 Ry     beta= 0.50
     CG style diagonalization

---- Real-time Memory Report at c_bands before calling an iterative solver
           447 MiB given to the printing process from OS
           280 MiB allocation reported by mallinfo(arena+hblkhd)
        447124 MiB available memory on the node where the printing process lives
------------------
     ethr =  6.81E-06,  avg # of iterations =  3.0

     negative rho (up, down):  8.408E-04 5.286E-04

     total cpu time spent up to now is    25312.9 secs

     total energy              =   -5521.20585326 Ry
     estimated scf accuracy    <       0.03511341 Ry

     total magnetization       =     8.26 Bohr mag/cell
     absolute magnetization    =    16.11 Bohr mag/cell

     iteration # 81     ecut=    60.00 Ry     beta= 0.50
     CG style diagonalization

---- Real-time Memory Report at c_bands before calling an iterative solver
           447 MiB given to the printing process from OS
           280 MiB allocation reported by mallinfo(arena+hblkhd)
        447132 MiB available memory on the node where the printing process lives
------------------
     ethr =  6.81E-06,  avg # of iterations =  3.0

     negative rho (up, down):  2.377E-03 1.310E-03

     total cpu time spent up to now is    25596.2 secs

     total energy              =   -5521.20366128 Ry
     estimated scf accuracy    <       0.03491398 Ry

     total magnetization       =     8.26 Bohr mag/cell
     absolute magnetization    =    16.11 Bohr mag/cell

     iteration # 82     ecut=    60.00 Ry     beta= 0.50
     CG style diagonalization

---- Real-time Memory Report at c_bands before calling an iterative solver
           447 MiB given to the printing process from OS
           280 MiB allocation reported by mallinfo(arena+hblkhd)
        447099 MiB available memory on the node where the printing process lives
------------------
     c_bands:  1 eigenvalues not converged
     ethr =  6.81E-06,  avg # of iterations =  3.1

     negative rho (up, down):  8.562E-04 5.191E-04

     total cpu time spent up to now is    25880.7 secs

     total energy              =   -5521.20632498 Ry
     estimated scf accuracy    <       0.02964431 Ry

     total magnetization       =     8.26 Bohr mag/cell
     absolute magnetization    =    16.12 Bohr mag/cell

     iteration # 83     ecut=    60.00 Ry     beta= 0.50
     CG style diagonalization

---- Real-time Memory Report at c_bands before calling an iterative solver
           447 MiB given to the printing process from OS
           280 MiB allocation reported by mallinfo(arena+hblkhd)
        447099 MiB available memory on the node where the printing process lives
------------------
     c_bands:  1 eigenvalues not converged
     ethr =  6.81E-06,  avg # of iterations =  3.1

     negative rho (up, down):  8.345E-04 4.310E-04

     total cpu time spent up to now is    26164.4 secs

     total energy              =   -5521.20304497 Ry
     estimated scf accuracy    <       0.03600321 Ry

     total magnetization       =     8.26 Bohr mag/cell
     absolute magnetization    =    16.11 Bohr mag/cell

     iteration # 84     ecut=    60.00 Ry     beta= 0.50
     CG style diagonalization

---- Real-time Memory Report at c_bands before calling an iterative solver
           447 MiB given to the printing process from OS
           280 MiB allocation reported by mallinfo(arena+hblkhd)
        447081 MiB available memory on the node where the printing process lives
------------------
     ethr =  6.81E-06,  avg # of iterations =  3.0

     negative rho (up, down):  1.445E-03 8.681E-04

     total cpu time spent up to now is    26443.3 secs

     total energy              =   -5521.20114838 Ry
     estimated scf accuracy    <       0.02846096 Ry

     total magnetization       =     8.26 Bohr mag/cell
     absolute magnetization    =    16.12 Bohr mag/cell

     iteration # 85     ecut=    60.00 Ry     beta= 0.50
     CG style diagonalization

---- Real-time Memory Report at c_bands before calling an iterative solver
           447 MiB given to the printing process from OS
           280 MiB allocation reported by mallinfo(arena+hblkhd)
        447076 MiB available memory on the node where the printing process lives
------------------
     ethr =  6.81E-06,  avg # of iterations =  3.0

     negative rho (up, down):  1.018E-03 5.717E-04

     total cpu time spent up to now is    26724.7 secs

     total energy              =   -5521.20421751 Ry
     estimated scf accuracy    <       0.02515825 Ry

     total magnetization       =     8.26 Bohr mag/cell
     absolute magnetization    =    16.13 Bohr mag/cell

     iteration # 86     ecut=    60.00 Ry     beta= 0.50
     CG style diagonalization

---- Real-time Memory Report at c_bands before calling an iterative solver
           447 MiB given to the printing process from OS
           280 MiB allocation reported by mallinfo(arena+hblkhd)
        447086 MiB available memory on the node where the printing process lives
------------------
     ethr =  6.81E-06,  avg # of iterations =  3.0

     negative rho (up, down):  1.592E-03 7.408E-04

     total cpu time spent up to now is    27009.0 secs

     total energy              =   -5521.20030451 Ry
     estimated scf accuracy    <       0.03116237 Ry

     total magnetization       =     8.26 Bohr mag/cell
     absolute magnetization    =    16.12 Bohr mag/cell

     iteration # 87     ecut=    60.00 Ry     beta= 0.50
     CG style diagonalization

---- Real-time Memory Report at c_bands before calling an iterative solver
           447 MiB given to the printing process from OS
           280 MiB allocation reported by mallinfo(arena+hblkhd)
        447077 MiB available memory on the node where the printing process lives
------------------
     ethr =  6.81E-06,  avg # of iterations =  3.1

     negative rho (up, down):  4.578E-03 3.432E-03

     total cpu time spent up to now is    27291.8 secs

     total energy              =   -5521.19465446 Ry
     estimated scf accuracy    <       0.02275301 Ry

     total magnetization       =     8.25 Bohr mag/cell
     absolute magnetization    =    16.12 Bohr mag/cell

     iteration # 88     ecut=    60.00 Ry     beta= 0.50
     CG style diagonalization

---- Real-time Memory Report at c_bands before calling an iterative solver
           447 MiB given to the printing process from OS
           280 MiB allocation reported by mallinfo(arena+hblkhd)
        447075 MiB available memory on the node where the printing process lives
------------------
     c_bands:  1 eigenvalues not converged
     c_bands:  1 eigenvalues not converged
     c_bands:  1 eigenvalues not converged
     c_bands:  1 eigenvalues not converged
     c_bands:  1 eigenvalues not converged
     c_bands:  2 eigenvalues not converged
     ethr =  6.81E-06,  avg # of iterations =  3.2

     negative rho (up, down):  3.625E-03 2.369E-03

     total cpu time spent up to now is    27595.5 secs

     total energy              =   -5521.19666320 Ry
     estimated scf accuracy    <       0.01248439 Ry

     total magnetization       =     8.24 Bohr mag/cell
     absolute magnetization    =    16.11 Bohr mag/cell

     iteration # 89     ecut=    60.00 Ry     beta= 0.50
     CG style diagonalization

---- Real-time Memory Report at c_bands before calling an iterative solver
           447 MiB given to the printing process from OS
           280 MiB allocation reported by mallinfo(arena+hblkhd)
        447083 MiB available memory on the node where the printing process lives
------------------
     c_bands:  1 eigenvalues not converged
     c_bands:  2 eigenvalues not converged
     c_bands:  1 eigenvalues not converged
     ethr =  4.26E-06,  avg # of iterations =  3.1

     negative rho (up, down):  4.219E-03 2.840E-03

     total cpu time spent up to now is    27882.9 secs

     total energy              =   -5521.19573069 Ry
     estimated scf accuracy    <       0.01569466 Ry

     total magnetization       =     8.25 Bohr mag/cell
     absolute magnetization    =    16.12 Bohr mag/cell

     iteration # 90     ecut=    60.00 Ry     beta= 0.50
     CG style diagonalization

---- Real-time Memory Report at c_bands before calling an iterative solver
           447 MiB given to the printing process from OS
           280 MiB allocation reported by mallinfo(arena+hblkhd)
        447087 MiB available memory on the node where the printing process lives
------------------
     c_bands:  1 eigenvalues not converged
     c_bands:  1 eigenvalues not converged
     ethr =  4.26E-06,  avg # of iterations =  3.0

     negative rho (up, down):  3.638E-03 2.429E-03

     total cpu time spent up to now is    28164.3 secs

     total energy              =   -5521.19505321 Ry
     estimated scf accuracy    <       0.01440258 Ry

     total magnetization       =     8.25 Bohr mag/cell
     absolute magnetization    =    16.12 Bohr mag/cell

     iteration # 91     ecut=    60.00 Ry     beta= 0.50
     CG style diagonalization

---- Real-time Memory Report at c_bands before calling an iterative solver
           447 MiB given to the printing process from OS
           280 MiB allocation reported by mallinfo(arena+hblkhd)
        447091 MiB available memory on the node where the printing process lives
------------------
     ethr =  4.26E-06,  avg # of iterations =  3.0

     negative rho (up, down):  3.637E-03 2.411E-03

     total cpu time spent up to now is    28446.0 secs

     total energy              =   -5521.19531506 Ry
     estimated scf accuracy    <       0.01299554 Ry

     total magnetization       =     8.26 Bohr mag/cell
     absolute magnetization    =    16.14 Bohr mag/cell

     iteration # 92     ecut=    60.00 Ry     beta= 0.50
     CG style diagonalization

---- Real-time Memory Report at c_bands before calling an iterative solver
           447 MiB given to the printing process from OS
           280 MiB allocation reported by mallinfo(arena+hblkhd)
        447097 MiB available memory on the node where the printing process lives
------------------
     ethr =  4.26E-06,  avg # of iterations =  3.0

     negative rho (up, down):  6.082E-03 4.922E-03

     total cpu time spent up to now is    28722.1 secs

     total energy              =   -5521.18816941 Ry
     estimated scf accuracy    <       0.01343172 Ry

     total magnetization       =     8.26 Bohr mag/cell
     absolute magnetization    =    16.14 Bohr mag/cell

     iteration # 93     ecut=    60.00 Ry     beta= 0.50
     CG style diagonalization

---- Real-time Memory Report at c_bands before calling an iterative solver
           447 MiB given to the printing process from OS
           280 MiB allocation reported by mallinfo(arena+hblkhd)
        447107 MiB available memory on the node where the printing process lives
------------------
     c_bands:  1 eigenvalues not converged
     c_bands:  1 eigenvalues not converged
     c_bands:  1 eigenvalues not converged
     c_bands:  1 eigenvalues not converged
     c_bands:  1 eigenvalues not converged
     c_bands:  2 eigenvalues not converged
     c_bands:  1 eigenvalues not converged
     ethr =  4.26E-06,  avg # of iterations =  3.3

     negative rho (up, down):  6.035E-03 4.889E-03

     total cpu time spent up to now is    29038.2 secs

     total energy              =   -5521.18798772 Ry
     estimated scf accuracy    <       0.00253809 Ry

     total magnetization       =     8.27 Bohr mag/cell
     absolute magnetization    =    16.17 Bohr mag/cell

     iteration # 94     ecut=    60.00 Ry     beta= 0.50
     CG style diagonalization

---- Real-time Memory Report at c_bands before calling an iterative solver
           447 MiB given to the printing process from OS
           280 MiB allocation reported by mallinfo(arena+hblkhd)
        447109 MiB available memory on the node where the printing process lives
------------------
     c_bands:  2 eigenvalues not converged
     c_bands:  1 eigenvalues not converged
     c_bands:  1 eigenvalues not converged
     c_bands:  1 eigenvalues not converged
     c_bands:  1 eigenvalues not converged
     c_bands:  1 eigenvalues not converged
     c_bands:  1 eigenvalues not converged
     c_bands:  1 eigenvalues not converged
     ethr =  8.66E-07,  avg # of iterations =  3.2

     negative rho (up, down):  6.324E-03 5.329E-03

     total cpu time spent up to now is    29342.3 secs

     total energy              =   -5521.18800421 Ry
     estimated scf accuracy    <       0.00096648 Ry

     total magnetization       =     8.27 Bohr mag/cell
     absolute magnetization    =    16.16 Bohr mag/cell

     iteration # 95     ecut=    60.00 Ry     beta= 0.50
     CG style diagonalization

---- Real-time Memory Report at c_bands before calling an iterative solver
           447 MiB given to the printing process from OS
           280 MiB allocation reported by mallinfo(arena+hblkhd)
        447116 MiB available memory on the node where the printing process lives
------------------
     c_bands:  1 eigenvalues not converged
     c_bands:  1 eigenvalues not converged
     c_bands:  1 eigenvalues not converged
     ethr =  3.30E-07,  avg # of iterations =  3.1

     negative rho (up, down):  6.190E-03 4.964E-03

     total cpu time spent up to now is    29629.2 secs

     total energy              =   -5521.18817449 Ry
     estimated scf accuracy    <       0.00129807 Ry

     total magnetization       =     8.27 Bohr mag/cell
     absolute magnetization    =    16.16 Bohr mag/cell

     iteration # 96     ecut=    60.00 Ry     beta= 0.50
     CG style diagonalization

---- Real-time Memory Report at c_bands before calling an iterative solver
           447 MiB given to the printing process from OS
           280 MiB allocation reported by mallinfo(arena+hblkhd)
        447114 MiB available memory on the node where the printing process lives
------------------
     c_bands:  1 eigenvalues not converged
     ethr =  3.30E-07,  avg # of iterations =  3.1

     negative rho (up, down):  6.748E-03 5.583E-03

     total cpu time spent up to now is    29915.3 secs

     total energy              =   -5521.18772756 Ry
     estimated scf accuracy    <       0.00162673 Ry

     total magnetization       =     8.27 Bohr mag/cell
     absolute magnetization    =    16.16 Bohr mag/cell

     iteration # 97     ecut=    60.00 Ry     beta= 0.50
     CG style diagonalization

---- Real-time Memory Report at c_bands before calling an iterative solver
           447 MiB given to the printing process from OS
           280 MiB allocation reported by mallinfo(arena+hblkhd)
        447114 MiB available memory on the node where the printing process lives
------------------
     c_bands:  1 eigenvalues not converged
     ethr =  3.30E-07,  avg # of iterations =  3.1

     negative rho (up, down):  7.774E-03 6.710E-03

     total cpu time spent up to now is    30207.0 secs

     total energy              =   -5521.18763269 Ry
     estimated scf accuracy    <       0.00072296 Ry

     total magnetization       =     8.27 Bohr mag/cell
     absolute magnetization    =    16.16 Bohr mag/cell

     iteration # 98     ecut=    60.00 Ry     beta= 0.50
     CG style diagonalization

---- Real-time Memory Report at c_bands before calling an iterative solver
           447 MiB given to the printing process from OS
           280 MiB allocation reported by mallinfo(arena+hblkhd)
        447118 MiB available memory on the node where the printing process lives
------------------
     c_bands:  1 eigenvalues not converged
     c_bands:  1 eigenvalues not converged
     c_bands:  1 eigenvalues not converged
     c_bands:  1 eigenvalues not converged
     c_bands:  1 eigenvalues not converged
     ethr =  2.47E-07,  avg # of iterations =  3.2

     negative rho (up, down):  7.852E-03 6.605E-03

     total cpu time spent up to now is    30506.1 secs

     total energy              =   -5521.18779283 Ry
     estimated scf accuracy    <       0.00078351 Ry

     total magnetization       =     8.27 Bohr mag/cell
     absolute magnetization    =    16.16 Bohr mag/cell

     iteration # 99     ecut=    60.00 Ry     beta= 0.50
     CG style diagonalization

---- Real-time Memory Report at c_bands before calling an iterative solver
           447 MiB given to the printing process from OS
           280 MiB allocation reported by mallinfo(arena+hblkhd)
        447123 MiB available memory on the node where the printing process lives
------------------
     ethr =  2.47E-07,  avg # of iterations =  3.1

     negative rho (up, down):  8.445E-03 7.048E-03

     total cpu time spent up to now is    30800.7 secs

     total energy              =   -5521.18769452 Ry
     estimated scf accuracy    <       0.00099828 Ry

     total magnetization       =     8.27 Bohr mag/cell
     absolute magnetization    =    16.17 Bohr mag/cell

     iteration #100     ecut=    60.00 Ry     beta= 0.50
     CG style diagonalization

---- Real-time Memory Report at c_bands before calling an iterative solver
           447 MiB given to the printing process from OS
           280 MiB allocation reported by mallinfo(arena+hblkhd)
        447105 MiB available memory on the node where the printing process lives
------------------
     c_bands:  1 eigenvalues not converged
     ethr =  2.47E-07,  avg # of iterations =  3.1

     negative rho (up, down):  5.337E-03 4.281E-03

     total cpu time spent up to now is    31096.1 secs

     total energy              =   -5521.18766302 Ry
     estimated scf accuracy    <       0.00026369 Ry

     total magnetization       =     8.28 Bohr mag/cell
     absolute magnetization    =    16.17 Bohr mag/cell

     iteration #101     ecut=    60.00 Ry     beta= 0.50
     CG style diagonalization

---- Real-time Memory Report at c_bands before calling an iterative solver
           447 MiB given to the printing process from OS
           280 MiB allocation reported by mallinfo(arena+hblkhd)
        447115 MiB available memory on the node where the printing process lives
------------------
     ethr =  9.00E-08,  avg # of iterations =  3.1

     negative rho (up, down):  3.645E-03 2.881E-03

     total cpu time spent up to now is    31402.4 secs

     total energy              =   -5521.18768467 Ry
     estimated scf accuracy    <       0.00035300 Ry

     total magnetization       =     8.27 Bohr mag/cell
     absolute magnetization    =    16.17 Bohr mag/cell

     iteration #102     ecut=    60.00 Ry     beta= 0.50
     CG style diagonalization

---- Real-time Memory Report at c_bands before calling an iterative solver
           447 MiB given to the printing process from OS
           280 MiB allocation reported by mallinfo(arena+hblkhd)
        447078 MiB available memory on the node where the printing process lives
------------------
     ethr =  9.00E-08,  avg # of iterations =  3.1

     negative rho (up, down):  2.916E-03 2.458E-03

     total cpu time spent up to now is    31701.9 secs

     total energy              =   -5521.18767972 Ry
     estimated scf accuracy    <       0.00009259 Ry

     total magnetization       =     8.27 Bohr mag/cell
     absolute magnetization    =    16.17 Bohr mag/cell

     iteration #103     ecut=    60.00 Ry     beta= 0.50
     CG style diagonalization

---- Real-time Memory Report at c_bands before calling an iterative solver
           447 MiB given to the printing process from OS
           280 MiB allocation reported by mallinfo(arena+hblkhd)
        447061 MiB available memory on the node where the printing process lives
------------------
     ethr =  3.16E-08,  avg # of iterations =  3.1

     negative rho (up, down):  2.558E-03 2.009E-03

     total cpu time spent up to now is    31987.5 secs

     total energy              =   -5521.18767799 Ry
     estimated scf accuracy    <       0.00002055 Ry

     total magnetization       =     8.27 Bohr mag/cell
     absolute magnetization    =    16.17 Bohr mag/cell

     iteration #104     ecut=    60.00 Ry     beta= 0.50
     CG style diagonalization

---- Real-time Memory Report at c_bands before calling an iterative solver
           447 MiB given to the printing process from OS
           280 MiB allocation reported by mallinfo(arena+hblkhd)
        447095 MiB available memory on the node where the printing process lives
------------------
     ethr =  7.01E-09,  avg # of iterations =  3.1

     negative rho (up, down):  1.672E-03 1.408E-03

     total cpu time spent up to now is    32280.9 secs

     total energy              =   -5521.18767322 Ry
     estimated scf accuracy    <       0.00002024 Ry

     total magnetization       =     8.27 Bohr mag/cell
     absolute magnetization    =    16.17 Bohr mag/cell

     iteration #105     ecut=    60.00 Ry     beta= 0.50
     CG style diagonalization

---- Real-time Memory Report at c_bands before calling an iterative solver
           447 MiB given to the printing process from OS
           280 MiB allocation reported by mallinfo(arena+hblkhd)
        447102 MiB available memory on the node where the printing process lives
------------------
     ethr =  6.91E-09,  avg # of iterations =  3.1

     negative rho (up, down):  1.092E-03 9.929E-04

     total cpu time spent up to now is    32565.7 secs

     total energy              =   -5521.18767420 Ry
     estimated scf accuracy    <       0.00006767 Ry

     total magnetization       =     8.27 Bohr mag/cell
     absolute magnetization    =    16.17 Bohr mag/cell

     iteration #106     ecut=    60.00 Ry     beta= 0.50
     CG style diagonalization

---- Real-time Memory Report at c_bands before calling an iterative solver
           447 MiB given to the printing process from OS
           280 MiB allocation reported by mallinfo(arena+hblkhd)
        447122 MiB available memory on the node where the printing process lives
------------------
     ethr =  6.91E-09,  avg # of iterations =  3.1

     negative rho (up, down):  7.647E-04 7.274E-04

     total cpu time spent up to now is    32851.1 secs

     total energy              =   -5521.18767105 Ry
     estimated scf accuracy    <       0.00001724 Ry

     total magnetization       =     8.27 Bohr mag/cell
     absolute magnetization    =    16.16 Bohr mag/cell

     iteration #107     ecut=    60.00 Ry     beta= 0.50
     CG style diagonalization

---- Real-time Memory Report at c_bands before calling an iterative solver
           447 MiB given to the printing process from OS
           280 MiB allocation reported by mallinfo(arena+hblkhd)
        447106 MiB available memory on the node where the printing process lives
------------------
     ethr =  5.88E-09,  avg # of iterations =  3.0

     negative rho (up, down):  3.863E-04 3.739E-04

     total cpu time spent up to now is    33130.3 secs

     total energy              =   -5521.18767375 Ry
     estimated scf accuracy    <       0.00000556 Ry

     total magnetization       =     8.27 Bohr mag/cell
     absolute magnetization    =    16.16 Bohr mag/cell

     iteration #108     ecut=    60.00 Ry     beta= 0.50
     CG style diagonalization

---- Real-time Memory Report at c_bands before calling an iterative solver
           447 MiB given to the printing process from OS
           280 MiB allocation reported by mallinfo(arena+hblkhd)
        447117 MiB available memory on the node where the printing process lives
------------------
     ethr =  1.90E-09,  avg # of iterations =  3.1

     negative rho (up, down):  3.911E-04 3.746E-04

     total cpu time spent up to now is    33411.8 secs

     total energy              =   -5521.18767518 Ry
     estimated scf accuracy    <       0.00000591 Ry

     total magnetization       =     8.27 Bohr mag/cell
     absolute magnetization    =    16.16 Bohr mag/cell

     iteration #109     ecut=    60.00 Ry     beta= 0.50
     CG style diagonalization

---- Real-time Memory Report at c_bands before calling an iterative solver
           447 MiB given to the printing process from OS
           280 MiB allocation reported by mallinfo(arena+hblkhd)
        447119 MiB available memory on the node where the printing process lives
------------------
     c_bands:  1 eigenvalues not converged
     ethr =  1.90E-09,  avg # of iterations =  3.0

     negative rho (up, down):  3.346E-04 3.157E-04

     total cpu time spent up to now is    33689.8 secs

     total energy              =   -5521.18767589 Ry
     estimated scf accuracy    <       0.00000208 Ry

     total magnetization       =     8.27 Bohr mag/cell
     absolute magnetization    =    16.16 Bohr mag/cell

     iteration #110     ecut=    60.00 Ry     beta= 0.50
     CG style diagonalization

---- Real-time Memory Report at c_bands before calling an iterative solver
           447 MiB given to the printing process from OS
           280 MiB allocation reported by mallinfo(arena+hblkhd)
        447116 MiB available memory on the node where the printing process lives
------------------
     ethr =  7.09E-10,  avg # of iterations =  3.0

     negative rho (up, down):  2.494E-04 2.350E-04

     Magnetic moment per site  (integrated on atomic sphere of radius R)
     atom   1 (R=0.204)  charge= 16.5666  magn=  0.7830
     atom   2 (R=0.204)  charge= 16.5669  magn=  0.7830
     atom   3 (R=0.204)  charge= 16.5669  magn=  0.7830
     atom   4 (R=0.204)  charge= 16.5668  magn=  0.7837
     atom   5 (R=0.204)  charge= 16.6504  magn=  0.7281
     atom   6 (R=0.204)  charge= 16.6504  magn=  0.7281
     atom   7 (R=0.204)  charge= 16.6504  magn=  0.7281
     atom   8 (R=0.204)  charge= 16.6504  magn=  0.7281
     atom   9 (R=0.204)  charge= 16.6354  magn=  0.7286
     atom  10 (R=0.204)  charge= 16.6376  magn=  0.7261
     atom  11 (R=0.204)  charge= 16.6376  magn=  0.7261
     atom  12 (R=0.204)  charge= 16.6421  magn=  0.7252
     atom  13 (R=0.204)  charge= 16.5533  magn=  0.7876
     atom  14 (R=0.204)  charge= 16.5533  magn=  0.7876
     atom  15 (R=0.204)  charge= 16.5533  magn=  0.7876
     atom  16 (R=0.204)  charge= 16.5533  magn=  0.7876
     atom  17 (R=0.413)  charge=  4.9798  magn= -2.9754

     total cpu time spent up to now is    33967.9 secs

     End of self-consistent calculation

 ------ SPIN UP ------------


          k = 0.0000 0.0000 0.0000 ( 33665 PWs)   bands (ev):

  -102.0812-102.0684-102.0684-102.0585-102.0453-102.0314-102.0292-102.0194
  -101.6919-101.6822-101.6818-101.6746-101.6720-101.6646-101.6646-101.6545
   -62.5211 -62.5114 -62.5064 -62.5064 -62.5013 -62.4929 -62.4929 -62.4575
   -62.4316 -62.4316 -62.4259 -62.4217 -62.4217 -62.4133 -62.4133 -62.4087
   -62.3912 -62.3912 -62.3758 -62.3733 -62.3458 -62.3458 -62.3338 -62.3338
   -62.1915 -62.1915 -62.1836 -62.1836 -62.1776 -62.1750 -62.1684 -62.1684
   -62.0913 -62.0913 -62.0834 -62.0834 -62.0751 -62.0751 -62.0695 -62.0658
   -61.9315 -61.9230 -61.9229 -61.9163 -61.9118 -61.9029 -61.9029 -61.8952
    -8.8484  -6.5337  -4.8404  -3.0020  -2.7991  -2.7991  -2.7636  -2.7606
    -2.6646  -2.5481  -2.5025  -2.1718  -2.1359  -2.1359  -2.0298  -2.0283
    -1.9672  -1.9672  -1.8138  -1.7809  -1.6319  -1.3275  -1.3275  -1.0991
    -0.8792  -0.8792  -0.8632  -0.8613  -0.7966  -0.7599  -0.7599  -0.7505
    -0.7409  -0.4894  -0.4894  -0.4739  -0.4739  -0.4712  -0.4681  -0.4474
    -0.4440  -0.4274  -0.4274  -0.2435  -0.2435   0.0256   0.0356   0.0376
     0.0376   0.0472   0.1059   0.1348   0.1348   0.3021   0.5036   0.6227
     0.6276   0.6680   0.6680   0.6807   0.6817   0.6817   0.6823   0.6991
     0.7050   0.7722   0.7801   0.7801   0.7819   0.7819   0.9971   0.9997
     1.0037   1.0072   1.0083   1.0126   1.0126   1.0842   1.1143   1.1143
     1.1871   1.2165   1.4624   1.4816   1.7794   2.2717   2.2717   2.2761
     2.2791   2.3697   2.5099   2.5099   2.6566   2.6566   2.6723   2.6761
     3.3811   5.2181   5.2181   5.9870   6.1356   6.1549   6.1549   6.1790
     6.1793   6.8130   7.4389   7.5404   7.5404   8.8736   8.9229   8.9229

     occupation numbers 
     1.0000   1.0000   1.0000   1.0000   1.0000   1.0000   1.0000   1.0000
     1.0000   1.0000   1.0000   1.0000   1.0000   1.0000   1.0000   1.0000
     1.0000   1.0000   1.0000   1.0000   1.0000   1.0000   1.0000   1.0000
     1.0000   1.0000   1.0000   1.0000   1.0000   1.0000   1.0000   1.0000
     1.0000   1.0000   1.0000   1.0000   1.0000   1.0000   1.0000   1.0000
     1.0000   1.0000   1.0000   1.0000   1.0000   1.0000   1.0000   1.0000
     1.0000   1.0000   1.0000   1.0000   1.0000   1.0000   1.0000   1.0000
     1.0000   1.0000   1.0000   1.0000   1.0000   1.0000   1.0000   1.0000
     1.0000   1.0000   1.0000   1.0000   1.0000   1.0000   1.0000   1.0000
     1.0000   1.0000   1.0000   1.0000   1.0000   1.0000   1.0000   1.0000
     1.0000   1.0000   1.0000   1.0000   1.0000   1.0000   1.0000   1.0000
     1.0000   1.0000   1.0000   1.0000   1.0000   1.0000   1.0000   1.0000
     1.0000   1.0000   1.0000   1.0000   1.0000   1.0000   1.0000   1.0000
     1.0000   1.0000   1.0000   1.0000   1.0000   1.0000   1.0000   1.0000
     1.0000   1.0000   1.0000   1.0000   1.0000   1.0000   1.0000   1.0000
     1.0000   1.0000   1.0000   1.0000   1.0000   1.0000   1.0000   1.0000
     1.0000   1.0000   1.0000   1.0000   1.0000   1.0000   1.0000   1.0000
     1.0000   1.0000   1.0000   1.0000   1.0000   1.0000   1.0000   1.0000
     1.0000   1.0000   0.9964   0.9947   0.3268   0.0000   0.0000   0.0000
     0.0000   0.0000   0.0000   0.0000   0.0000   0.0000   0.0000   0.0000
     0.0000   0.0000   0.0000   0.0000   0.0000   0.0000   0.0000   0.0000
     0.0000   0.0000   0.0000   0.0000   0.0000   0.0000   0.0000   0.0000

          k = 0.0000 0.1250 0.0000 ( 33695 PWs)   bands (ev):

  -102.0807-102.0689-102.0680-102.0589-102.0452-102.0313-102.0292-102.0197
  -101.6915-101.6824-101.6816-101.6742-101.6724-101.6650-101.6642-101.6549
   -62.5196 -62.5094 -62.5054 -62.5047 -62.4996 -62.4919 -62.4904 -62.4594
   -62.4317 -62.4305 -62.4247 -62.4216 -62.4205 -62.4145 -62.4128 -62.4090
   -62.3920 -62.3906 -62.3785 -62.3748 -62.3496 -62.3457 -62.3377 -62.3338
   -62.1912 -62.1878 -62.1838 -62.1799 -62.1764 -62.1721 -62.1687 -62.1647
   -62.0952 -62.0910 -62.0872 -62.0836 -62.0790 -62.0748 -62.0722 -62.0671
   -61.9312 -61.9233 -61.9227 -61.9165 -61.9114 -61.9032 -61.9026 -61.8955
    -8.8472  -6.4352  -4.7500  -3.0327  -2.9233  -2.7678  -2.7378  -2.7030
    -2.6067  -2.5155  -2.4709  -2.1661  -2.1413  -2.1133  -2.1123  -1.9899
    -1.9298  -1.8256  -1.7785  -1.7467  -1.6087  -1.3272  -1.3202  -1.0856
    -1.0389  -0.9259  -0.9110  -0.7952  -0.7874  -0.7871  -0.7754  -0.7517
    -0.6842  -0.5637  -0.5380  -0.5085  -0.4916  -0.4757  -0.4601  -0.4495
    -0.4151  -0.4061  -0.3891  -0.2688  -0.2651  -0.1427   0.0454   0.0565
     0.0633   0.0903   0.0957   0.1160   0.3069   0.3827   0.4458   0.4566
     0.4954   0.5076   0.6019   0.6031   0.6085   0.6359   0.6523   0.6936
     0.7574   0.7607   0.7987   0.8578   0.8689   0.8692   0.9429   0.9437
     0.9605   0.9650   0.9760   0.9763   0.9821   1.0460   1.0618   1.1196
     1.1284   1.1466   1.3821   1.3992   1.4448   1.7179   1.9871   2.3860
     2.4710   2.5034   2.5068   2.5143   2.7482   2.7510   2.7702   3.6090
     3.7613   5.0186   5.0187   6.0901   6.1653   6.2231   6.2420   6.2489
     6.4897   6.9183   7.1858   7.1868   7.5206   8.5467   8.7160   8.9842

     occupation numbers 
     1.0000   1.0000   1.0000   1.0000   1.0000   1.0000   1.0000   1.0000
     1.0000   1.0000   1.0000   1.0000   1.0000   1.0000   1.0000   1.0000
     1.0000   1.0000   1.0000   1.0000   1.0000   1.0000   1.0000   1.0000
     1.0000   1.0000   1.0000   1.0000   1.0000   1.0000   1.0000   1.0000
     1.0000   1.0000   1.0000   1.0000   1.0000   1.0000   1.0000   1.0000
     1.0000   1.0000   1.0000   1.0000   1.0000   1.0000   1.0000   1.0000
     1.0000   1.0000   1.0000   1.0000   1.0000   1.0000   1.0000   1.0000
     1.0000   1.0000   1.0000   1.0000   1.0000   1.0000   1.0000   1.0000
     1.0000   1.0000   1.0000   1.0000   1.0000   1.0000   1.0000   1.0000
     1.0000   1.0000   1.0000   1.0000   1.0000   1.0000   1.0000   1.0000
     1.0000   1.0000   1.0000   1.0000   1.0000   1.0000   1.0000   1.0000
     1.0000   1.0000   1.0000   1.0000   1.0000   1.0000   1.0000   1.0000
     1.0000   1.0000   1.0000   1.0000   1.0000   1.0000   1.0000   1.0000
     1.0000   1.0000   1.0000   1.0000   1.0000   1.0000   1.0000   1.0000
     1.0000   1.0000   1.0000   1.0000   1.0000   1.0000   1.0000   1.0000
     1.0000   1.0000   1.0000   1.0000   1.0000   1.0000   1.0000   1.0000
     1.0000   1.0000   1.0000   1.0000   1.0000   1.0000   1.0000   1.0000
     1.0000   1.0000   1.0000   1.0000   1.0000   1.0000   1.0000   1.0000
     1.0000   1.0000   0.9993   0.9990   0.9975   0.6241   0.0076   0.0000
     0.0000   0.0000   0.0000   0.0000   0.0000   0.0000   0.0000   0.0000
     0.0000   0.0000   0.0000   0.0000   0.0000   0.0000   0.0000   0.0000
     0.0000   0.0000   0.0000   0.0000   0.0000   0.0000   0.0000   0.0000

          k = 0.0000 0.2500 0.0000 ( 33669 PWs)   bands (ev):

  -102.0793-102.0703-102.0670-102.0599-102.0447-102.0313-102.0288-102.0205
  -101.6904-101.6834-101.6805-101.6734-101.6732-101.6660-101.6631-101.6560
   -62.5163 -62.5059 -62.5026 -62.5004 -62.4938 -62.4893 -62.4843 -62.4625
   -62.4298 -62.4295 -62.4277 -62.4205 -62.4178 -62.4157 -62.4112 -62.4052
   -62.3941 -62.3898 -62.3869 -62.3770 -62.3604 -62.3485 -62.3455 -62.3337
   -62.1904 -62.1845 -62.1772 -62.1751 -62.1695 -62.1691 -62.1618 -62.1540
   -62.1062 -62.0982 -62.0903 -62.0899 -62.0843 -62.0825 -62.0740 -62.0685
   -61.9302 -61.9241 -61.9220 -61.9172 -61.9104 -61.9041 -61.9018 -61.8964
    -8.8443  -6.1442  -4.4881  -3.6020  -2.8939  -2.7141  -2.5696  -2.5416
    -2.4460  -2.4216  -2.3810  -2.2037  -2.0669  -2.0518  -2.0511  -1.9186
    -1.8632  -1.7640  -1.6794  -1.6484  -1.5337  -1.3296  -1.3023  -1.2280
    -1.0826  -1.0713  -1.0430  -0.8284  -0.8058  -0.8055  -0.7749  -0.6938
    -0.6457  -0.6408  -0.6159  -0.5561  -0.5071  -0.4449  -0.4304  -0.4241
    -0.3914  -0.3706  -0.3560  -0.3350  -0.3298  -0.3094   0.0295   0.0507
     0.0745   0.0830   0.0916   0.1376   0.1623   0.3231   0.3899   0.3943
     0.3998   0.4247   0.4816   0.4914   0.5199   0.5258   0.5273   0.5603
     0.6627   0.6727   0.8104   0.8220   0.8262   0.8326   0.8403   0.8602
     0.8763   0.8863   0.8870   0.9306   1.0049   1.0055   1.0151   1.0302
     1.0318   1.0693   1.1358   1.1444   1.2230   1.2274   2.3087   2.3684
     2.4324   2.5207   2.5581   2.8653   2.8722   3.1889   3.1946   4.1811
     4.5667   4.5682   4.7233   6.3875   6.4254   6.4285   6.4293   6.4364
     6.4581   6.5540   6.9692   7.2318   7.7654   8.4645   8.8065   8.8293

     occupation numbers 
     1.0000   1.0000   1.0000   1.0000   1.0000   1.0000   1.0000   1.0000
     1.0000   1.0000   1.0000   1.0000   1.0000   1.0000   1.0000   1.0000
     1.0000   1.0000   1.0000   1.0000   1.0000   1.0000   1.0000   1.0000
     1.0000   1.0000   1.0000   1.0000   1.0000   1.0000   1.0000   1.0000
     1.0000   1.0000   1.0000   1.0000   1.0000   1.0000   1.0000   1.0000
     1.0000   1.0000   1.0000   1.0000   1.0000   1.0000   1.0000   1.0000
     1.0000   1.0000   1.0000   1.0000   1.0000   1.0000   1.0000   1.0000
     1.0000   1.0000   1.0000   1.0000   1.0000   1.0000   1.0000   1.0000
     1.0000   1.0000   1.0000   1.0000   1.0000   1.0000   1.0000   1.0000
     1.0000   1.0000   1.0000   1.0000   1.0000   1.0000   1.0000   1.0000
     1.0000   1.0000   1.0000   1.0000   1.0000   1.0000   1.0000   1.0000
     1.0000   1.0000   1.0000   1.0000   1.0000   1.0000   1.0000   1.0000
     1.0000   1.0000   1.0000   1.0000   1.0000   1.0000   1.0000   1.0000
     1.0000   1.0000   1.0000   1.0000   1.0000   1.0000   1.0000   1.0000
     1.0000   1.0000   1.0000   1.0000   1.0000   1.0000   1.0000   1.0000
     1.0000   1.0000   1.0000   1.0000   1.0000   1.0000   1.0000   1.0000
     1.0000   1.0000   1.0000   1.0000   1.0000   1.0000   1.0000   1.0000
     1.0000   1.0000   1.0000   1.0000   1.0000   1.0000   1.0000   1.0000
     1.0000   1.0000   1.0000   1.0000   1.0000   1.0000   0.0000   0.0000
     0.0000   0.0000   0.0000   0.0000   0.0000   0.0000   0.0000   0.0000
     0.0000   0.0000   0.0000   0.0000   0.0000   0.0000   0.0000   0.0000
     0.0000   0.0000   0.0000   0.0000   0.0000   0.0000   0.0000   0.0000

          k = 0.0000 0.3750 0.0000 ( 33614 PWs)   bands (ev):

  -102.0773-102.0724-102.0653-102.0615-102.0443-102.0315-102.0279-102.0216
  -101.6888-101.6850-101.6789-101.6751-101.6716-101.6676-101.6616-101.6575
   -62.5124 -62.5057 -62.4982 -62.4946 -62.4913 -62.4826 -62.4782 -62.4586
   -62.4415 -62.4323 -62.4257 -62.4169 -62.4169 -62.4095 -62.4050 -62.4003
   -62.3972 -62.3965 -62.3861 -62.3799 -62.3757 -62.3642 -62.3453 -62.3336
   -62.1893 -62.1854 -62.1737 -62.1706 -62.1613 -62.1531 -62.1460 -62.1382
   -62.1226 -62.1145 -62.1061 -62.0984 -62.0894 -62.0852 -62.0728 -62.0698
   -61.9288 -61.9254 -61.9209 -61.9183 -61.9090 -61.9055 -61.9006 -61.8976
    -8.8414  -5.6744  -4.3325  -4.0841  -3.1753  -2.4492  -2.3478  -2.3311
    -2.2847  -2.2543  -2.2250  -2.1980  -2.0296  -1.9929  -1.9318  -1.8943
    -1.8737  -1.8362  -1.5522  -1.5169  -1.4450  -1.3754  -1.3009  -1.2795
    -1.2533  -1.2469  -0.9883  -0.8760  -0.8730  -0.8423  -0.8191  -0.7042
    -0.6927  -0.6395  -0.6032  -0.5889  -0.5397  -0.4683  -0.4312  -0.4080
    -0.3998  -0.3996  -0.3668  -0.2942  -0.1854  -0.1854  -0.1834  -0.0993
    -0.0669  -0.0552   0.0250   0.0583   0.1497   0.1656   0.2326   0.3306
     0.3324   0.3637   0.4086   0.4223   0.4233   0.4394   0.4439   0.4598
     0.4681   0.5775   0.5834   0.5840   0.6578   0.7731   0.7895   0.8148
     0.8282   0.8340   0.8627   0.9578   0.9686   0.9984   1.0482   1.0611
     1.0646   1.0775   1.1163   1.1250   1.1255   1.1312   1.9229   2.2962
     2.3822   2.5285   3.0975   3.1988   3.2086   3.9134   3.9186   4.0656
     4.0706   4.4412   4.9325   5.5809   5.5886   6.6812   6.7723   6.8066
     6.8705   7.0489   7.6066   7.7437   7.9482   7.9806   8.1702   8.3813

     occupation numbers 
     1.0000   1.0000   1.0000   1.0000   1.0000   1.0000   1.0000   1.0000
     1.0000   1.0000   1.0000   1.0000   1.0000   1.0000   1.0000   1.0000
     1.0000   1.0000   1.0000   1.0000   1.0000   1.0000   1.0000   1.0000
     1.0000   1.0000   1.0000   1.0000   1.0000   1.0000   1.0000   1.0000
     1.0000   1.0000   1.0000   1.0000   1.0000   1.0000   1.0000   1.0000
     1.0000   1.0000   1.0000   1.0000   1.0000   1.0000   1.0000   1.0000
     1.0000   1.0000   1.0000   1.0000   1.0000   1.0000   1.0000   1.0000
     1.0000   1.0000   1.0000   1.0000   1.0000   1.0000   1.0000   1.0000
     1.0000   1.0000   1.0000   1.0000   1.0000   1.0000   1.0000   1.0000
     1.0000   1.0000   1.0000   1.0000   1.0000   1.0000   1.0000   1.0000
     1.0000   1.0000   1.0000   1.0000   1.0000   1.0000   1.0000   1.0000
     1.0000   1.0000   1.0000   1.0000   1.0000   1.0000   1.0000   1.0000
     1.0000   1.0000   1.0000   1.0000   1.0000   1.0000   1.0000   1.0000
     1.0000   1.0000   1.0000   1.0000   1.0000   1.0000   1.0000   1.0000
     1.0000   1.0000   1.0000   1.0000   1.0000   1.0000   1.0000   1.0000
     1.0000   1.0000   1.0000   1.0000   1.0000   1.0000   1.0000   1.0000
     1.0000   1.0000   1.0000   1.0000   1.0000   1.0000   1.0000   1.0000
     1.0000   1.0000   1.0000   1.0000   1.0000   1.0000   1.0000   1.0000
     1.0000   1.0000   1.0000   1.0000   1.0000   1.0000   0.0268   0.0000
     0.0000   0.0000   0.0000   0.0000   0.0000   0.0000   0.0000   0.0000
     0.0000   0.0000   0.0000   0.0000   0.0000   0.0000   0.0000   0.0000
     0.0000   0.0000   0.0000   0.0000   0.0000   0.0000   0.0000   0.0000

          k = 0.0000-0.5000 0.0000 ( 33596 PWs)   bands (ev):

  -102.0749-102.0748-102.0635-102.0634-102.0441-102.0316-102.0274-102.0221
  -101.6871-101.6868-101.6771-101.6768-101.6702-101.6689-101.6602-101.6589
   -62.5097 -62.5072 -62.4950 -62.4927 -62.4896 -62.4863 -62.4646 -62.4555
   -62.4518 -62.4366 -62.4237 -62.4166 -62.4111 -62.4099 -62.4025 -62.4010
   -62.3983 -62.3878 -62.3833 -62.3829 -62.3824 -62.3809 -62.3453 -62.3336
   -62.1887 -62.1859 -62.1725 -62.1718 -62.1444 -62.1397 -62.1364 -62.1314
   -62.1312 -62.1235 -62.1210 -62.1131 -62.0889 -62.0857 -62.0717 -62.0709
   -61.9274 -61.9267 -61.9200 -61.9192 -61.9078 -61.9067 -61.8995 -61.8987
    -8.8401  -5.0537  -5.0532  -3.6308  -3.5867  -2.2612  -2.2589  -2.1944
    -2.1914  -2.1898  -2.1880  -2.0220  -2.0178  -2.0072  -2.0010  -1.9680
    -1.9498  -1.6936  -1.6743  -1.4469  -1.4323  -1.4029  -1.3852  -1.1450
    -1.1324  -1.1319  -1.0870  -1.0757  -1.0454  -0.9172  -0.9079  -0.6564
    -0.6342  -0.5594  -0.5494  -0.5271  -0.5204  -0.5099  -0.5053  -0.4995
    -0.4747  -0.3808  -0.3789  -0.2113  -0.1906  -0.1866  -0.1742  -0.1139
    -0.0958   0.0636   0.0883   0.0912   0.0968   0.1147   0.1226   0.1260
     0.1580   0.2325   0.2472   0.3409   0.3598   0.4712   0.4769   0.4890
     0.4915   0.5085   0.5303   0.5391   0.5509   0.6648   0.6777   0.8239
     0.8392   0.8858   0.8928   0.8980   0.9023   1.0642   1.0652   1.0718
     1.0756   1.0852   1.0926   1.0949   1.0987   1.4796   1.5028   2.2637
     2.3929   2.5317   3.5998   3.6007   3.6031   3.6175   3.7503   3.7624
     4.7062   4.7261   4.7493   4.7523   5.7677   5.8128   7.2545   7.2885
     7.2959   7.3190   7.5210   7.5365   7.6888   7.7124   8.3754   8.4883

     occupation numbers 
     1.0000   1.0000   1.0000   1.0000   1.0000   1.0000   1.0000   1.0000
     1.0000   1.0000   1.0000   1.0000   1.0000   1.0000   1.0000   1.0000
     1.0000   1.0000   1.0000   1.0000   1.0000   1.0000   1.0000   1.0000
     1.0000   1.0000   1.0000   1.0000   1.0000   1.0000   1.0000   1.0000
     1.0000   1.0000   1.0000   1.0000   1.0000   1.0000   1.0000   1.0000
     1.0000   1.0000   1.0000   1.0000   1.0000   1.0000   1.0000   1.0000
     1.0000   1.0000   1.0000   1.0000   1.0000   1.0000   1.0000   1.0000
     1.0000   1.0000   1.0000   1.0000   1.0000   1.0000   1.0000   1.0000
     1.0000   1.0000   1.0000   1.0000   1.0000   1.0000   1.0000   1.0000
     1.0000   1.0000   1.0000   1.0000   1.0000   1.0000   1.0000   1.0000
     1.0000   1.0000   1.0000   1.0000   1.0000   1.0000   1.0000   1.0000
     1.0000   1.0000   1.0000   1.0000   1.0000   1.0000   1.0000   1.0000
     1.0000   1.0000   1.0000   1.0000   1.0000   1.0000   1.0000   1.0000
     1.0000   1.0000   1.0000   1.0000   1.0000   1.0000   1.0000   1.0000
     1.0000   1.0000   1.0000   1.0000   1.0000   1.0000   1.0000   1.0000
     1.0000   1.0000   1.0000   1.0000   1.0000   1.0000   1.0000   1.0000
     1.0000   1.0000   1.0000   1.0000   1.0000   1.0000   1.0000   1.0000
     1.0000   1.0000   1.0000   1.0000   1.0000   1.0000   1.0000   1.0000
     1.0000   1.0000   1.0000   1.0000   1.0000   0.9949   0.9919   0.0000
     0.0000   0.0000   0.0000   0.0000   0.0000   0.0000   0.0000   0.0000
     0.0000   0.0000   0.0000   0.0000   0.0000   0.0000   0.0000   0.0000
     0.0000   0.0000   0.0000   0.0000   0.0000   0.0000   0.0000   0.0000

          k = 0.1250 0.1250 0.0000 ( 33677 PWs)   bands (ev):

  -102.0802-102.0685-102.0685-102.0592-102.0450-102.0312-102.0292-102.0200
  -101.6911-101.6821-101.6818-101.6739-101.6727-101.6646-101.6646-101.6553
   -62.5181 -62.5074 -62.5040 -62.5032 -62.4981 -62.4897 -62.4891 -62.4611
   -62.4320 -62.4295 -62.4242 -62.4204 -62.4201 -62.4152 -62.4120 -62.4088
   -62.3949 -62.3890 -62.3799 -62.3773 -62.3499 -62.3492 -62.3378 -62.3375
   -62.1875 -62.1875 -62.1801 -62.1801 -62.1735 -62.1709 -62.1650 -62.1649
   -62.0950 -62.0948 -62.0875 -62.0875 -62.0787 -62.0786 -62.0736 -62.0699
   -61.9308 -61.9231 -61.9229 -61.9168 -61.9111 -61.9029 -61.9029 -61.8958
    -8.8460  -6.3372  -4.6600  -2.9689  -2.9673  -2.8446  -2.7076  -2.7064
    -2.5494  -2.5058  -2.4236  -2.1284  -2.1274  -2.1101  -2.0940  -2.0809
    -1.7790  -1.7767  -1.7569  -1.7075  -1.5869  -1.3312  -1.3013  -1.0922
    -1.0896  -1.0728  -0.8317  -0.8307  -0.8108  -0.8082  -0.7350  -0.7030
    -0.6992  -0.6141  -0.6113  -0.5082  -0.4872  -0.4830  -0.4776  -0.4161
    -0.4153  -0.3759  -0.3717  -0.3128  -0.2729  -0.2459   0.0744   0.0745
     0.0926   0.0987   0.0999   0.1225   0.3010   0.3448   0.3512   0.3800
     0.4292   0.4307   0.4705   0.5619   0.5838   0.6050   0.7350   0.7452
     0.7643   0.7922   0.8111   0.8535   0.8568   0.8696   0.8700   0.9053
     0.9080   0.9442   0.9448   0.9528   0.9796   1.0097   1.0209   1.0289
     1.1033   1.1077   1.3029   1.3487   1.7150   1.7155   1.7670   1.7675
     2.1521   2.4150   2.4717   2.4810   2.9753   2.9792   3.8059   3.8624
     3.8756   4.1496   5.6757   6.1725   6.1910   6.2242   6.2248   6.3479
     6.5813   6.5826   7.0236   7.6026   7.8819   8.5518   8.5938   8.6164

     occupation numbers 
     1.0000   1.0000   1.0000   1.0000   1.0000   1.0000   1.0000   1.0000
     1.0000   1.0000   1.0000   1.0000   1.0000   1.0000   1.0000   1.0000
     1.0000   1.0000   1.0000   1.0000   1.0000   1.0000   1.0000   1.0000
     1.0000   1.0000   1.0000   1.0000   1.0000   1.0000   1.0000   1.0000
     1.0000   1.0000   1.0000   1.0000   1.0000   1.0000   1.0000   1.0000
     1.0000   1.0000   1.0000   1.0000   1.0000   1.0000   1.0000   1.0000
     1.0000   1.0000   1.0000   1.0000   1.0000   1.0000   1.0000   1.0000
     1.0000   1.0000   1.0000   1.0000   1.0000   1.0000   1.0000   1.0000
     1.0000   1.0000   1.0000   1.0000   1.0000   1.0000   1.0000   1.0000
     1.0000   1.0000   1.0000   1.0000   1.0000   1.0000   1.0000   1.0000
     1.0000   1.0000   1.0000   1.0000   1.0000   1.0000   1.0000   1.0000
     1.0000   1.0000   1.0000   1.0000   1.0000   1.0000   1.0000   1.0000
     1.0000   1.0000   1.0000   1.0000   1.0000   1.0000   1.0000   1.0000
     1.0000   1.0000   1.0000   1.0000   1.0000   1.0000   1.0000   1.0000
     1.0000   1.0000   1.0000   1.0000   1.0000   1.0000   1.0000   1.0000
     1.0000   1.0000   1.0000   1.0000   1.0000   1.0000   1.0000   1.0000
     1.0000   1.0000   1.0000   1.0000   1.0000   1.0000   1.0000   1.0000
     1.0000   1.0000   1.0000   1.0000   1.0000   1.0000   1.0000   1.0000
     1.0000   1.0000   0.9999   0.9996   0.6375   0.6355   0.3835   0.3809
     0.0003   0.0000   0.0000   0.0000   0.0000   0.0000   0.0000   0.0000
     0.0000   0.0000   0.0000   0.0000   0.0000   0.0000   0.0000   0.0000
     0.0000   0.0000   0.0000   0.0000   0.0000   0.0000   0.0000   0.0000

          k = 0.1250 0.2500 0.0000 ( 33628 PWs)   bands (ev):

  -102.0788-102.0699-102.0674-102.0603-102.0446-102.0311-102.0289-102.0208
  -101.6900-101.6831-101.6809-101.6738-101.6728-101.6656-101.6635-101.6563
   -62.5145 -62.5039 -62.5008 -62.4987 -62.4923 -62.4872 -62.4829 -62.4637
   -62.4314 -62.4281 -62.4274 -62.4195 -62.4168 -62.4155 -62.4107 -62.4052
   -62.3983 -62.3886 -62.3871 -62.3799 -62.3604 -62.3495 -62.3483 -62.3375
   -62.1867 -62.1807 -62.1769 -62.1715 -62.1694 -62.1657 -62.1614 -62.1543
   -62.1059 -62.0984 -62.0942 -62.0896 -62.0882 -62.0829 -62.0779 -62.0722
   -61.9299 -61.9239 -61.9223 -61.9175 -61.9101 -61.9038 -61.9021 -61.8967
    -8.8431  -6.0474  -4.3990  -3.5290  -2.8271  -2.7932  -2.6348  -2.5388
    -2.4634  -2.3906  -2.3054  -2.1563  -2.0508  -2.0362  -2.0210  -2.0136
    -1.7087  -1.6933  -1.6887  -1.5969  -1.5168  -1.3172  -1.2790  -1.2700
    -1.2106  -1.0491  -0.9812  -0.8897  -0.8758  -0.7972  -0.7565  -0.6754
    -0.6607  -0.6520  -0.5805  -0.5644  -0.5452  -0.4595  -0.4496  -0.4235
    -0.4118  -0.3864  -0.3567  -0.3330  -0.3258  -0.3076   0.0224   0.0300
     0.0486   0.0702   0.0757   0.1097   0.1638   0.2698   0.2780   0.2882
     0.3097   0.3453   0.4670   0.4760   0.5377   0.5779   0.6295   0.6416
     0.6593   0.7171   0.7531   0.7642   0.7915   0.8065   0.8304   0.8391
     0.8493   0.8773   0.9112   0.9209   0.9587   0.9662   0.9937   1.0158
     1.0576   1.1261   1.1510   1.1600   1.1673   1.2042   1.8932   2.2439
     2.3431   2.3845   2.4849   2.6136   2.6844   3.3631   3.5554   4.1530
     4.3468   4.8611   5.1867   5.8202   6.3958   6.4838   6.4971   6.6567
     6.8598   7.0675   7.3356   7.3470   7.8483   7.9160   8.5303   8.7487

     occupation numbers 
     1.0000   1.0000   1.0000   1.0000   1.0000   1.0000   1.0000   1.0000
     1.0000   1.0000   1.0000   1.0000   1.0000   1.0000   1.0000   1.0000
     1.0000   1.0000   1.0000   1.0000   1.0000   1.0000   1.0000   1.0000
     1.0000   1.0000   1.0000   1.0000   1.0000   1.0000   1.0000   1.0000
     1.0000   1.0000   1.0000   1.0000   1.0000   1.0000   1.0000   1.0000
     1.0000   1.0000   1.0000   1.0000   1.0000   1.0000   1.0000   1.0000
     1.0000   1.0000   1.0000   1.0000   1.0000   1.0000   1.0000   1.0000
     1.0000   1.0000   1.0000   1.0000   1.0000   1.0000   1.0000   1.0000
     1.0000   1.0000   1.0000   1.0000   1.0000   1.0000   1.0000   1.0000
     1.0000   1.0000   1.0000   1.0000   1.0000   1.0000   1.0000   1.0000
     1.0000   1.0000   1.0000   1.0000   1.0000   1.0000   1.0000   1.0000
     1.0000   1.0000   1.0000   1.0000   1.0000   1.0000   1.0000   1.0000
     1.0000   1.0000   1.0000   1.0000   1.0000   1.0000   1.0000   1.0000
     1.0000   1.0000   1.0000   1.0000   1.0000   1.0000   1.0000   1.0000
     1.0000   1.0000   1.0000   1.0000   1.0000   1.0000   1.0000   1.0000
     1.0000   1.0000   1.0000   1.0000   1.0000   1.0000   1.0000   1.0000
     1.0000   1.0000   1.0000   1.0000   1.0000   1.0000   1.0000   1.0000
     1.0000   1.0000   1.0000   1.0000   1.0000   1.0000   1.0000   1.0000
     1.0000   1.0000   1.0000   1.0000   1.0000   1.0000   0.0475   0.0000
     0.0000   0.0000   0.0000   0.0000   0.0000   0.0000   0.0000   0.0000
     0.0000   0.0000   0.0000   0.0000   0.0000   0.0000   0.0000   0.0000
     0.0000   0.0000   0.0000   0.0000   0.0000   0.0000   0.0000   0.0000

          k = 0.1250 0.3750 0.0000 ( 33622 PWs)   bands (ev):

  -102.0768-102.0720-102.0658-102.0620-102.0441-102.0312-102.0281-102.0219
  -101.6884-101.6846-101.6793-101.6754-101.6712-101.6672-101.6619-101.6579
   -62.5105 -62.5037 -62.4961 -62.4931 -62.4889 -62.4811 -62.4773 -62.4591
   -62.4410 -62.4321 -62.4259 -62.4177 -62.4156 -62.4086 -62.4061 -62.4019
   -62.3976 -62.3967 -62.3874 -62.3820 -62.3751 -62.3640 -62.3491 -62.3375
   -62.1856 -62.1816 -62.1700 -62.1669 -62.1610 -62.1534 -62.1457 -62.1384
   -62.1223 -62.1147 -62.1058 -62.0987 -62.0933 -62.0891 -62.0767 -62.0736
   -61.9285 -61.9252 -61.9212 -61.9185 -61.9087 -61.9052 -61.9009 -61.8979
    -8.8402  -5.5803  -4.2499  -3.9971  -3.0997  -2.5723  -2.4106  -2.3704
    -2.3087  -2.1720  -2.1432  -2.1338  -2.0021  -1.9808  -1.9583  -1.8697
    -1.7744  -1.7327  -1.6188  -1.4635  -1.4333  -1.3734  -1.3433  -1.2725
    -1.2262  -1.1689  -1.0144  -0.9409  -0.9068  -0.8851  -0.8273  -0.7529
    -0.7026  -0.6048  -0.5926  -0.5681  -0.5552  -0.4797  -0.4543  -0.4458
    -0.4286  -0.4178  -0.3602  -0.2700  -0.1972  -0.1812  -0.1789  -0.1197
    -0.0716  -0.0505  -0.0185   0.0715   0.1047   0.1478   0.2546   0.2782
     0.3071   0.3243   0.3364   0.3443   0.4424   0.4569   0.4707   0.5117
     0.5280   0.5337   0.5546   0.6516   0.7061   0.7554   0.7611   0.7650
     0.7817   0.7887   0.8331   0.8543   0.9825   0.9849   0.9991   1.0168
     1.0383   1.0617   1.0787   1.0923   1.0973   1.3124   2.0902   2.0931
     2.3047   2.3910   2.4945   2.7812   2.8692   3.2267   4.3146   4.3381
     4.5670   4.5760   5.0674   5.5287   6.2573   6.6715   6.7924   6.9659
     7.1468   7.3262   7.4907   7.6932   7.8448   8.2556   8.8291   9.0142

     occupation numbers 
     1.0000   1.0000   1.0000   1.0000   1.0000   1.0000   1.0000   1.0000
     1.0000   1.0000   1.0000   1.0000   1.0000   1.0000   1.0000   1.0000
     1.0000   1.0000   1.0000   1.0000   1.0000   1.0000   1.0000   1.0000
     1.0000   1.0000   1.0000   1.0000   1.0000   1.0000   1.0000   1.0000
     1.0000   1.0000   1.0000   1.0000   1.0000   1.0000   1.0000   1.0000
     1.0000   1.0000   1.0000   1.0000   1.0000   1.0000   1.0000   1.0000
     1.0000   1.0000   1.0000   1.0000   1.0000   1.0000   1.0000   1.0000
     1.0000   1.0000   1.0000   1.0000   1.0000   1.0000   1.0000   1.0000
     1.0000   1.0000   1.0000   1.0000   1.0000   1.0000   1.0000   1.0000
     1.0000   1.0000   1.0000   1.0000   1.0000   1.0000   1.0000   1.0000
     1.0000   1.0000   1.0000   1.0000   1.0000   1.0000   1.0000   1.0000
     1.0000   1.0000   1.0000   1.0000   1.0000   1.0000   1.0000   1.0000
     1.0000   1.0000   1.0000   1.0000   1.0000   1.0000   1.0000   1.0000
     1.0000   1.0000   1.0000   1.0000   1.0000   1.0000   1.0000   1.0000
     1.0000   1.0000   1.0000   1.0000   1.0000   1.0000   1.0000   1.0000
     1.0000   1.0000   1.0000   1.0000   1.0000   1.0000   1.0000   1.0000
     1.0000   1.0000   1.0000   1.0000   1.0000   1.0000   1.0000   1.0000
     1.0000   1.0000   1.0000   1.0000   1.0000   1.0000   1.0000   1.0000
     1.0000   1.0000   1.0000   1.0000   1.0000   0.9998   0.0010   0.0009
     0.0000   0.0000   0.0000   0.0000   0.0000   0.0000   0.0000   0.0000
     0.0000   0.0000   0.0000   0.0000   0.0000   0.0000   0.0000   0.0000
     0.0000   0.0000   0.0000   0.0000   0.0000   0.0000   0.0000   0.0000

          k = 0.1250-0.5000 0.0000 ( 33600 PWs)   bands (ev):

  -102.0744-102.0744-102.0639-102.0639-102.0439-102.0313-102.0276-102.0224
  -101.6867-101.6864-101.6775-101.6772-101.6699-101.6686-101.6606-101.6593
   -62.5078 -62.5050 -62.4927 -62.4905 -62.4883 -62.4848 -62.4638 -62.4547
   -62.4512 -62.4366 -62.4253 -62.4182 -62.4102 -62.4074 -62.4027 -62.4023
   -62.3992 -62.3909 -62.3860 -62.3835 -62.3808 -62.3797 -62.3491 -62.3374
   -62.1850 -62.1822 -62.1688 -62.1680 -62.1441 -62.1394 -62.1366 -62.1315
   -62.1310 -62.1238 -62.1206 -62.1134 -62.0928 -62.0896 -62.0756 -62.0747
   -61.9271 -61.9264 -61.9203 -61.9194 -61.9075 -61.9064 -61.8998 -61.8990
    -8.8390  -4.9639  -4.9635  -3.5478  -3.5041  -2.4225  -2.4207  -2.1878
    -2.1870  -2.1051  -2.0945  -1.9717  -1.9582  -1.9531  -1.9476  -1.9092
    -1.9079  -1.6781  -1.6589  -1.5001  -1.4990  -1.3134  -1.3095  -1.1512
    -1.1252  -1.1154  -1.0734  -1.0727  -1.0412  -0.9735  -0.9553  -0.7077
    -0.6789  -0.6130  -0.6091  -0.5332  -0.5228  -0.4905  -0.4868  -0.4773
    -0.4663  -0.4011  -0.3946  -0.2093  -0.1823  -0.1702  -0.1594  -0.1346
    -0.1212   0.0490   0.0718   0.0745   0.0920   0.0936   0.1503   0.1657
     0.1681   0.1991   0.2111   0.3293   0.3510   0.3523   0.3698   0.5152
     0.5343   0.5476   0.5602   0.5649   0.5739   0.7068   0.7188   0.7216
     0.7335   0.7959   0.8026   0.9258   0.9321   1.0247   1.0254   1.0404
     1.0510   1.0529   1.0579   1.0582   1.0637   1.6462   1.6681   2.2720
     2.3749   2.3797   2.4014   2.4986   3.5384   3.5717   3.8728   3.8845
     5.0583   5.0666   5.2358   5.2579   5.8850   5.9302   7.0397   7.0449
     7.6149   7.6322   7.7872   7.7992   7.9850   7.9851   8.4648   8.5998

     occupation numbers 
     1.0000   1.0000   1.0000   1.0000   1.0000   1.0000   1.0000   1.0000
     1.0000   1.0000   1.0000   1.0000   1.0000   1.0000   1.0000   1.0000
     1.0000   1.0000   1.0000   1.0000   1.0000   1.0000   1.0000   1.0000
     1.0000   1.0000   1.0000   1.0000   1.0000   1.0000   1.0000   1.0000
     1.0000   1.0000   1.0000   1.0000   1.0000   1.0000   1.0000   1.0000
     1.0000   1.0000   1.0000   1.0000   1.0000   1.0000   1.0000   1.0000
     1.0000   1.0000   1.0000   1.0000   1.0000   1.0000   1.0000   1.0000
     1.0000   1.0000   1.0000   1.0000   1.0000   1.0000   1.0000   1.0000
     1.0000   1.0000   1.0000   1.0000   1.0000   1.0000   1.0000   1.0000
     1.0000   1.0000   1.0000   1.0000   1.0000   1.0000   1.0000   1.0000
     1.0000   1.0000   1.0000   1.0000   1.0000   1.0000   1.0000   1.0000
     1.0000   1.0000   1.0000   1.0000   1.0000   1.0000   1.0000   1.0000
     1.0000   1.0000   1.0000   1.0000   1.0000   1.0000   1.0000   1.0000
     1.0000   1.0000   1.0000   1.0000   1.0000   1.0000   1.0000   1.0000
     1.0000   1.0000   1.0000   1.0000   1.0000   1.0000   1.0000   1.0000
     1.0000   1.0000   1.0000   1.0000   1.0000   1.0000   1.0000   1.0000
     1.0000   1.0000   1.0000   1.0000   1.0000   1.0000   1.0000   1.0000
     1.0000   1.0000   1.0000   1.0000   1.0000   1.0000   1.0000   1.0000
     1.0000   1.0000   1.0000   1.0000   1.0000   0.8744   0.8180   0.0000
     0.0000   0.0000   0.0000   0.0000   0.0000   0.0000   0.0000   0.0000
     0.0000   0.0000   0.0000   0.0000   0.0000   0.0000   0.0000   0.0000
     0.0000   0.0000   0.0000   0.0000   0.0000   0.0000   0.0000   0.0000

          k = 0.2500 0.2500 0.0000 ( 33623 PWs)   bands (ev):

  -102.0775-102.0688-102.0688-102.0615-102.0441-102.0305-102.0290-102.0217
  -101.6890-101.6821-101.6818-101.6749-101.6717-101.6646-101.6646-101.6574
   -62.5105 -62.4995 -62.4984 -62.4920 -62.4881 -62.4824 -62.4782 -62.4663
   -62.4314 -62.4303 -62.4247 -62.4172 -62.4153 -62.4138 -62.4127 -62.4055
   -62.4028 -62.3882 -62.3880 -62.3862 -62.3611 -62.3590 -62.3487 -62.3478
   -62.1761 -62.1761 -62.1701 -62.1700 -62.1620 -62.1593 -62.1552 -62.1550
   -62.1054 -62.1050 -62.0991 -62.0991 -62.0890 -62.0886 -62.0852 -62.0816
   -61.9289 -61.9232 -61.9230 -61.9182 -61.9092 -61.9030 -61.9030 -61.8975
    -8.8402  -5.7621  -4.1414  -3.3263  -3.3249  -2.6416  -2.6390  -2.5105
    -2.4219  -2.2387  -2.1721  -2.0392  -2.0388  -1.9858  -1.9336  -1.9298
    -1.7313  -1.5534  -1.5472  -1.4884  -1.4612  -1.3809  -1.3753  -1.2579
    -1.2324  -1.0629  -1.0110  -1.0059  -0.9154  -0.9141  -0.7835  -0.7795
    -0.5867  -0.5783  -0.5660  -0.5654  -0.5268  -0.5225  -0.5191  -0.4872
    -0.4561  -0.4154  -0.3489  -0.3478  -0.2625  -0.2621  -0.0751  -0.0744
     0.0050   0.0312   0.0333   0.0591   0.1332   0.1399   0.1490   0.2197
     0.2718   0.3824   0.4249   0.4265   0.5098   0.5282   0.5612   0.5875
     0.5994   0.6705   0.7121   0.7143   0.7221   0.7400   0.7409   0.7980
     0.8155   0.8274   0.8570   0.9096   0.9149   0.9189   0.9379   0.9381
     1.0029   1.0896   1.1319   1.2146   1.2156   1.3123   1.5035   1.5038
     2.3760   2.3800   2.3946   2.4126   3.0455   3.0899   3.0903   4.1158
     4.7953   5.2479   5.2526   6.3051   6.6888   6.6910   6.7749   6.7969
     6.9559   7.3541   7.3547   7.6433   8.0965   8.7183   8.8091   8.8973

     occupation numbers 
     1.0000   1.0000   1.0000   1.0000   1.0000   1.0000   1.0000   1.0000
     1.0000   1.0000   1.0000   1.0000   1.0000   1.0000   1.0000   1.0000
     1.0000   1.0000   1.0000   1.0000   1.0000   1.0000   1.0000   1.0000
     1.0000   1.0000   1.0000   1.0000   1.0000   1.0000   1.0000   1.0000
     1.0000   1.0000   1.0000   1.0000   1.0000   1.0000   1.0000   1.0000
     1.0000   1.0000   1.0000   1.0000   1.0000   1.0000   1.0000   1.0000
     1.0000   1.0000   1.0000   1.0000   1.0000   1.0000   1.0000   1.0000
     1.0000   1.0000   1.0000   1.0000   1.0000   1.0000   1.0000   1.0000
     1.0000   1.0000   1.0000   1.0000   1.0000   1.0000   1.0000   1.0000
     1.0000   1.0000   1.0000   1.0000   1.0000   1.0000   1.0000   1.0000
     1.0000   1.0000   1.0000   1.0000   1.0000   1.0000   1.0000   1.0000
     1.0000   1.0000   1.0000   1.0000   1.0000   1.0000   1.0000   1.0000
     1.0000   1.0000   1.0000   1.0000   1.0000   1.0000   1.0000   1.0000
     1.0000   1.0000   1.0000   1.0000   1.0000   1.0000   1.0000   1.0000
     1.0000   1.0000   1.0000   1.0000   1.0000   1.0000   1.0000   1.0000
     1.0000   1.0000   1.0000   1.0000   1.0000   1.0000   1.0000   1.0000
     1.0000   1.0000   1.0000   1.0000   1.0000   1.0000   1.0000   1.0000
     1.0000   1.0000   1.0000   1.0000   1.0000   1.0000   1.0000   1.0000
     1.0000   1.0000   1.0000   1.0000   1.0000   0.9998   0.9918   0.9917
     0.0000   0.0000   0.0000   0.0000   0.0000   0.0000   0.0000   0.0000
     0.0000   0.0000   0.0000   0.0000   0.0000   0.0000   0.0000   0.0000
     0.0000   0.0000   0.0000   0.0000   0.0000   0.0000   0.0000   0.0000

          k = 0.2500 0.3750 0.0000 ( 33636 PWs)   bands (ev):

  -102.0755-102.0708-102.0671-102.0631-102.0437-102.0304-102.0285-102.0227
  -101.6874-101.6836-101.6803-101.6765-101.6702-101.6661-101.6630-101.6590
   -62.5062 -62.4988 -62.4933 -62.4859 -62.4832 -62.4769 -62.4740 -62.4603
   -62.4402 -62.4303 -62.4251 -62.4184 -62.4140 -62.4125 -62.4097 -62.4061
   -62.3965 -62.3944 -62.3900 -62.3859 -62.3744 -62.3638 -62.3595 -62.3482
   -62.1750 -62.1710 -62.1602 -62.1595 -62.1563 -62.1541 -62.1447 -62.1393
   -62.1216 -62.1154 -62.1050 -62.1043 -62.1000 -62.0997 -62.0876 -62.0844
   -61.9276 -61.9244 -61.9220 -61.9193 -61.9078 -61.9043 -61.9018 -61.8987
    -8.8374  -5.3035  -4.0125  -3.7467  -3.0433  -2.8857  -2.5944  -2.3758
    -2.1576  -2.0320  -2.0002  -1.9894  -1.9289  -1.9220  -1.8885  -1.7844
    -1.7188  -1.6068  -1.6015  -1.4848  -1.3991  -1.3448  -1.3270  -1.2122
    -1.1489  -1.1090  -1.0959  -1.0890  -1.0534  -0.9253  -0.8707  -0.8580
    -0.7224  -0.6995  -0.5727  -0.5422  -0.5190  -0.5129  -0.4975  -0.4827
    -0.4641  -0.4445  -0.3434  -0.2332  -0.1945  -0.1801  -0.1606  -0.1109
    -0.0854  -0.0835  -0.0547  -0.0116   0.0774   0.1318   0.1622   0.1996
     0.2569   0.2676   0.3167   0.3489   0.3671   0.4178   0.4516   0.4862
     0.5234   0.5456   0.6002   0.6075   0.6297   0.6455   0.6686   0.7174
     0.7575   0.7608   0.7992   0.8335   0.8886   0.9036   0.9147   0.9271
     0.9548   1.0163   1.0622   1.0772   1.1568   1.2929   1.6196   1.7531
     1.9927   2.3194   2.3941   2.4167   2.5066   3.2521   3.5769   3.7213
     4.9220   5.3190   5.4503   5.8334   6.9952   7.0232   7.1188   7.2501
     7.4317   7.8036   7.9388   7.9785   8.1387   8.5103   8.7524   8.8664

     occupation numbers 
     1.0000   1.0000   1.0000   1.0000   1.0000   1.0000   1.0000   1.0000
     1.0000   1.0000   1.0000   1.0000   1.0000   1.0000   1.0000   1.0000
     1.0000   1.0000   1.0000   1.0000   1.0000   1.0000   1.0000   1.0000
     1.0000   1.0000   1.0000   1.0000   1.0000   1.0000   1.0000   1.0000
     1.0000   1.0000   1.0000   1.0000   1.0000   1.0000   1.0000   1.0000
     1.0000   1.0000   1.0000   1.0000   1.0000   1.0000   1.0000   1.0000
     1.0000   1.0000   1.0000   1.0000   1.0000   1.0000   1.0000   1.0000
     1.0000   1.0000   1.0000   1.0000   1.0000   1.0000   1.0000   1.0000
     1.0000   1.0000   1.0000   1.0000   1.0000   1.0000   1.0000   1.0000
     1.0000   1.0000   1.0000   1.0000   1.0000   1.0000   1.0000   1.0000
     1.0000   1.0000   1.0000   1.0000   1.0000   1.0000   1.0000   1.0000
     1.0000   1.0000   1.0000   1.0000   1.0000   1.0000   1.0000   1.0000
     1.0000   1.0000   1.0000   1.0000   1.0000   1.0000   1.0000   1.0000
     1.0000   1.0000   1.0000   1.0000   1.0000   1.0000   1.0000   1.0000
     1.0000   1.0000   1.0000   1.0000   1.0000   1.0000   1.0000   1.0000
     1.0000   1.0000   1.0000   1.0000   1.0000   1.0000   1.0000   1.0000
     1.0000   1.0000   1.0000   1.0000   1.0000   1.0000   1.0000   1.0000
     1.0000   1.0000   1.0000   1.0000   1.0000   1.0000   1.0000   1.0000
     1.0000   1.0000   1.0000   1.0000   1.0000   0.9999   0.9223   0.4510
     0.0068   0.0000   0.0000   0.0000   0.0000   0.0000   0.0000   0.0000
     0.0000   0.0000   0.0000   0.0000   0.0000   0.0000   0.0000   0.0000
     0.0000   0.0000   0.0000   0.0000   0.0000   0.0000   0.0000   0.0000

          k = 0.2500-0.5000 0.0000 ( 33646 PWs)   bands (ev):

  -102.0732-102.0731-102.0651-102.0651-102.0435-102.0305-102.0281-102.0233
  -101.6856-101.6853-101.6786-101.6783-101.6688-101.6675-101.6617-101.6603
   -62.5035 -62.5000 -62.4892 -62.4856 -62.4815 -62.4798 -62.4617 -62.4525
   -62.4492 -62.4376 -62.4263 -62.4178 -62.4140 -62.4123 -62.4027 -62.4012
   -62.3976 -62.3970 -62.3885 -62.3835 -62.3799 -62.3787 -62.3595 -62.3481
   -62.1744 -62.1716 -62.1582 -62.1574 -62.1433 -62.1386 -62.1374 -62.1322
   -62.1301 -62.1247 -62.1198 -62.1143 -62.1038 -62.1006 -62.0865 -62.0856
   -61.9263 -61.9256 -61.9211 -61.9202 -61.9066 -61.9055 -61.9007 -61.8998
    -8.8362  -4.7021  -4.7018  -3.3103  -3.2679  -2.7726  -2.7707  -2.1136
    -2.0975  -1.9971  -1.9963  -1.8784  -1.8585  -1.8163  -1.8153  -1.8043
    -1.7951  -1.6208  -1.6034  -1.5476  -1.5440  -1.2070  -1.2039  -1.1448
    -1.1427  -1.1204  -1.1119  -1.1005  -1.0542  -1.0161  -0.9845  -0.8387
    -0.7995  -0.7603  -0.7498  -0.5365  -0.5104  -0.5012  -0.4947  -0.4251
    -0.4212  -0.4183  -0.3920  -0.2071  -0.2052  -0.1648  -0.1435  -0.1297
    -0.1162   0.0290   0.0508   0.0545   0.0905   0.0946   0.1318   0.1406
     0.1591   0.1959   0.2077   0.2310   0.2346   0.3234   0.3509   0.4846
     0.5022   0.5067   0.5171   0.5209   0.5369   0.6243   0.6426   0.6618
     0.6734   0.7664   0.7815   0.8885   0.8978   0.9126   0.9189   0.9897
     0.9919   1.0001   1.0019   1.0513   1.0519   1.4350   1.4453   1.9942
     2.0127   2.2929   2.4149   2.4211   2.5490   2.5817   4.2135   4.2245
     4.4587   4.4701   6.2250   6.2715   6.5124   6.5274   7.3947   7.3977
     7.8956   7.9162   8.0115   8.1173   8.3545   8.3679   8.7320   8.9232

     occupation numbers 
     1.0000   1.0000   1.0000   1.0000   1.0000   1.0000   1.0000   1.0000
     1.0000   1.0000   1.0000   1.0000   1.0000   1.0000   1.0000   1.0000
     1.0000   1.0000   1.0000   1.0000   1.0000   1.0000   1.0000   1.0000
     1.0000   1.0000   1.0000   1.0000   1.0000   1.0000   1.0000   1.0000
     1.0000   1.0000   1.0000   1.0000   1.0000   1.0000   1.0000   1.0000
     1.0000   1.0000   1.0000   1.0000   1.0000   1.0000   1.0000   1.0000
     1.0000   1.0000   1.0000   1.0000   1.0000   1.0000   1.0000   1.0000
     1.0000   1.0000   1.0000   1.0000   1.0000   1.0000   1.0000   1.0000
     1.0000   1.0000   1.0000   1.0000   1.0000   1.0000   1.0000   1.0000
     1.0000   1.0000   1.0000   1.0000   1.0000   1.0000   1.0000   1.0000
     1.0000   1.0000   1.0000   1.0000   1.0000   1.0000   1.0000   1.0000
     1.0000   1.0000   1.0000   1.0000   1.0000   1.0000   1.0000   1.0000
     1.0000   1.0000   1.0000   1.0000   1.0000   1.0000   1.0000   1.0000
     1.0000   1.0000   1.0000   1.0000   1.0000   1.0000   1.0000   1.0000
     1.0000   1.0000   1.0000   1.0000   1.0000   1.0000   1.0000   1.0000
     1.0000   1.0000   1.0000   1.0000   1.0000   1.0000   1.0000   1.0000
     1.0000   1.0000   1.0000   1.0000   1.0000   1.0000   1.0000   1.0000
     1.0000   1.0000   1.0000   1.0000   1.0000   1.0000   1.0000   1.0000
     1.0000   1.0000   1.0000   1.0000   1.0000   0.9979   0.9974   0.0066
     0.0045   0.0000   0.0000   0.0000   0.0000   0.0000   0.0000   0.0000
     0.0000   0.0000   0.0000   0.0000   0.0000   0.0000   0.0000   0.0000
     0.0000   0.0000   0.0000   0.0000   0.0000   0.0000   0.0000   0.0000

          k = 0.3750 0.3750 0.0000 ( 33610 PWs)   bands (ev):

  -102.0736-102.0691-102.0690-102.0649-102.0432-102.0295-102.0288-102.0238
  -101.6858-101.6821-101.6818-101.6781-101.6686-101.6646-101.6646-101.6605
   -62.5015 -62.4935 -62.4931 -62.4828 -62.4729 -62.4712 -62.4628 -62.4620
   -62.4415 -62.4272 -62.4265 -62.4234 -62.4229 -62.4148 -62.4095 -62.4009
   -62.3957 -62.3925 -62.3895 -62.3888 -62.3746 -62.3731 -62.3639 -62.3629
   -62.1591 -62.1591 -62.1552 -62.1548 -62.1450 -62.1422 -62.1407 -62.1403
   -62.1209 -62.1204 -62.1164 -62.1163 -62.1040 -62.1034 -62.1024 -62.0989
   -61.9263 -61.9233 -61.9231 -61.9204 -61.9064 -61.9031 -61.9031 -61.8999
    -8.8346  -4.8622  -3.6560  -3.6550  -3.3669  -2.8703  -2.5747  -2.5723
    -1.9763  -1.8964  -1.8577  -1.8479  -1.8207  -1.8170  -1.8003  -1.7096
    -1.6381  -1.6043  -1.6043  -1.3600  -1.3489  -1.3002  -1.2884  -1.2857
    -1.1999  -1.1810  -1.1668  -1.0399  -1.0316  -1.0206  -0.9436  -0.9405
    -0.8510  -0.7612  -0.6601  -0.6593  -0.6018  -0.5260  -0.4885  -0.4878
    -0.3885  -0.3620  -0.2376  -0.2008  -0.2004  -0.1596  -0.1593  -0.1352
    -0.1018  -0.0975  -0.0179  -0.0169   0.0574   0.1331   0.1524   0.1585
     0.1605   0.1853   0.2072   0.2329   0.3283   0.3871   0.3934   0.3998
     0.4400   0.5124   0.5156   0.5294   0.5670   0.6059   0.6223   0.6280
     0.6436   0.6693   0.7419   0.7555   0.7692   0.7705   0.7798   0.7829
     0.9882   1.0363   1.0371   1.0521   1.0671   1.1115   1.4608   1.4609
     1.9904   2.3351   2.3451   2.4155   2.4553   3.0178   3.0208   4.0903
     4.4068   5.4580   5.4643   6.0382   6.9744   7.6368   7.6390   7.7204
     7.8891   8.2821   8.2924   8.2928   8.6000   8.9278   9.1679   9.2054

     occupation numbers 
     1.0000   1.0000   1.0000   1.0000   1.0000   1.0000   1.0000   1.0000
     1.0000   1.0000   1.0000   1.0000   1.0000   1.0000   1.0000   1.0000
     1.0000   1.0000   1.0000   1.0000   1.0000   1.0000   1.0000   1.0000
     1.0000   1.0000   1.0000   1.0000   1.0000   1.0000   1.0000   1.0000
     1.0000   1.0000   1.0000   1.0000   1.0000   1.0000   1.0000   1.0000
     1.0000   1.0000   1.0000   1.0000   1.0000   1.0000   1.0000   1.0000
     1.0000   1.0000   1.0000   1.0000   1.0000   1.0000   1.0000   1.0000
     1.0000   1.0000   1.0000   1.0000   1.0000   1.0000   1.0000   1.0000
     1.0000   1.0000   1.0000   1.0000   1.0000   1.0000   1.0000   1.0000
     1.0000   1.0000   1.0000   1.0000   1.0000   1.0000   1.0000   1.0000
     1.0000   1.0000   1.0000   1.0000   1.0000   1.0000   1.0000   1.0000
     1.0000   1.0000   1.0000   1.0000   1.0000   1.0000   1.0000   1.0000
     1.0000   1.0000   1.0000   1.0000   1.0000   1.0000   1.0000   1.0000
     1.0000   1.0000   1.0000   1.0000   1.0000   1.0000   1.0000   1.0000
     1.0000   1.0000   1.0000   1.0000   1.0000   1.0000   1.0000   1.0000
     1.0000   1.0000   1.0000   1.0000   1.0000   1.0000   1.0000   1.0000
     1.0000   1.0000   1.0000   1.0000   1.0000   1.0000   1.0000   1.0000
     1.0000   1.0000   1.0000   1.0000   1.0000   1.0000   1.0000   1.0000
     1.0000   1.0000   1.0000   1.0000   1.0000   1.0000   0.9965   0.9965
     0.0071   0.0000   0.0000   0.0000   0.0000   0.0000   0.0000   0.0000
     0.0000   0.0000   0.0000   0.0000   0.0000   0.0000   0.0000   0.0000
     0.0000   0.0000   0.0000   0.0000   0.0000   0.0000   0.0000   0.0000

          k = 0.3750-0.5000 0.0000 ( 33648 PWs)   bands (ev):

  -102.0714-102.0713-102.0670-102.0670-102.0430-102.0294-102.0285-102.0244
  -101.6840-101.6837-101.6802-101.6799-101.6672-101.6659-101.6632-101.6619
   -62.4986 -62.4946 -62.4895 -62.4851 -62.4679 -62.4673 -62.4583 -62.4491
   -62.4481 -62.4406 -62.4274 -62.4270 -62.4209 -62.4127 -62.4030 -62.4015
   -62.3962 -62.3925 -62.3889 -62.3833 -62.3795 -62.3784 -62.3737 -62.3633
   -62.1585 -62.1556 -62.1425 -62.1422 -62.1417 -62.1384 -62.1377 -62.1330
   -62.1288 -62.1259 -62.1201 -62.1184 -62.1169 -62.1157 -62.1025 -62.1015
   -61.9251 -61.9244 -61.9222 -61.9213 -61.9053 -61.9042 -61.9020 -61.9011
    -8.8334  -4.2922  -4.2922  -3.2452  -3.2444  -2.9552  -2.9160  -2.2501
    -2.2253  -1.7654  -1.7623  -1.7527  -1.7381  -1.7173  -1.7120  -1.7090
    -1.7019  -1.5462  -1.5420  -1.4717  -1.4453  -1.2850  -1.2821  -1.1903
    -1.1573  -1.1480  -1.1061  -1.0870  -1.0482  -1.0243  -1.0038  -0.9630
    -0.9201  -0.8394  -0.8168  -0.6103  -0.6017  -0.5735  -0.5534  -0.4104
    -0.4020  -0.2865  -0.2703  -0.2332  -0.2193  -0.1091  -0.0968  -0.0375
    -0.0227  -0.0112   0.0038   0.0049   0.0463   0.0538   0.0610   0.1297
     0.1401   0.1671   0.1795   0.2605   0.2665   0.2925   0.3111   0.3533
     0.3802   0.3835   0.4047   0.4466   0.4635   0.5150   0.5351   0.6733
     0.6777   0.6849   0.6896   0.6991   0.7039   0.7293   0.7336   0.8523
     0.8652   1.0441   1.0501   1.0516   1.0577   1.1720   1.1770   1.8695
     1.8922   2.3057   2.3436   2.3951   2.4429   2.4910   3.6419   3.6544
     4.7256   4.7364   6.1442   6.1584   6.7643   6.8121   8.2666   8.3528
     8.3675   8.3953   8.4239   8.5807   8.5864   8.6165   9.1637   9.4532

     occupation numbers 
     1.0000   1.0000   1.0000   1.0000   1.0000   1.0000   1.0000   1.0000
     1.0000   1.0000   1.0000   1.0000   1.0000   1.0000   1.0000   1.0000
     1.0000   1.0000   1.0000   1.0000   1.0000   1.0000   1.0000   1.0000
     1.0000   1.0000   1.0000   1.0000   1.0000   1.0000   1.0000   1.0000
     1.0000   1.0000   1.0000   1.0000   1.0000   1.0000   1.0000   1.0000
     1.0000   1.0000   1.0000   1.0000   1.0000   1.0000   1.0000   1.0000
     1.0000   1.0000   1.0000   1.0000   1.0000   1.0000   1.0000   1.0000
     1.0000   1.0000   1.0000   1.0000   1.0000   1.0000   1.0000   1.0000
     1.0000   1.0000   1.0000   1.0000   1.0000   1.0000   1.0000   1.0000
     1.0000   1.0000   1.0000   1.0000   1.0000   1.0000   1.0000   1.0000
     1.0000   1.0000   1.0000   1.0000   1.0000   1.0000   1.0000   1.0000
     1.0000   1.0000   1.0000   1.0000   1.0000   1.0000   1.0000   1.0000
     1.0000   1.0000   1.0000   1.0000   1.0000   1.0000   1.0000   1.0000
     1.0000   1.0000   1.0000   1.0000   1.0000   1.0000   1.0000   1.0000
     1.0000   1.0000   1.0000   1.0000   1.0000   1.0000   1.0000   1.0000
     1.0000   1.0000   1.0000   1.0000   1.0000   1.0000   1.0000   1.0000
     1.0000   1.0000   1.0000   1.0000   1.0000   1.0000   1.0000   1.0000
     1.0000   1.0000   1.0000   1.0000   1.0000   1.0000   1.0000   1.0000
     1.0000   1.0000   1.0000   1.0000   1.0000   1.0000   1.0000   0.0741
     0.0484   0.0000   0.0000   0.0000   0.0000   0.0000   0.0000   0.0000
     0.0000   0.0000   0.0000   0.0000   0.0000   0.0000   0.0000   0.0000
     0.0000   0.0000   0.0000   0.0000   0.0000   0.0000   0.0000   0.0000

          k =-0.5000-0.5000 0.0000 ( 33696 PWs)   bands (ev):

  -102.0692-102.0692-102.0691-102.0691-102.0428-102.0287-102.0287-102.0250
  -101.6824-101.6818-101.6818-101.6818-101.6659-101.6646-101.6646-101.6633
   -62.4954 -62.4912 -62.4912 -62.4869 -62.4602 -62.4548 -62.4548 -62.4453
   -62.4441 -62.4433 -62.4413 -62.4413 -62.4119 -62.4094 -62.4094 -62.4014
   -62.3914 -62.3914 -62.3846 -62.3824 -62.3805 -62.3788 -62.3783 -62.3783
   -62.1418 -62.1412 -62.1391 -62.1391 -62.1371 -62.1371 -62.1338 -62.1332
   -62.1292 -62.1271 -62.1271 -62.1263 -62.1188 -62.1172 -62.1172 -62.1142
   -61.9240 -61.9234 -61.9234 -61.9223 -61.9041 -61.9031 -61.9031 -61.9022
    -8.8322  -3.7815  -3.7814  -3.7814  -3.7805  -2.5817  -2.5438  -2.5438
    -2.5136  -1.6846  -1.6809  -1.6809  -1.6792  -1.6577  -1.6577  -1.6500
    -1.6490  -1.4804  -1.4588  -1.4588  -1.4377  -1.2430  -1.2348  -1.2348
    -1.2230  -1.2075  -1.1381  -1.1381  -1.0743  -1.0613  -1.0082  -1.0082
    -0.9742  -0.7503  -0.7383  -0.7383  -0.7223  -0.5228  -0.5102  -0.5102
    -0.5072  -0.1442  -0.1136  -0.1127  -0.1127  -0.1116  -0.0978  -0.0978
    -0.0696  -0.0556  -0.0556  -0.0460  -0.0449   0.1712   0.1953   0.1953
     0.2103   0.2103   0.2127   0.2131   0.2202   0.2245   0.2392   0.2392
     0.2564   0.3460   0.3767   0.3767   0.3926   0.4131   0.4302   0.4302
     0.4638   0.6399   0.6526   0.6526   0.6581   0.7540   0.7684   0.7684
     0.7822   1.0415   1.0472   1.0472   1.0545   1.4439   1.4572   1.4572
     1.4701   2.3175   2.3175   2.4251   2.9654   2.9867   2.9867   3.0014
     5.3751   5.3803   5.3803   5.3988   7.4493   7.4981   7.4981   7.5510
     8.7045   9.0152   9.0138   9.0542   9.9865  10.0068  10.0069  10.0214

     occupation numbers 
     1.0000   1.0000   1.0000   1.0000   1.0000   1.0000   1.0000   1.0000
     1.0000   1.0000   1.0000   1.0000   1.0000   1.0000   1.0000   1.0000
     1.0000   1.0000   1.0000   1.0000   1.0000   1.0000   1.0000   1.0000
     1.0000   1.0000   1.0000   1.0000   1.0000   1.0000   1.0000   1.0000
     1.0000   1.0000   1.0000   1.0000   1.0000   1.0000   1.0000   1.0000
     1.0000   1.0000   1.0000   1.0000   1.0000   1.0000   1.0000   1.0000
     1.0000   1.0000   1.0000   1.0000   1.0000   1.0000   1.0000   1.0000
     1.0000   1.0000   1.0000   1.0000   1.0000   1.0000   1.0000   1.0000
     1.0000   1.0000   1.0000   1.0000   1.0000   1.0000   1.0000   1.0000
     1.0000   1.0000   1.0000   1.0000   1.0000   1.0000   1.0000   1.0000
     1.0000   1.0000   1.0000   1.0000   1.0000   1.0000   1.0000   1.0000
     1.0000   1.0000   1.0000   1.0000   1.0000   1.0000   1.0000   1.0000
     1.0000   1.0000   1.0000   1.0000   1.0000   1.0000   1.0000   1.0000
     1.0000   1.0000   1.0000   1.0000   1.0000   1.0000   1.0000   1.0000
     1.0000   1.0000   1.0000   1.0000   1.0000   1.0000   1.0000   1.0000
     1.0000   1.0000   1.0000   1.0000   1.0000   1.0000   1.0000   1.0000
     1.0000   1.0000   1.0000   1.0000   1.0000   1.0000   1.0000   1.0000
     1.0000   1.0000   1.0000   1.0000   1.0000   1.0000   1.0000   1.0000
     1.0000   1.0000   1.0000   1.0000   1.0000   0.9975   0.9967   0.9967
     0.9958   0.0000   0.0000   0.0000   0.0000   0.0000   0.0000   0.0000
     0.0000   0.0000   0.0000   0.0000   0.0000   0.0000   0.0000   0.0000
     0.0000   0.0000   0.0000   0.0000   0.0000   0.0000   0.0000   0.0000

 ------ SPIN DOWN ----------


          k = 0.0000 0.0000 0.0000 ( 33665 PWs)   bands (ev):

  -101.0882-101.0745-101.0745-101.0642-101.0563-101.0410-101.0400-101.0281
  -100.6556-100.6454-100.6452-100.6349-100.6346-100.6242-100.6242-100.6137
   -61.5581 -61.5564 -61.5452 -61.5452 -61.5405 -61.5400 -61.5400 -61.4831
   -61.4772 -61.4772 -61.4611 -61.4603 -61.4603 -61.4449 -61.4439 -61.4345
   -61.4340 -61.4340 -61.4164 -61.4153 -61.3891 -61.3891 -61.3786 -61.3786
   -61.1566 -61.1566 -61.1482 -61.1482 -61.1373 -61.1358 -61.1276 -61.1276
   -61.0507 -61.0507 -61.0428 -61.0428 -61.0296 -61.0296 -61.0229 -61.0202
   -60.9937 -60.9850 -60.9850 -60.9782 -60.9733 -60.9641 -60.9641 -60.9561
   -13.4501  -6.6044  -4.8932  -2.9191  -2.4068  -2.4068  -2.3554  -2.3525
    -2.3042  -2.0960  -2.0519  -1.7799  -1.7354  -1.7354  -1.6461  -1.6444
    -1.5675  -1.5675  -1.4953  -1.4403  -1.4403  -1.2311  -1.1854  -0.9100
    -0.6409  -0.6409  -0.3263  -0.2717  -0.2717  -0.2440  -0.2410  -0.0815
    -0.0802  -0.0733  -0.0733   0.0178   0.2078   0.2094   0.2195   0.2195
     0.2705   0.2705   0.2906   0.2938   0.3800   0.3800   0.4844   0.4844
     0.5947   0.7465   0.8500   0.8568   0.8864   0.8864   1.0103   1.0103
     1.0239   1.2647   1.2647   1.2739   1.2816   1.2837   1.3691   1.3777
     1.5708   1.6063   1.6063   1.6292   1.6422   1.6747   1.6747   1.6918
     1.6918   1.7886   1.7907   1.8671   1.9075   1.9113   1.9176   1.9176
     1.9336   1.9826   2.0699   2.0699   2.1223   2.1568   2.4305   2.4531
     2.5728   2.5728   2.5765   2.5814   3.1794   3.1808   3.1808   3.1968
     3.3147   5.2369   5.2369   5.3025   6.0122   6.4226   6.4226   6.4387
     6.4391   6.5817   7.1410   7.6319   7.6319   8.3472   9.1410   9.1411

     occupation numbers 
     1.0000   1.0000   1.0000   1.0000   1.0000   1.0000   1.0000   1.0000
     1.0000   1.0000   1.0000   1.0000   1.0000   1.0000   1.0000   1.0000
     1.0000   1.0000   1.0000   1.0000   1.0000   1.0000   1.0000   1.0000
     1.0000   1.0000   1.0000   1.0000   1.0000   1.0000   1.0000   1.0000
     1.0000   1.0000   1.0000   1.0000   1.0000   1.0000   1.0000   1.0000
     1.0000   1.0000   1.0000   1.0000   1.0000   1.0000   1.0000   1.0000
     1.0000   1.0000   1.0000   1.0000   1.0000   1.0000   1.0000   1.0000
     1.0000   1.0000   1.0000   1.0000   1.0000   1.0000   1.0000   1.0000
     1.0000   1.0000   1.0000   1.0000   1.0000   1.0000   1.0000   1.0000
     1.0000   1.0000   1.0000   1.0000   1.0000   1.0000   1.0000   1.0000
     1.0000   1.0000   1.0000   1.0000   1.0000   1.0000   1.0000   1.0000
     1.0000   1.0000   1.0000   1.0000   1.0000   1.0000   1.0000   1.0000
     1.0000   1.0000   1.0000   1.0000   1.0000   1.0000   1.0000   1.0000
     1.0000   1.0000   1.0000   1.0000   1.0000   1.0000   1.0000   1.0000
     1.0000   1.0000   1.0000   1.0000   1.0000   1.0000   1.0000   1.0000
     1.0000   0.9999   0.9999   0.9999   0.9999   0.9999   0.9994   0.9993
     0.9692   0.9393   0.9393   0.9073   0.8829   0.7976   0.7976   0.7369
     0.7369   0.2879   0.2792   0.0775   0.0361   0.0335   0.0297   0.0297
     0.0217   0.0083   0.0015   0.0015   0.0005   0.0003   0.0000   0.0000
     0.0000   0.0000   0.0000   0.0000   0.0000   0.0000   0.0000   0.0000
     0.0000   0.0000   0.0000   0.0000   0.0000   0.0000   0.0000   0.0000
     0.0000   0.0000   0.0000   0.0000   0.0000   0.0000   0.0000   0.0000

          k = 0.0000 0.1250 0.0000 ( 33695 PWs)   bands (ev):

  -101.0876-101.0751-101.0742-101.0646-101.0561-101.0410-101.0399-101.0284
  -100.6552-100.6457-100.6449-100.6353-100.6342-100.6246-100.6238-100.6141
   -61.5567 -61.5534 -61.5442 -61.5430 -61.5395 -61.5380 -61.5379 -61.4878
   -61.4759 -61.4729 -61.4614 -61.4606 -61.4597 -61.4473 -61.4441 -61.4386
   -61.4334 -61.4295 -61.4196 -61.4165 -61.3931 -61.3890 -61.3826 -61.3785
   -61.1563 -61.1527 -61.1485 -61.1443 -61.1363 -61.1324 -61.1279 -61.1237
   -61.0548 -61.0504 -61.0468 -61.0431 -61.0337 -61.0293 -61.0260 -61.0214
   -60.9933 -60.9853 -60.9847 -60.9785 -60.9730 -60.9644 -60.9638 -60.9564
   -13.4495  -6.5055  -4.8012  -2.8456  -2.8101  -2.3530  -2.3410  -2.2895
    -2.2414  -2.0663  -2.0235  -1.7783  -1.7477  -1.7344  -1.7182  -1.6042
    -1.5273  -1.4665  -1.4300  -1.4165  -1.3622  -1.2001  -1.1556  -0.8885
    -0.6418  -0.6337  -0.4787  -0.3274  -0.3163  -0.3002  -0.1303  -0.1183
    -0.1090  -0.1025  -0.0070   0.0429   0.1365   0.1479   0.1490   0.2701
     0.2929   0.3147   0.3445   0.3504   0.3558   0.3913   0.4513   0.4561
     0.4863   0.7780   0.8557   0.8634   0.8661   0.9086   0.9743   1.0311
     1.1046   1.1251   1.1557   1.1707   1.1807   1.2901   1.3534   1.3595
     1.3659   1.4788   1.5231   1.6378   1.6396   1.7269   1.7288   1.7315
     1.7628   1.7711   1.7718   1.8147   1.8177   1.8254   1.8665   1.8875
     1.9512   1.9521   1.9952   2.0409   2.0745   2.0856   2.2556   2.3353
     2.3550   2.4291   2.8562   2.8585   2.9247   3.2437   3.2590   3.6239
     4.1459   5.0908   5.0922   5.4090   6.1065   6.4756   6.4894   6.5077
     6.6655   6.6847   7.2271   7.3128   7.3147   8.4410   8.8001   9.1952

     occupation numbers 
     1.0000   1.0000   1.0000   1.0000   1.0000   1.0000   1.0000   1.0000
     1.0000   1.0000   1.0000   1.0000   1.0000   1.0000   1.0000   1.0000
     1.0000   1.0000   1.0000   1.0000   1.0000   1.0000   1.0000   1.0000
     1.0000   1.0000   1.0000   1.0000   1.0000   1.0000   1.0000   1.0000
     1.0000   1.0000   1.0000   1.0000   1.0000   1.0000   1.0000   1.0000
     1.0000   1.0000   1.0000   1.0000   1.0000   1.0000   1.0000   1.0000
     1.0000   1.0000   1.0000   1.0000   1.0000   1.0000   1.0000   1.0000
     1.0000   1.0000   1.0000   1.0000   1.0000   1.0000   1.0000   1.0000
     1.0000   1.0000   1.0000   1.0000   1.0000   1.0000   1.0000   1.0000
     1.0000   1.0000   1.0000   1.0000   1.0000   1.0000   1.0000   1.0000
     1.0000   1.0000   1.0000   1.0000   1.0000   1.0000   1.0000   1.0000
     1.0000   1.0000   1.0000   1.0000   1.0000   1.0000   1.0000   1.0000
     1.0000   1.0000   1.0000   1.0000   1.0000   1.0000   1.0000   1.0000
     1.0000   1.0000   1.0000   1.0000   1.0000   1.0000   1.0000   1.0000
     1.0000   1.0000   1.0000   1.0000   1.0000   1.0000   1.0000   1.0000
     1.0000   1.0000   1.0000   1.0000   1.0000   0.9999   0.9996   0.9995
     0.9995   0.9950   0.9879   0.8917   0.8883   0.5810   0.5720   0.5586
     0.4037   0.3643   0.3611   0.1934   0.1841   0.1620   0.0784   0.0529
     0.0154   0.0151   0.0064   0.0026   0.0013   0.0011   0.0000   0.0000
     0.0000   0.0000   0.0000   0.0000   0.0000   0.0000   0.0000   0.0000
     0.0000   0.0000   0.0000   0.0000   0.0000   0.0000   0.0000   0.0000
     0.0000   0.0000   0.0000   0.0000   0.0000   0.0000   0.0000   0.0000

          k = 0.0000 0.2500 0.0000 ( 33669 PWs)   bands (ev):

  -101.0862-101.0766-101.0730-101.0657-101.0557-101.0411-101.0393-101.0291
  -100.6541-100.6468-100.6438-100.6364-100.6331-100.6257-100.6227-100.6152
   -61.5540 -61.5446 -61.5425 -61.5385 -61.5364 -61.5326 -61.5314 -61.4930
   -61.4716 -61.4686 -61.4651 -61.4609 -61.4581 -61.4538 -61.4429 -61.4369
   -61.4321 -61.4289 -61.4274 -61.4188 -61.4044 -61.3937 -61.3888 -61.3784
   -61.1553 -61.1494 -61.1414 -61.1352 -61.1330 -61.1288 -61.1212 -61.1124
   -61.0664 -61.0584 -61.0495 -61.0452 -61.0439 -61.0370 -61.0284 -61.0226
   -60.9923 -60.9862 -60.9840 -60.9792 -60.9720 -60.9654 -60.9629 -60.9573
   -13.4482  -6.2128  -4.5322  -3.5470  -2.6130  -2.5869  -2.1600  -2.1135
    -2.0629  -1.9826  -1.9438  -1.7768  -1.7745  -1.7318  -1.7268  -1.5194
    -1.4448  -1.3842  -1.3824  -1.3584  -1.2184  -1.1157  -1.0726  -0.8244
    -0.7335  -0.6460  -0.6138  -0.4790  -0.4610  -0.2805  -0.1753  -0.1392
    -0.1355  -0.0834  -0.0203   0.0252   0.0436   0.1100   0.2111   0.2695
     0.2929   0.3115   0.3529   0.3703   0.3710   0.3931   0.4134   0.4272
     0.4293   0.7565   0.7695   0.7942   0.7994   0.8098   0.8625   0.8985
     0.9910   1.0557   1.0896   1.1934   1.2051   1.2592   1.2791   1.2834
     1.3014   1.3328   1.4708   1.5168   1.5199   1.5279   1.6283   1.6363
     1.6458   1.6511   1.6514   1.7848   1.7949   1.8144   1.8609   1.8762
     1.8872   1.8925   1.8928   1.8971   1.9234   1.9746   2.0949   2.1556
     2.1580   2.7203   2.7749   3.4111   3.4231   3.4730   3.4740   4.2796
     4.7573   4.7627   4.9170   5.7222   6.3882   6.6174   6.6247   6.6884
     6.7008   6.7121   6.9776   7.1424   7.4853   8.9560   8.9791   9.3651

     occupation numbers 
     1.0000   1.0000   1.0000   1.0000   1.0000   1.0000   1.0000   1.0000
     1.0000   1.0000   1.0000   1.0000   1.0000   1.0000   1.0000   1.0000
     1.0000   1.0000   1.0000   1.0000   1.0000   1.0000   1.0000   1.0000
     1.0000   1.0000   1.0000   1.0000   1.0000   1.0000   1.0000   1.0000
     1.0000   1.0000   1.0000   1.0000   1.0000   1.0000   1.0000   1.0000
     1.0000   1.0000   1.0000   1.0000   1.0000   1.0000   1.0000   1.0000
     1.0000   1.0000   1.0000   1.0000   1.0000   1.0000   1.0000   1.0000
     1.0000   1.0000   1.0000   1.0000   1.0000   1.0000   1.0000   1.0000
     1.0000   1.0000   1.0000   1.0000   1.0000   1.0000   1.0000   1.0000
     1.0000   1.0000   1.0000   1.0000   1.0000   1.0000   1.0000   1.0000
     1.0000   1.0000   1.0000   1.0000   1.0000   1.0000   1.0000   1.0000
     1.0000   1.0000   1.0000   1.0000   1.0000   1.0000   1.0000   1.0000
     1.0000   1.0000   1.0000   1.0000   1.0000   1.0000   1.0000   1.0000
     1.0000   1.0000   1.0000   1.0000   1.0000   1.0000   1.0000   1.0000
     1.0000   1.0000   1.0000   1.0000   1.0000   1.0000   1.0000   1.0000
     1.0000   1.0000   1.0000   1.0000   1.0000   0.9999   0.9999   0.9999
     0.9999   0.9997   0.9957   0.9893   0.9886   0.9867   0.9089   0.8946
     0.8753   0.8633   0.8625   0.3033   0.2624   0.1941   0.0869   0.0654
     0.0532   0.0481   0.0479   0.0441   0.0265   0.0097   0.0009   0.0003
     0.0002   0.0000   0.0000   0.0000   0.0000   0.0000   0.0000   0.0000
     0.0000   0.0000   0.0000   0.0000   0.0000   0.0000   0.0000   0.0000
     0.0000   0.0000   0.0000   0.0000   0.0000   0.0000   0.0000   0.0000

          k = 0.0000 0.3750 0.0000 ( 33614 PWs)   bands (ev):

  -101.0840-101.0788-101.0714-101.0674-101.0553-101.0415-101.0385-101.0300
  -100.6524-100.6485-100.6421-100.6381-100.6315-100.6273-100.6210-100.6168
   -61.5503 -61.5438 -61.5359 -61.5331 -61.5321 -61.5260 -61.5214 -61.4921
   -61.4820 -61.4705 -61.4639 -61.4583 -61.4540 -61.4489 -61.4422 -61.4411
   -61.4339 -61.4287 -61.4273 -61.4219 -61.4199 -61.4095 -61.3886 -61.3782
   -61.1539 -61.1506 -61.1337 -61.1302 -61.1244 -61.1160 -61.1044 -61.0957
   -61.0838 -61.0756 -61.0623 -61.0538 -61.0483 -61.0452 -61.0272 -61.0239
   -60.9908 -60.9875 -60.9829 -60.9803 -60.9705 -60.9668 -60.9617 -60.9586
   -13.4469  -5.7382  -4.3522  -4.1078  -3.0333  -2.2776  -1.9247  -1.8889
    -1.8655  -1.8367  -1.8062  -1.8003  -1.7759  -1.7660  -1.7292  -1.4769
    -1.4039  -1.3699  -1.3268  -1.2625  -1.2604  -0.9982  -0.9720  -0.9454
    -0.7155  -0.6671  -0.6323  -0.6154  -0.5617  -0.2622  -0.2375  -0.2375
    -0.2049  -0.1784  -0.0473  -0.0281   0.0336   0.1414   0.2033   0.2248
     0.2708   0.2823   0.3004   0.3107   0.4396   0.4505   0.4710   0.4767
     0.4970   0.5832   0.5837   0.6361   0.7359   0.7788   0.8140   0.9068
     0.9419   1.0876   1.0937   1.0969   1.1145   1.1596   1.1622   1.2435
     1.2582   1.2677   1.2714   1.2985   1.4080   1.4093   1.4443   1.4915
     1.5584   1.6078   1.6215   1.7097   1.7220   1.7227   1.7493   1.7738
     1.7828   1.9299   1.9498   1.9573   1.9618   1.9802   2.0406   2.0495
     2.0754   2.3691   3.3527   3.6860   3.7039   4.1963   4.2079   4.3790
     4.3902   4.6245   5.0531   5.8184   5.8309   6.2249   6.7573   6.8586
     7.0188   7.0494   7.4568   7.6815   7.8972   7.9170   8.1342   8.1673

     occupation numbers 
     1.0000   1.0000   1.0000   1.0000   1.0000   1.0000   1.0000   1.0000
     1.0000   1.0000   1.0000   1.0000   1.0000   1.0000   1.0000   1.0000
     1.0000   1.0000   1.0000   1.0000   1.0000   1.0000   1.0000   1.0000
     1.0000   1.0000   1.0000   1.0000   1.0000   1.0000   1.0000   1.0000
     1.0000   1.0000   1.0000   1.0000   1.0000   1.0000   1.0000   1.0000
     1.0000   1.0000   1.0000   1.0000   1.0000   1.0000   1.0000   1.0000
     1.0000   1.0000   1.0000   1.0000   1.0000   1.0000   1.0000   1.0000
     1.0000   1.0000   1.0000   1.0000   1.0000   1.0000   1.0000   1.0000
     1.0000   1.0000   1.0000   1.0000   1.0000   1.0000   1.0000   1.0000
     1.0000   1.0000   1.0000   1.0000   1.0000   1.0000   1.0000   1.0000
     1.0000   1.0000   1.0000   1.0000   1.0000   1.0000   1.0000   1.0000
     1.0000   1.0000   1.0000   1.0000   1.0000   1.0000   1.0000   1.0000
     1.0000   1.0000   1.0000   1.0000   1.0000   1.0000   1.0000   1.0000
     1.0000   1.0000   1.0000   1.0000   1.0000   1.0000   1.0000   1.0000
     1.0000   1.0000   1.0000   1.0000   1.0000   1.0000   1.0000   1.0000
     1.0000   1.0000   1.0000   1.0000   1.0000   1.0000   1.0000   1.0000
     0.9999   0.9999   0.9999   0.9999   0.9988   0.9987   0.9975   0.9935
     0.9758   0.9376   0.9195   0.6618   0.6047   0.6015   0.4701   0.3517
     0.3118   0.0234   0.0158   0.0136   0.0125   0.0087   0.0026   0.0022
     0.0013   0.0000   0.0000   0.0000   0.0000   0.0000   0.0000   0.0000
     0.0000   0.0000   0.0000   0.0000   0.0000   0.0000   0.0000   0.0000
     0.0000   0.0000   0.0000   0.0000   0.0000   0.0000   0.0000   0.0000

          k = 0.0000-0.5000 0.0000 ( 33596 PWs)   bands (ev):

  -101.0814-101.0814-101.0694-101.0694-101.0551-101.0416-101.0381-101.0305
  -100.6506-100.6503-100.6402-100.6400-100.6301-100.6287-100.6196-100.6183
   -61.5466 -61.5464 -61.5331 -61.5314 -61.5280 -61.5277 -61.5049 -61.4997
   -61.4856 -61.4766 -61.4590 -61.4536 -61.4525 -61.4507 -61.4394 -61.4383
   -61.4333 -61.4314 -61.4255 -61.4252 -61.4242 -61.4237 -61.3885 -61.3782
   -61.1526 -61.1519 -61.1324 -61.1315 -61.1050 -61.1033 -61.0966 -61.0950
   -61.0889 -61.0803 -61.0779 -61.0692 -61.0472 -61.0463 -61.0260 -61.0251
   -60.9892 -60.9891 -60.9816 -60.9816 -60.9692 -60.9680 -60.9606 -60.9597
   -13.4464  -5.1046  -5.1045  -3.6021  -3.5573  -1.9608  -1.9591  -1.8169
    -1.7851  -1.7814  -1.7813  -1.7775  -1.7684  -1.7281  -1.5051  -1.4968
    -1.4399  -1.4396  -1.3894  -1.3714  -1.1307  -1.1137  -0.8507  -0.8446
    -0.8199  -0.7954  -0.5507  -0.4849  -0.4745  -0.4715  -0.4376  -0.3741
    -0.2145  -0.2141   0.0481   0.0836   0.1208   0.1339   0.1418   0.1837
     0.2245   0.2339   0.2569   0.2673   0.4653   0.4666   0.4714   0.4843
     0.5944   0.6006   0.6040   0.6190   0.8450   0.8503   0.8669   0.8770
     0.8786   0.8952   0.8973   0.9398   1.0170   1.0351   1.1910   1.2285
     1.2476   1.2733   1.2931   1.2970   1.3054   1.3114   1.3233   1.3291
     1.5742   1.5923   1.6794   1.6922   1.6954   1.6996   1.7007   1.7262
     1.9612   1.9656   1.9915   1.9979   1.9985   2.0065   2.0228   2.0251
     2.0275   2.0368   3.9811   3.9876   4.0125   4.0162   4.0201   4.0397
     4.9766   5.0021   5.0194   5.0222   5.8714   5.9202   6.8508   6.9437
     7.4747   7.4875   7.5102   7.5136   7.5178   7.5371   8.1222   8.2102

     occupation numbers 
     1.0000   1.0000   1.0000   1.0000   1.0000   1.0000   1.0000   1.0000
     1.0000   1.0000   1.0000   1.0000   1.0000   1.0000   1.0000   1.0000
     1.0000   1.0000   1.0000   1.0000   1.0000   1.0000   1.0000   1.0000
     1.0000   1.0000   1.0000   1.0000   1.0000   1.0000   1.0000   1.0000
     1.0000   1.0000   1.0000   1.0000   1.0000   1.0000   1.0000   1.0000
     1.0000   1.0000   1.0000   1.0000   1.0000   1.0000   1.0000   1.0000
     1.0000   1.0000   1.0000   1.0000   1.0000   1.0000   1.0000   1.0000
     1.0000   1.0000   1.0000   1.0000   1.0000   1.0000   1.0000   1.0000
     1.0000   1.0000   1.0000   1.0000   1.0000   1.0000   1.0000   1.0000
     1.0000   1.0000   1.0000   1.0000   1.0000   1.0000   1.0000   1.0000
     1.0000   1.0000   1.0000   1.0000   1.0000   1.0000   1.0000   1.0000
     1.0000   1.0000   1.0000   1.0000   1.0000   1.0000   1.0000   1.0000
     1.0000   1.0000   1.0000   1.0000   1.0000   1.0000   1.0000   1.0000
     1.0000   1.0000   1.0000   1.0000   1.0000   1.0000   1.0000   1.0000
     1.0000   1.0000   1.0000   1.0000   1.0000   1.0000   1.0000   1.0000
     1.0000   1.0000   1.0000   1.0000   1.0000   1.0000   1.0000   1.0000
     1.0000   0.9999   0.9999   0.9999   0.9998   0.9998   0.9998   0.9997
     0.9671   0.9534   0.7820   0.7354   0.7226   0.7056   0.7010   0.5846
     0.0126   0.0116   0.0069   0.0061   0.0060   0.0051   0.0037   0.0036
     0.0034   0.0028   0.0000   0.0000   0.0000   0.0000   0.0000   0.0000
     0.0000   0.0000   0.0000   0.0000   0.0000   0.0000   0.0000   0.0000
     0.0000   0.0000   0.0000   0.0000   0.0000   0.0000   0.0000   0.0000

          k = 0.1250 0.1250 0.0000 ( 33677 PWs)   bands (ev):

  -101.0871-101.0747-101.0747-101.0650-101.0560-101.0408-101.0399-101.0287
  -100.6548-100.6454-100.6452-100.6357-100.6338-100.6242-100.6242-100.6145
   -61.5538 -61.5517 -61.5418 -61.5415 -61.5384 -61.5363 -61.5361 -61.4904
   -61.4742 -61.4720 -61.4608 -61.4608 -61.4596 -61.4487 -61.4436 -61.4383
   -61.4379 -61.4263 -61.4207 -61.4194 -61.3934 -61.3927 -61.3827 -61.3823
   -61.1523 -61.1523 -61.1446 -61.1445 -61.1330 -61.1314 -61.1240 -61.1239
   -61.0545 -61.0544 -61.0471 -61.0471 -61.0334 -61.0333 -61.0272 -61.0245
   -60.9930 -60.9850 -60.9850 -60.9787 -60.9726 -60.9641 -60.9641 -60.9567
   -13.4490  -6.4071  -4.7095  -2.7746  -2.7521  -2.7314  -2.2862  -2.2860
    -2.1797  -2.0729  -1.9685  -1.7767  -1.7474  -1.7455  -1.6713  -1.6712
    -1.4370  -1.4149  -1.3930  -1.3175  -1.3163  -1.1893  -1.1170  -0.8676
    -0.6463  -0.6144  -0.5260  -0.5249  -0.3028  -0.1833  -0.1831  -0.1674
    -0.1659  -0.0124  -0.0096   0.0536   0.0564   0.0702   0.2351   0.2371
     0.3350   0.3363   0.3487   0.3617   0.3752   0.3811   0.3992   0.4127
     0.4461   0.8059   0.8460   0.8493   0.8571   0.8617   0.9836   1.0278
     1.0317   1.0345   1.0938   1.1352   1.1380   1.1825   1.3284   1.3528
     1.3689   1.5703   1.5819   1.6194   1.6271   1.6670   1.6938   1.6959
     1.7286   1.7314   1.7516   1.7669   1.7944   1.7951   1.8087   1.8091
     1.9077   1.9080   1.9269   2.0338   2.0629   2.2445   2.2625   2.2629
     2.3081   2.4747   2.4759   2.4937   3.1767   3.1820   3.8717   4.2473
     4.2494   4.2728   5.5146   5.7596   6.2006   6.3508   6.5348   6.5350
     6.7548   6.7571   6.7850   7.3132   7.9944   8.5348   8.7054   8.8348

     occupation numbers 
     1.0000   1.0000   1.0000   1.0000   1.0000   1.0000   1.0000   1.0000
     1.0000   1.0000   1.0000   1.0000   1.0000   1.0000   1.0000   1.0000
     1.0000   1.0000   1.0000   1.0000   1.0000   1.0000   1.0000   1.0000
     1.0000   1.0000   1.0000   1.0000   1.0000   1.0000   1.0000   1.0000
     1.0000   1.0000   1.0000   1.0000   1.0000   1.0000   1.0000   1.0000
     1.0000   1.0000   1.0000   1.0000   1.0000   1.0000   1.0000   1.0000
     1.0000   1.0000   1.0000   1.0000   1.0000   1.0000   1.0000   1.0000
     1.0000   1.0000   1.0000   1.0000   1.0000   1.0000   1.0000   1.0000
     1.0000   1.0000   1.0000   1.0000   1.0000   1.0000   1.0000   1.0000
     1.0000   1.0000   1.0000   1.0000   1.0000   1.0000   1.0000   1.0000
     1.0000   1.0000   1.0000   1.0000   1.0000   1.0000   1.0000   1.0000
     1.0000   1.0000   1.0000   1.0000   1.0000   1.0000   1.0000   1.0000
     1.0000   1.0000   1.0000   1.0000   1.0000   1.0000   1.0000   1.0000
     1.0000   1.0000   1.0000   1.0000   1.0000   1.0000   1.0000   1.0000
     1.0000   1.0000   1.0000   1.0000   1.0000   1.0000   1.0000   1.0000
     1.0000   1.0000   1.0000   1.0000   1.0000   1.0000   0.9998   0.9996
     0.9994   0.9695   0.9618   0.9225   0.9108   0.8213   0.7290   0.7204
     0.5726   0.5592   0.4582   0.3837   0.2645   0.2619   0.2128   0.2115
     0.0359   0.0358   0.0248   0.0030   0.0017   0.0000   0.0000   0.0000
     0.0000   0.0000   0.0000   0.0000   0.0000   0.0000   0.0000   0.0000
     0.0000   0.0000   0.0000   0.0000   0.0000   0.0000   0.0000   0.0000
     0.0000   0.0000   0.0000   0.0000   0.0000   0.0000   0.0000   0.0000

          k = 0.1250 0.2500 0.0000 ( 33628 PWs)   bands (ev):

  -101.0857-101.0762-101.0736-101.0662-101.0555-101.0409-101.0395-101.0294
  -100.6537-100.6464-100.6442-100.6368-100.6327-100.6253-100.6231-100.6156
   -61.5504 -61.5432 -61.5396 -61.5365 -61.5352 -61.5312 -61.5297 -61.4946
   -61.4706 -61.4694 -61.4650 -61.4608 -61.4575 -61.4530 -61.4431 -61.4395
   -61.4367 -61.4287 -61.4244 -61.4212 -61.4042 -61.3938 -61.3926 -61.3823
   -61.1513 -61.1454 -61.1410 -61.1333 -61.1312 -61.1249 -61.1208 -61.1127
   -61.0661 -61.0587 -61.0536 -61.0480 -61.0449 -61.0374 -61.0325 -61.0266
   -60.9920 -60.9859 -60.9843 -60.9795 -60.9716 -60.9651 -60.9633 -60.9576
   -13.4477  -6.1156  -4.4417  -3.4714  -2.5732  -2.5317  -2.5097  -2.0988
    -2.0624  -2.0047  -1.8467  -1.7753  -1.7728  -1.7434  -1.6723  -1.5550
    -1.3692  -1.3521  -1.3279  -1.2389  -1.1651  -1.1461  -1.0134  -0.8059
    -0.7696  -0.6335  -0.6217  -0.5833  -0.3510  -0.2861  -0.2670  -0.2324
    -0.0953  -0.0862  -0.0657  -0.0004   0.1312   0.1401   0.1603   0.2511
     0.2908   0.2935   0.3137   0.3363   0.3740   0.3900   0.4042   0.4301
     0.4654   0.6972   0.7367   0.7421   0.7827   0.8066   0.8797   0.9131
     0.9876   1.0547   1.0697   1.0737   1.1038   1.2529   1.2588   1.2865
     1.3284   1.4196   1.4595   1.4929   1.5188   1.5490   1.5920   1.6019
     1.6263   1.6715   1.6781   1.6863   1.7362   1.7542   1.8224   1.8490
     1.8667   1.8745   1.8864   1.8992   1.9593   1.9974   2.0722   2.0858
     2.1422   2.5741   2.7273   2.9385   2.9469   3.6025   3.7821   4.4505
     4.5341   5.0582   5.4309   5.8248   5.9778   6.4820   6.7058   6.7657
     7.0260   7.0773   7.2434   7.5090   7.5716   8.0858   8.5404   8.8088

     occupation numbers 
     1.0000   1.0000   1.0000   1.0000   1.0000   1.0000   1.0000   1.0000
     1.0000   1.0000   1.0000   1.0000   1.0000   1.0000   1.0000   1.0000
     1.0000   1.0000   1.0000   1.0000   1.0000   1.0000   1.0000   1.0000
     1.0000   1.0000   1.0000   1.0000   1.0000   1.0000   1.0000   1.0000
     1.0000   1.0000   1.0000   1.0000   1.0000   1.0000   1.0000   1.0000
     1.0000   1.0000   1.0000   1.0000   1.0000   1.0000   1.0000   1.0000
     1.0000   1.0000   1.0000   1.0000   1.0000   1.0000   1.0000   1.0000
     1.0000   1.0000   1.0000   1.0000   1.0000   1.0000   1.0000   1.0000
     1.0000   1.0000   1.0000   1.0000   1.0000   1.0000   1.0000   1.0000
     1.0000   1.0000   1.0000   1.0000   1.0000   1.0000   1.0000   1.0000
     1.0000   1.0000   1.0000   1.0000   1.0000   1.0000   1.0000   1.0000
     1.0000   1.0000   1.0000   1.0000   1.0000   1.0000   1.0000   1.0000
     1.0000   1.0000   1.0000   1.0000   1.0000   1.0000   1.0000   1.0000
     1.0000   1.0000   1.0000   1.0000   1.0000   1.0000   1.0000   1.0000
     1.0000   1.0000   1.0000   1.0000   1.0000   1.0000   1.0000   1.0000
     1.0000   1.0000   1.0000   1.0000   1.0000   0.9999   0.9999   0.9999
     0.9998   0.9985   0.9966   0.9934   0.9889   0.9799   0.9537   0.9441
     0.9120   0.8077   0.7865   0.7574   0.5355   0.4454   0.1703   0.1076
     0.0780   0.0675   0.0540   0.0424   0.0131   0.0062   0.0014   0.0011
     0.0003   0.0000   0.0000   0.0000   0.0000   0.0000   0.0000   0.0000
     0.0000   0.0000   0.0000   0.0000   0.0000   0.0000   0.0000   0.0000
     0.0000   0.0000   0.0000   0.0000   0.0000   0.0000   0.0000   0.0000

          k = 0.1250 0.3750 0.0000 ( 33622 PWs)   bands (ev):

  -101.0835-101.0784-101.0719-101.0679-101.0551-101.0412-101.0387-101.0303
  -100.6520-100.6481-100.6425-100.6385-100.6311-100.6269-100.6214-100.6172
   -61.5467 -61.5404 -61.5347 -61.5309 -61.5308 -61.5237 -61.5204 -61.4935
   -61.4813 -61.4709 -61.4639 -61.4588 -61.4542 -61.4488 -61.4443 -61.4397
   -61.4362 -61.4334 -61.4262 -61.4218 -61.4190 -61.4091 -61.3925 -61.3822
   -61.1500 -61.1467 -61.1298 -61.1263 -61.1240 -61.1163 -61.1041 -61.0960
   -61.0835 -61.0759 -61.0619 -61.0541 -61.0524 -61.0492 -61.0312 -61.0279
   -60.9905 -60.9872 -60.9832 -60.9806 -60.9702 -60.9665 -60.9620 -60.9589
   -13.4464  -5.6435  -4.2678  -4.0193  -2.9542  -2.3305  -2.1968  -2.0618
    -1.8324  -1.8037  -1.7712  -1.7448  -1.7405  -1.7098  -1.6772  -1.4323
    -1.3646  -1.3146  -1.2845  -1.2275  -1.1995  -1.0581  -0.9743  -0.8652
    -0.7297  -0.6906  -0.5876  -0.5461  -0.5326  -0.3210  -0.2864  -0.2608
    -0.2512  -0.2368  -0.0361  -0.0173   0.0655   0.1070   0.2216   0.2313
     0.2473   0.2507   0.2788   0.3010   0.3753   0.4061   0.4809   0.4968
     0.5623   0.5831   0.5991   0.6505   0.7295   0.7386   0.8236   0.8460
     0.9288   1.0006   1.0856   1.1009   1.1143   1.1253   1.1323   1.2356
     1.2632   1.2878   1.2922   1.3091   1.3402   1.3915   1.4761   1.5248
     1.5482   1.5709   1.5939   1.6069   1.6274   1.6646   1.6949   1.8058
     1.8501   1.9224   1.9285   1.9376   1.9534   1.9709   1.9875   2.0180
     2.0753   2.5714   2.7177   3.1828   3.3033   3.4940   4.5616   4.6347
     4.7557   4.9316   5.1870   5.7759   6.3227   6.4475   6.8645   6.9528
     6.9727   7.4798   7.5525   7.7218   7.7773   7.9843   8.0032   8.9547

     occupation numbers 
     1.0000   1.0000   1.0000   1.0000   1.0000   1.0000   1.0000   1.0000
     1.0000   1.0000   1.0000   1.0000   1.0000   1.0000   1.0000   1.0000
     1.0000   1.0000   1.0000   1.0000   1.0000   1.0000   1.0000   1.0000
     1.0000   1.0000   1.0000   1.0000   1.0000   1.0000   1.0000   1.0000
     1.0000   1.0000   1.0000   1.0000   1.0000   1.0000   1.0000   1.0000
     1.0000   1.0000   1.0000   1.0000   1.0000   1.0000   1.0000   1.0000
     1.0000   1.0000   1.0000   1.0000   1.0000   1.0000   1.0000   1.0000
     1.0000   1.0000   1.0000   1.0000   1.0000   1.0000   1.0000   1.0000
     1.0000   1.0000   1.0000   1.0000   1.0000   1.0000   1.0000   1.0000
     1.0000   1.0000   1.0000   1.0000   1.0000   1.0000   1.0000   1.0000
     1.0000   1.0000   1.0000   1.0000   1.0000   1.0000   1.0000   1.0000
     1.0000   1.0000   1.0000   1.0000   1.0000   1.0000   1.0000   1.0000
     1.0000   1.0000   1.0000   1.0000   1.0000   1.0000   1.0000   1.0000
     1.0000   1.0000   1.0000   1.0000   1.0000   1.0000   1.0000   1.0000
     1.0000   1.0000   1.0000   1.0000   1.0000   1.0000   1.0000   1.0000
     1.0000   1.0000   1.0000   1.0000   1.0000   1.0000   1.0000   1.0000
     0.9999   0.9999   0.9999   0.9998   0.9997   0.9991   0.9952   0.9875
     0.9802   0.9692   0.9520   0.9386   0.9103   0.8281   0.7245   0.2225
     0.1055   0.0270   0.0240   0.0201   0.0147   0.0104   0.0075   0.0041
     0.0013   0.0000   0.0000   0.0000   0.0000   0.0000   0.0000   0.0000
     0.0000   0.0000   0.0000   0.0000   0.0000   0.0000   0.0000   0.0000
     0.0000   0.0000   0.0000   0.0000   0.0000   0.0000   0.0000   0.0000

          k = 0.1250-0.5000 0.0000 ( 33600 PWs)   bands (ev):

  -101.0810-101.0809-101.0699-101.0699-101.0549-101.0414-101.0383-101.0308
  -100.6502-100.6499-100.6406-100.6404-100.6297-100.6283-100.6200-100.6187
   -61.5431 -61.5428 -61.5318 -61.5302 -61.5259 -61.5251 -61.5041 -61.4989
   -61.4861 -61.4774 -61.4621 -61.4550 -61.4513 -61.4488 -61.4391 -61.4388
   -61.4357 -61.4345 -61.4297 -61.4275 -61.4209 -61.4203 -61.3925 -61.3821
   -61.1487 -61.1479 -61.1284 -61.1275 -61.1046 -61.1030 -61.0969 -61.0953
   -61.0886 -61.0806 -61.0776 -61.0696 -61.0512 -61.0503 -61.0300 -61.0291
   -60.9889 -60.9888 -60.9819 -60.9819 -60.9689 -60.9677 -60.9609 -60.9600
   -13.4459  -5.0139  -5.0138  -3.5171  -3.4727  -2.1382  -2.1368  -1.8854
    -1.8850  -1.8148  -1.7667  -1.7394  -1.5786  -1.5608  -1.4665  -1.4586
    -1.4510  -1.4483  -1.3446  -1.3278  -1.1027  -1.0865  -0.8941  -0.8869
    -0.7234  -0.7116  -0.5485  -0.4856  -0.4770  -0.4671  -0.4142  -0.3629
    -0.2580  -0.2545   0.0038   0.0414   0.0476   0.0508   0.1609   0.1918
     0.2575   0.2664   0.2809   0.2899   0.3569   0.3706   0.5472   0.5727
     0.5849   0.5911   0.6027   0.6073   0.8226   0.8422   0.8511   0.8699
     0.8710   0.9189   0.9270   0.9409   0.9686   0.9802   1.1590   1.1732
     1.1809   1.2038   1.2907   1.3166   1.3333   1.3569   1.3685   1.3920
     1.5365   1.5560   1.5911   1.5970   1.6042   1.6159   1.7123   1.7212
     1.9031   1.9081   1.9487   1.9488   1.9648   1.9678   2.0058   2.0086
     2.2394   2.2584   2.9093   2.9176   3.9219   3.9519   4.1109   4.1166
     5.3722   5.3815   5.4491   5.4693   5.9846   6.0347   6.9338   7.0490
     7.3179   7.3191   7.5807   7.6074   8.1228   8.1245   8.2190   8.3089

     occupation numbers 
     1.0000   1.0000   1.0000   1.0000   1.0000   1.0000   1.0000   1.0000
     1.0000   1.0000   1.0000   1.0000   1.0000   1.0000   1.0000   1.0000
     1.0000   1.0000   1.0000   1.0000   1.0000   1.0000   1.0000   1.0000
     1.0000   1.0000   1.0000   1.0000   1.0000   1.0000   1.0000   1.0000
     1.0000   1.0000   1.0000   1.0000   1.0000   1.0000   1.0000   1.0000
     1.0000   1.0000   1.0000   1.0000   1.0000   1.0000   1.0000   1.0000
     1.0000   1.0000   1.0000   1.0000   1.0000   1.0000   1.0000   1.0000
     1.0000   1.0000   1.0000   1.0000   1.0000   1.0000   1.0000   1.0000
     1.0000   1.0000   1.0000   1.0000   1.0000   1.0000   1.0000   1.0000
     1.0000   1.0000   1.0000   1.0000   1.0000   1.0000   1.0000   1.0000
     1.0000   1.0000   1.0000   1.0000   1.0000   1.0000   1.0000   1.0000
     1.0000   1.0000   1.0000   1.0000   1.0000   1.0000   1.0000   1.0000
     1.0000   1.0000   1.0000   1.0000   1.0000   1.0000   1.0000   1.0000
     1.0000   1.0000   1.0000   1.0000   1.0000   1.0000   1.0000   1.0000
     1.0000   1.0000   1.0000   1.0000   1.0000   1.0000   1.0000   1.0000
     1.0000   1.0000   1.0000   1.0000   1.0000   1.0000   1.0000   1.0000
     1.0000   1.0000   0.9999   0.9998   0.9997   0.9996   0.9994   0.9991
     0.9843   0.9769   0.9545   0.9491   0.9416   0.9274   0.6499   0.6088
     0.0393   0.0357   0.0162   0.0161   0.0118   0.0111   0.0052   0.0049
     0.0000   0.0000   0.0000   0.0000   0.0000   0.0000   0.0000   0.0000
     0.0000   0.0000   0.0000   0.0000   0.0000   0.0000   0.0000   0.0000
     0.0000   0.0000   0.0000   0.0000   0.0000   0.0000   0.0000   0.0000

          k = 0.2500 0.2500 0.0000 ( 33623 PWs)   bands (ev):

  -101.0843-101.0750-101.0750-101.0673-101.0551-101.0403-101.0397-101.0302
  -100.6526-100.6454-100.6452-100.6379-100.6316-100.6242-100.6242-100.6167
   -61.5425 -61.5389 -61.5336 -61.5317 -61.5311 -61.5267 -61.5250 -61.4978
   -61.4700 -61.4674 -61.4673 -61.4584 -61.4570 -61.4520 -61.4497 -61.4458
   -61.4371 -61.4278 -61.4275 -61.4220 -61.4049 -61.4028 -61.3938 -61.3928
   -61.1401 -61.1401 -61.1342 -61.1340 -61.1207 -61.1191 -61.1138 -61.1135
   -61.0655 -61.0650 -61.0595 -61.0595 -61.0442 -61.0438 -61.0394 -61.0369
   -60.9910 -60.9851 -60.9851 -60.9802 -60.9706 -60.9642 -60.9642 -60.9585
   -13.4464  -5.8284  -4.1773  -3.2580  -3.2566  -2.3284  -2.3165  -2.2882
    -2.1724  -1.8419  -1.7733  -1.7697  -1.7687  -1.7037  -1.5302  -1.5300
    -1.3231  -1.2606  -1.2424  -1.2273  -1.0319  -1.0302  -0.9023  -0.8249
    -0.8148  -0.7477  -0.5646  -0.5401  -0.3929  -0.3912  -0.2913  -0.2514
    -0.2488  -0.1635  -0.1552   0.1166   0.1331   0.1369   0.1793   0.2018
     0.2069   0.2231   0.2761   0.3125   0.3490   0.4065   0.4076   0.5168
     0.5174   0.6240   0.6252   0.7118   0.7354   0.7404   0.8742   0.9168
     0.9216   0.9561   0.9561   1.0070   1.1769   1.2161   1.2210   1.2218
     1.2488   1.3664   1.4078   1.4344   1.5042   1.5153   1.5186   1.5282
     1.5292   1.5391   1.6079   1.6243   1.6900   1.7358   1.7681   1.7885
     1.7895   1.8379   1.8407   1.9257   2.0155   2.0190   2.0465   2.0501
     2.0871   2.1892   2.1892   2.6995   3.3379   3.4297   3.4336   4.4355
     4.9139   5.4498   5.4547   6.1264   6.5178   6.7620   6.9501   6.9506
     6.9546   7.3690   7.5325   7.5422   7.8304   8.6669   8.9549   9.0088

     occupation numbers 
     1.0000   1.0000   1.0000   1.0000   1.0000   1.0000   1.0000   1.0000
     1.0000   1.0000   1.0000   1.0000   1.0000   1.0000   1.0000   1.0000
     1.0000   1.0000   1.0000   1.0000   1.0000   1.0000   1.0000   1.0000
     1.0000   1.0000   1.0000   1.0000   1.0000   1.0000   1.0000   1.0000
     1.0000   1.0000   1.0000   1.0000   1.0000   1.0000   1.0000   1.0000
     1.0000   1.0000   1.0000   1.0000   1.0000   1.0000   1.0000   1.0000
     1.0000   1.0000   1.0000   1.0000   1.0000   1.0000   1.0000   1.0000
     1.0000   1.0000   1.0000   1.0000   1.0000   1.0000   1.0000   1.0000
     1.0000   1.0000   1.0000   1.0000   1.0000   1.0000   1.0000   1.0000
     1.0000   1.0000   1.0000   1.0000   1.0000   1.0000   1.0000   1.0000
     1.0000   1.0000   1.0000   1.0000   1.0000   1.0000   1.0000   1.0000
     1.0000   1.0000   1.0000   1.0000   1.0000   1.0000   1.0000   1.0000
     1.0000   1.0000   1.0000   1.0000   1.0000   1.0000   1.0000   1.0000
     1.0000   1.0000   1.0000   1.0000   1.0000   1.0000   1.0000   1.0000
     1.0000   1.0000   1.0000   1.0000   1.0000   1.0000   1.0000   1.0000
     1.0000   1.0000   1.0000   1.0000   1.0000   1.0000   1.0000   1.0000
     0.9999   0.9995   0.9988   0.9979   0.9917   0.9896   0.9889   0.9866
     0.9864   0.9834   0.9374   0.9153   0.7436   0.5373   0.3784   0.2879
     0.2839   0.1310   0.1247   0.0254   0.0043   0.0040   0.0023   0.0022
     0.0010   0.0001   0.0001   0.0000   0.0000   0.0000   0.0000   0.0000
     0.0000   0.0000   0.0000   0.0000   0.0000   0.0000   0.0000   0.0000
     0.0000   0.0000   0.0000   0.0000   0.0000   0.0000   0.0000   0.0000

          k = 0.2500 0.3750 0.0000 ( 33636 PWs)   bands (ev):

  -101.0822-101.0772-101.0732-101.0691-101.0546-101.0405-101.0391-101.0310
  -100.6509-100.6469-100.6436-100.6396-100.6300-100.6258-100.6225-100.6183
   -61.5378 -61.5327 -61.5303 -61.5262 -61.5254 -61.5181 -61.5174 -61.4970
   -61.4797 -61.4705 -61.4641 -61.4589 -61.4545 -61.4522 -61.4509 -61.4472
   -61.4371 -61.4314 -61.4277 -61.4218 -61.4179 -61.4085 -61.4033 -61.3931
   -61.1387 -61.1354 -61.1231 -61.1185 -61.1171 -61.1150 -61.1031 -61.0969
   -61.0826 -61.0767 -61.0640 -61.0610 -61.0608 -61.0551 -61.0427 -61.0393
   -60.9896 -60.9864 -60.9840 -60.9813 -60.9692 -60.9656 -60.9630 -60.9598
   -13.4451  -5.3642  -4.0233  -3.7622  -2.9469  -2.7282  -2.3459  -2.0240
    -1.9749  -1.7992  -1.7678  -1.7656  -1.6050  -1.5443  -1.5375  -1.4036
    -1.3618  -1.2603  -1.1292  -1.1273  -1.0907  -1.0567  -0.9406  -0.7463
    -0.7263  -0.6558  -0.5279  -0.5050  -0.4551  -0.4340  -0.4231  -0.3310
    -0.3027  -0.2936  -0.1517  -0.0118   0.0172   0.0998   0.1188   0.1601
     0.2028   0.2589   0.2959   0.3226   0.3380   0.4195   0.5098   0.5541
     0.5906   0.6281   0.6306   0.6543   0.6640   0.6768   0.7754   0.8246
     0.8957   0.9340   0.9659   1.0344   1.0604   1.0855   1.1684   1.1910
     1.1987   1.2145   1.2583   1.3038   1.3441   1.3976   1.4272   1.4543
     1.4590   1.4734   1.5143   1.5472   1.5564   1.6446   1.7080   1.7232
     1.7248   1.8069   1.8170   1.8365   1.9460   1.9659   1.9771   2.0307
     2.0794   2.2607   2.2865   2.5840   2.9744   3.6667   3.8536   4.0512
     5.1174   5.5627   5.5775   6.0361   6.6103   7.1751   7.2189   7.2289
     7.2458   7.8336   7.9920   8.0556   8.1141   8.2353   8.2616   9.0481

     occupation numbers 
     1.0000   1.0000   1.0000   1.0000   1.0000   1.0000   1.0000   1.0000
     1.0000   1.0000   1.0000   1.0000   1.0000   1.0000   1.0000   1.0000
     1.0000   1.0000   1.0000   1.0000   1.0000   1.0000   1.0000   1.0000
     1.0000   1.0000   1.0000   1.0000   1.0000   1.0000   1.0000   1.0000
     1.0000   1.0000   1.0000   1.0000   1.0000   1.0000   1.0000   1.0000
     1.0000   1.0000   1.0000   1.0000   1.0000   1.0000   1.0000   1.0000
     1.0000   1.0000   1.0000   1.0000   1.0000   1.0000   1.0000   1.0000
     1.0000   1.0000   1.0000   1.0000   1.0000   1.0000   1.0000   1.0000
     1.0000   1.0000   1.0000   1.0000   1.0000   1.0000   1.0000   1.0000
     1.0000   1.0000   1.0000   1.0000   1.0000   1.0000   1.0000   1.0000
     1.0000   1.0000   1.0000   1.0000   1.0000   1.0000   1.0000   1.0000
     1.0000   1.0000   1.0000   1.0000   1.0000   1.0000   1.0000   1.0000
     1.0000   1.0000   1.0000   1.0000   1.0000   1.0000   1.0000   1.0000
     1.0000   1.0000   1.0000   1.0000   1.0000   1.0000   1.0000   1.0000
     1.0000   1.0000   1.0000   1.0000   1.0000   1.0000   1.0000   1.0000
     1.0000   1.0000   1.0000   1.0000   1.0000   1.0000   1.0000   1.0000
     1.0000   1.0000   0.9999   0.9998   0.9997   0.9990   0.9982   0.9969
     0.9966   0.9955   0.9898   0.9806   0.9768   0.8780   0.6693   0.5988
     0.5913   0.2188   0.1862   0.1342   0.0171   0.0115   0.0092   0.0032
     0.0012   0.0000   0.0000   0.0000   0.0000   0.0000   0.0000   0.0000
     0.0000   0.0000   0.0000   0.0000   0.0000   0.0000   0.0000   0.0000
     0.0000   0.0000   0.0000   0.0000   0.0000   0.0000   0.0000   0.0000

          k = 0.2500-0.5000 0.0000 ( 33646 PWs)   bands (ev):

  -101.0797-101.0797-101.0712-101.0712-101.0544-101.0406-101.0387-101.0315
  -100.6491-100.6488-100.6417-100.6415-100.6286-100.6272-100.6211-100.6198
   -61.5345 -61.5336 -61.5272 -61.5263 -61.5208 -61.5187 -61.5016 -61.4964
   -61.4874 -61.4798 -61.4650 -61.4562 -61.4540 -61.4504 -61.4469 -61.4430
   -61.4364 -61.4355 -61.4285 -61.4272 -61.4194 -61.4185 -61.4033 -61.3930
   -61.1374 -61.1366 -61.1172 -61.1163 -61.1037 -61.1021 -61.0978 -61.0961
   -61.0876 -61.0815 -61.0766 -61.0705 -61.0628 -61.0619 -61.0415 -61.0405
   -60.9880 -60.9879 -60.9826 -60.9826 -60.9680 -60.9668 -60.9619 -60.9610
   -13.4446  -4.7481  -4.7479  -3.2716  -3.2285  -2.6156  -2.6139  -1.8107
    -1.7666  -1.7655  -1.7156  -1.6994  -1.6770  -1.6721  -1.3398  -1.3361
    -1.3200  -1.3144  -1.2676  -1.2521  -1.0053  -0.9916  -0.8840  -0.8816
    -0.6040  -0.5882  -0.5424  -0.4916  -0.4662  -0.4543  -0.3926  -0.3769
    -0.3544  -0.3182  -0.1248  -0.0830  -0.0740  -0.0616   0.1227   0.1578
     0.2254   0.2320   0.3332   0.3456   0.3653   0.3825   0.5435   0.5491
     0.5870   0.6085   0.6468   0.6609   0.8127   0.8328   0.8393   0.8587
     0.8596   0.8874   0.9068   0.9127   0.9668   0.9709   1.0010   1.0191
     1.1384   1.1631   1.2923   1.3127   1.3165   1.3273   1.3382   1.3527
     1.3956   1.4172   1.4578   1.4761   1.6360   1.6625   1.6705   1.6837
     1.7946   1.7997   1.8230   1.8349   1.8575   1.8616   2.0031   2.0035
     2.1343   2.1488   2.5835   2.6040   3.0593   3.0857   4.4581   4.4635
     4.7590   4.7685   6.3116   6.3671   6.7149   6.7301   7.1834   7.3546
     7.5930   7.5940   7.8594   7.8873   8.5065   8.5509   8.5510   8.6041

     occupation numbers 
     1.0000   1.0000   1.0000   1.0000   1.0000   1.0000   1.0000   1.0000
     1.0000   1.0000   1.0000   1.0000   1.0000   1.0000   1.0000   1.0000
     1.0000   1.0000   1.0000   1.0000   1.0000   1.0000   1.0000   1.0000
     1.0000   1.0000   1.0000   1.0000   1.0000   1.0000   1.0000   1.0000
     1.0000   1.0000   1.0000   1.0000   1.0000   1.0000   1.0000   1.0000
     1.0000   1.0000   1.0000   1.0000   1.0000   1.0000   1.0000   1.0000
     1.0000   1.0000   1.0000   1.0000   1.0000   1.0000   1.0000   1.0000
     1.0000   1.0000   1.0000   1.0000   1.0000   1.0000   1.0000   1.0000
     1.0000   1.0000   1.0000   1.0000   1.0000   1.0000   1.0000   1.0000
     1.0000   1.0000   1.0000   1.0000   1.0000   1.0000   1.0000   1.0000
     1.0000   1.0000   1.0000   1.0000   1.0000   1.0000   1.0000   1.0000
     1.0000   1.0000   1.0000   1.0000   1.0000   1.0000   1.0000   1.0000
     1.0000   1.0000   1.0000   1.0000   1.0000   1.0000   1.0000   1.0000
     1.0000   1.0000   1.0000   1.0000   1.0000   1.0000   1.0000   1.0000
     1.0000   1.0000   1.0000   1.0000   1.0000   1.0000   1.0000   1.0000
     1.0000   1.0000   1.0000   1.0000   1.0000   1.0000   1.0000   1.0000
     1.0000   1.0000   0.9999   0.9998   0.9998   0.9998   0.9997   0.9996
     0.9990   0.9985   0.9967   0.9952   0.8952   0.8341   0.8109   0.7670
     0.2635   0.2445   0.1688   0.1379   0.0923   0.0857   0.0055   0.0055
     0.0004   0.0003   0.0000   0.0000   0.0000   0.0000   0.0000   0.0000
     0.0000   0.0000   0.0000   0.0000   0.0000   0.0000   0.0000   0.0000
     0.0000   0.0000   0.0000   0.0000   0.0000   0.0000   0.0000   0.0000

          k = 0.3750 0.3750 0.0000 ( 33610 PWs)   bands (ev):

  -101.0801-101.0753-101.0753-101.0709-101.0542-101.0397-101.0394-101.0319
  -100.6492-100.6454-100.6452-100.6413-100.6284-100.6242-100.6242-100.6200
   -61.5309 -61.5261 -61.5256 -61.5202 -61.5148 -61.5130 -61.5083 -61.5002
   -61.4802 -61.4692 -61.4680 -61.4657 -61.4628 -61.4566 -61.4496 -61.4451
   -61.4373 -61.4297 -61.4275 -61.4225 -61.4175 -61.4173 -61.4078 -61.4078
   -61.1217 -61.1217 -61.1187 -61.1182 -61.1026 -61.1009 -61.0985 -61.0980
   -61.0816 -61.0809 -61.0780 -61.0780 -61.0600 -61.0593 -61.0575 -61.0551
   -60.9882 -60.9852 -60.9852 -60.9825 -60.9678 -60.9644 -60.9643 -60.9611
   -13.4439  -4.9156  -3.6471  -3.6462  -3.3616  -2.7320  -2.3912  -2.3891
    -1.7958  -1.7939  -1.7632  -1.6753  -1.6740  -1.4180  -1.3410  -1.3270
    -1.3198  -1.1939  -1.1114  -1.1096  -0.9849  -0.9712  -0.6940  -0.6919
    -0.6321  -0.6267  -0.6159  -0.5902  -0.4744  -0.4359  -0.4116  -0.3787
    -0.3242  -0.2983  -0.2976  -0.1561  -0.0911   0.0390   0.0437   0.0611
     0.1819   0.2019   0.2057   0.4343   0.4530   0.4777   0.5886   0.5887
     0.6189   0.6232   0.6274   0.6507   0.6527   0.7557   0.7591   0.8281
     0.8809   0.8884   0.9236   0.9337   0.9456   1.0345   1.0455   1.0603
     1.1169   1.2049   1.2119   1.2350   1.3061   1.3064   1.3501   1.3679
     1.3714   1.3802   1.4144   1.4362   1.4576   1.5516   1.5548   1.5735
     1.6559   1.6705   1.6710   1.7385   1.7884   1.9812   1.9841   2.0075
     2.0221   2.1765   2.1784   2.6116   2.9850   3.4639   3.4682   4.3544
     4.7347   5.6499   5.6571   6.1351   7.0701   7.1286   7.6590   7.6800
     7.7387   8.2849   8.3986   8.4633   8.5013   8.5612   8.6917   8.7062

     occupation numbers 
     1.0000   1.0000   1.0000   1.0000   1.0000   1.0000   1.0000   1.0000
     1.0000   1.0000   1.0000   1.0000   1.0000   1.0000   1.0000   1.0000
     1.0000   1.0000   1.0000   1.0000   1.0000   1.0000   1.0000   1.0000
     1.0000   1.0000   1.0000   1.0000   1.0000   1.0000   1.0000   1.0000
     1.0000   1.0000   1.0000   1.0000   1.0000   1.0000   1.0000   1.0000
     1.0000   1.0000   1.0000   1.0000   1.0000   1.0000   1.0000   1.0000
     1.0000   1.0000   1.0000   1.0000   1.0000   1.0000   1.0000   1.0000
     1.0000   1.0000   1.0000   1.0000   1.0000   1.0000   1.0000   1.0000
     1.0000   1.0000   1.0000   1.0000   1.0000   1.0000   1.0000   1.0000
     1.0000   1.0000   1.0000   1.0000   1.0000   1.0000   1.0000   1.0000
     1.0000   1.0000   1.0000   1.0000   1.0000   1.0000   1.0000   1.0000
     1.0000   1.0000   1.0000   1.0000   1.0000   1.0000   1.0000   1.0000
     1.0000   1.0000   1.0000   1.0000   1.0000   1.0000   1.0000   1.0000
     1.0000   1.0000   1.0000   1.0000   1.0000   1.0000   1.0000   1.0000
     1.0000   1.0000   1.0000   1.0000   1.0000   1.0000   1.0000   1.0000
     1.0000   1.0000   1.0000   1.0000   1.0000   1.0000   1.0000   1.0000
     1.0000   1.0000   1.0000   1.0000   0.9998   0.9998   0.9996   0.9995
     0.9994   0.9993   0.9986   0.9979   0.9967   0.9788   0.9775   0.9676
     0.8516   0.8109   0.8094   0.5240   0.2885   0.0085   0.0080   0.0050
     0.0038   0.0002   0.0002   0.0000   0.0000   0.0000   0.0000   0.0000
     0.0000   0.0000   0.0000   0.0000   0.0000   0.0000   0.0000   0.0000
     0.0000   0.0000   0.0000   0.0000   0.0000   0.0000   0.0000   0.0000

          k = 0.3750-0.5000 0.0000 ( 33648 PWs)   bands (ev):

  -101.0778-101.0777-101.0731-101.0731-101.0540-101.0398-101.0392-101.0323
  -100.6474-100.6471-100.6434-100.6431-100.6269-100.6256-100.6228-100.6214
   -61.5279 -61.5258 -61.5220 -61.5202 -61.5095 -61.5087 -61.4979 -61.4926
   -61.4893 -61.4836 -61.4696 -61.4690 -61.4615 -61.4525 -61.4450 -61.4441
   -61.4349 -61.4341 -61.4266 -61.4263 -61.4193 -61.4186 -61.4172 -61.4076
   -61.1205 -61.1197 -61.1024 -61.1008 -61.1005 -61.0996 -61.0991 -61.0974
   -61.0862 -61.0828 -61.0801 -61.0792 -61.0752 -61.0719 -61.0584 -61.0574
   -60.9867 -60.9867 -60.9838 -60.9838 -60.9666 -60.9655 -60.9632 -60.9623
   -13.4433  -4.3270  -4.3265  -3.1909  -3.1900  -2.8945  -2.8546  -2.0220
    -1.9949  -1.8059  -1.7930  -1.7610  -1.4153  -1.4150  -1.2344  -1.2342
    -1.2131  -1.2115  -1.1945  -1.1826  -0.8427  -0.8320  -0.8045  -0.7835
    -0.5550  -0.5438  -0.5276  -0.5091  -0.4952  -0.4538  -0.4436  -0.4354
    -0.3719  -0.3320  -0.2871  -0.2445  -0.1404  -0.1158   0.0777   0.0892
     0.0967   0.1247   0.2948   0.3052   0.5231   0.5366   0.5745   0.5894
     0.6674   0.6906   0.6992   0.7177   0.8041   0.8047   0.8167   0.8261
     0.8364   0.8548   0.8596   0.8749   0.8939   0.9075   0.9802   0.9889
     1.0800   1.0937   1.1765   1.1990   1.1994   1.2180   1.2401   1.2659
     1.2911   1.3213   1.4146   1.4148   1.4507   1.4698   1.5775   1.5953
     1.5968   1.6125   1.6289   1.6306   1.9463   1.9467   1.9922   2.0020
     2.0040   2.0092   2.5114   2.5289   2.9852   3.0038   4.0376   4.0479
     4.9618   4.9677   6.3233   6.3342   6.8264   6.8928   7.5989   7.8281
     8.3097   8.3211   8.3373   8.4404   8.7719   8.7886   8.9047   9.0087

     occupation numbers 
     1.0000   1.0000   1.0000   1.0000   1.0000   1.0000   1.0000   1.0000
     1.0000   1.0000   1.0000   1.0000   1.0000   1.0000   1.0000   1.0000
     1.0000   1.0000   1.0000   1.0000   1.0000   1.0000   1.0000   1.0000
     1.0000   1.0000   1.0000   1.0000   1.0000   1.0000   1.0000   1.0000
     1.0000   1.0000   1.0000   1.0000   1.0000   1.0000   1.0000   1.0000
     1.0000   1.0000   1.0000   1.0000   1.0000   1.0000   1.0000   1.0000
     1.0000   1.0000   1.0000   1.0000   1.0000   1.0000   1.0000   1.0000
     1.0000   1.0000   1.0000   1.0000   1.0000   1.0000   1.0000   1.0000
     1.0000   1.0000   1.0000   1.0000   1.0000   1.0000   1.0000   1.0000
     1.0000   1.0000   1.0000   1.0000   1.0000   1.0000   1.0000   1.0000
     1.0000   1.0000   1.0000   1.0000   1.0000   1.0000   1.0000   1.0000
     1.0000   1.0000   1.0000   1.0000   1.0000   1.0000   1.0000   1.0000
     1.0000   1.0000   1.0000   1.0000   1.0000   1.0000   1.0000   1.0000
     1.0000   1.0000   1.0000   1.0000   1.0000   1.0000   1.0000   1.0000
     1.0000   1.0000   1.0000   1.0000   1.0000   1.0000   1.0000   1.0000
     1.0000   1.0000   1.0000   1.0000   1.0000   1.0000   1.0000   1.0000
     1.0000   1.0000   1.0000   1.0000   1.0000   1.0000   1.0000   0.9999
     0.9999   0.9998   0.9986   0.9986   0.9971   0.9958   0.9650   0.9507
     0.9493   0.9319   0.9078   0.9049   0.0169   0.0168   0.0068   0.0056
     0.0054   0.0049   0.0000   0.0000   0.0000   0.0000   0.0000   0.0000
     0.0000   0.0000   0.0000   0.0000   0.0000   0.0000   0.0000   0.0000
     0.0000   0.0000   0.0000   0.0000   0.0000   0.0000   0.0000   0.0000

          k =-0.5000-0.5000 0.0000 ( 33696 PWs)   bands (ev):

  -101.0755-101.0754-101.0754-101.0754-101.0537-101.0394-101.0394-101.0327
  -100.6456-100.6452-100.6452-100.6451-100.6255-100.6242-100.6242-100.6228
   -61.5247 -61.5221 -61.5221 -61.5199 -61.4973 -61.4933 -61.4933 -61.4886
   -61.4883 -61.4872 -61.4872 -61.4872 -61.4531 -61.4503 -61.4503 -61.4401
   -61.4316 -61.4316 -61.4293 -61.4280 -61.4244 -61.4188 -61.4188 -61.4163
   -61.1013 -61.1007 -61.1006 -61.1006 -61.0995 -61.0995 -61.0989 -61.0982
   -61.0860 -61.0841 -61.0841 -61.0839 -61.0748 -61.0740 -61.0740 -61.0714
   -60.9853 -60.9852 -60.9852 -60.9852 -60.9654 -60.9644 -60.9644 -60.9634
   -13.4428  -3.7878  -3.7876  -3.7876  -3.7862  -2.4675  -2.4292  -2.4292
    -2.3974  -1.8039  -1.8039  -1.7595  -1.2205  -1.2205  -1.2190  -1.2180
    -1.1850  -1.1850  -1.1844  -1.1780  -0.7525  -0.7199  -0.7199  -0.6871
    -0.5597  -0.5592  -0.5592  -0.5545  -0.5210  -0.4441  -0.4410  -0.4410
    -0.3913  -0.3913  -0.3673  -0.3590  -0.0731  -0.0557  -0.0557  -0.0385
     0.1592   0.1758   0.1758   0.1870   0.6796   0.7015   0.7069   0.7073
     0.7073   0.7086   0.7229   0.7229   0.7258   0.7258   0.7375   0.7716
     0.8247   0.8462   0.8462   0.8801   0.9270   0.9430   0.9430   0.9655
     1.0793   1.0793   1.0833   1.0862   1.1294   1.1582   1.1582   1.1693
     1.1907   1.2124   1.2124   1.2580   1.5092   1.5213   1.5213   1.5389
     1.5426   1.5622   1.5622   1.5672   1.9951   2.0026   2.0026   2.0099
     2.1733   2.1838   2.1838   2.1897   3.4478   3.4669   3.4669   3.4768
     5.5903   5.5905   5.5905   5.6061   7.4614   7.5409   7.5410   7.6274
     8.1201   8.3001   8.3001   8.7030   8.9488   8.9964  10.1607   8.9496

     occupation numbers 
     1.0000   1.0000   1.0000   1.0000   1.0000   1.0000   1.0000   1.0000
     1.0000   1.0000   1.0000   1.0000   1.0000   1.0000   1.0000   1.0000
     1.0000   1.0000   1.0000   1.0000   1.0000   1.0000   1.0000   1.0000
     1.0000   1.0000   1.0000   1.0000   1.0000   1.0000   1.0000   1.0000
     1.0000   1.0000   1.0000   1.0000   1.0000   1.0000   1.0000   1.0000
     1.0000   1.0000   1.0000   1.0000   1.0000   1.0000   1.0000   1.0000
     1.0000   1.0000   1.0000   1.0000   1.0000   1.0000   1.0000   1.0000
     1.0000   1.0000   1.0000   1.0000   1.0000   1.0000   1.0000   1.0000
     1.0000   1.0000   1.0000   1.0000   1.0000   1.0000   1.0000   1.0000
     1.0000   1.0000   1.0000   1.0000   1.0000   1.0000   1.0000   1.0000
     1.0000   1.0000   1.0000   1.0000   1.0000   1.0000   1.0000   1.0000
     1.0000   1.0000   1.0000   1.0000   1.0000   1.0000   1.0000   1.0000
     1.0000   1.0000   1.0000   1.0000   1.0000   1.0000   1.0000   1.0000
     1.0000   1.0000   1.0000   1.0000   1.0000   1.0000   1.0000   1.0000
     1.0000   1.0000   1.0000   1.0000   1.0000   1.0000   1.0000   1.0000
     1.0000   1.0000   1.0000   1.0000   1.0000   1.0000   1.0000   1.0000
     1.0000   1.0000   1.0000   1.0000   1.0000   1.0000   1.0000   1.0000
     1.0000   1.0000   1.0000   0.9999   0.9908   0.9883   0.9883   0.9835
     0.9822   0.9739   0.9739   0.9713   0.0065   0.0056   0.0056   0.0048
     0.0002   0.0001   0.0001   0.0001   0.0000   0.0000   0.0000   0.0000
     0.0000   0.0000   0.0000   0.0000   0.0000   0.0000   0.0000   0.0000
     0.0000   0.0000   0.0000   0.0000   0.0000   0.0000   0.0000   0.0000

     the Fermi energy is     1.7433 ev

!    total energy              =   -5521.18767768 Ry
     estimated scf accuracy    <       0.00000065 Ry
     smearing contrib. (-TS)   =      -0.01875936 Ry
     internal energy E=F+TS    =   -5521.16891832 Ry

     The total energy is F=E-TS. E is the sum of the following terms:
     one-electron contribution =  -51024.43365091 Ry
     hartree contribution      =   25531.89967882 Ry
     xc contribution           =    -575.25959006 Ry
     ewald contribution        =   20554.71937760 Ry
     one-center paw contrib.   =      -8.09473377 Ry
      -> PAW hartree energy AE =       0.00000000 Ry
      -> PAW hartree energy PS =       0.00000000 Ry
      -> PAW xc energy AE      =       0.00000000 Ry
      -> PAW xc energy PS      =       0.00000000 Ry
      -> total E_H with PAW    =   25531.89967882 Ry
      -> total E_XC with PAW   =    -575.25959006 Ry

     total magnetization       =     8.27 Bohr mag/cell
     absolute magnetization    =    16.16 Bohr mag/cell

     convergence has been achieved in 110 iterations

     negative rho (up, down):  2.494E-04 2.350E-04

     Forces acting on atoms (cartesian axes, Ry/au):

     atom    1 type  1   force =     0.00000000    0.00000000    0.00888823
     atom    2 type  1   force =     0.00000000    0.00000000    0.00896890
     atom    3 type  1   force =     0.00000000    0.00000000    0.00896890
     atom    4 type  1   force =     0.00000000    0.00000000    0.00900669
     atom    5 type  1   force =    -0.00230403   -0.00230403   -0.01224503
     atom    6 type  1   force =     0.00230403   -0.00230403   -0.01224503
     atom    7 type  1   force =    -0.00230403    0.00230403   -0.01224503
     atom    8 type  1   force =     0.00230403    0.00230403   -0.01224503
     atom    9 type  1   force =     0.00000000    0.00000000    0.03211562
     atom   10 type  1   force =     0.00000000    0.00000000    0.02088046
     atom   11 type  1   force =     0.00000000    0.00000000    0.02088046
     atom   12 type  1   force =     0.00000000    0.00000000    0.00479665
     atom   13 type  1   force =     0.00570971    0.00570971   -0.01633857
     atom   14 type  1   force =    -0.00570971    0.00570971   -0.01633857
     atom   15 type  1   force =     0.00570971   -0.00570971   -0.01633857
     atom   16 type  1   force =    -0.00570971   -0.00570971   -0.01633857
     atom   17 type  2   force =     0.00000000    0.00000000   -0.00017150
     The non-local contrib.  to forces
     atom    1 type  1   force =     0.00000000    0.00000000   -0.35587614
     atom    2 type  1   force =     0.00000000    0.00000000   -0.35459923
     atom    3 type  1   force =     0.00000000    0.00000000   -0.35459923
     atom    4 type  1   force =     0.00000000    0.00000000   -0.35466617
     atom    5 type  1   force =    -0.00204098   -0.00204098    0.01864937
     atom    6 type  1   force =     0.00204098   -0.00204098    0.01864937
     atom    7 type  1   force =    -0.00204098    0.00204098    0.01864937
     atom    8 type  1   force =     0.00204098    0.00204098    0.01864937
     atom    9 type  1   force =     0.00000000    0.00000000   -0.01009606
     atom   10 type  1   force =     0.00000000    0.00000000   -0.01730592
     atom   11 type  1   force =     0.00000000    0.00000000   -0.01730592
     atom   12 type  1   force =     0.00000000    0.00000000   -0.02505295
     atom   13 type  1   force =     0.01209028    0.01209028    0.35418264
     atom   14 type  1   force =    -0.01209028    0.01209028    0.35418264
     atom   15 type  1   force =     0.01209028   -0.01209028    0.35418264
     atom   16 type  1   force =    -0.01209028   -0.01209028    0.35418264
     atom   17 type  2   force =     0.00000000    0.00000000   -0.00101633
     The ionic contribution  to forces
     atom    1 type  1   force =     0.00000000    0.00000000 -387.11515108
     atom    2 type  1   force =    -0.00000000    0.00000000 -386.93423842
     atom    3 type  1   force =     0.00000000   -0.00000000 -386.93423842
     atom    4 type  1   force =    -0.00000000   -0.00000000 -386.72738642
     atom    5 type  1   force =    -0.74398660   -0.74398660 -134.20181290
     atom    6 type  1   force =     0.74398661   -0.74398660 -134.20181290
     atom    7 type  1   force =    -0.74398660    0.74398661 -134.20181290
     atom    8 type  1   force =     0.74398661    0.74398661 -134.20181290
     atom    9 type  1   force =     0.00000000    0.00000000  122.90650286
     atom   10 type  1   force =    -0.00000000    0.00000000  124.62972897
     atom   11 type  1   force =     0.00000000   -0.00000000  124.62972897
     atom   12 type  1   force =    -0.00000000   -0.00000000  127.70492220
     atom   13 type  1   force =     2.28615452    2.28615452  376.38152935
     atom   14 type  1   force =    -2.28615452    2.28615452  376.38152934
     atom   15 type  1   force =     2.28615452   -2.28615452  376.38152934
     atom   16 type  1   force =    -2.28615452   -2.28615452  376.38152934
     atom   17 type  2   force =     0.00000000    0.00000000   79.12126557
     The local contribution  to forces
     atom    1 type  1   force =    -0.00000000   -0.00000000  387.47896483
     atom    2 type  1   force =    -0.00000004   -0.00000000  387.29697151
     atom    3 type  1   force =    -0.00000000   -0.00000004  387.29697151
     atom    4 type  1   force =    -0.00000004   -0.00000004  387.09042542
     atom    5 type  1   force =     0.74380538    0.74380538  134.17247434
     atom    6 type  1   force =    -0.74380538    0.74380538  134.17247434
     atom    7 type  1   force =     0.74380538   -0.74380538  134.17247434
     atom    8 type  1   force =    -0.74380538   -0.74380538  134.17247434
     atom    9 type  1   force =    -0.00000000   -0.00000000 -122.86538650
     atom   10 type  1   force =    -0.00000004   -0.00000000 -124.59237424
     atom   11 type  1   force =    -0.00000000   -0.00000004 -124.59237424
     atom   12 type  1   force =    -0.00000004   -0.00000004 -127.67553188
     atom   13 type  1   force =    -2.29285230   -2.29285230 -376.75040054
     atom   14 type  1   force =     2.29285230   -2.29285230 -376.75040054
     atom   15 type  1   force =    -2.29285230    2.29285230 -376.75040054
     atom   16 type  1   force =     2.29285230    2.29285230 -376.75040054
     atom   17 type  2   force =    -0.00000000   -0.00000000  -79.12073839
     The core correction contribution to forces
     atom    1 type  1   force =     0.00000000    0.00000000    0.00199638
     atom    2 type  1   force =    -0.00000000   -0.00000000    0.00187461
     atom    3 type  1   force =    -0.00000000   -0.00000000    0.00187461
     atom    4 type  1   force =    -0.00000000   -0.00000000    0.00176158
     atom    5 type  1   force =    -0.00001220   -0.00001220   -0.00048996
     atom    6 type  1   force =     0.00001220   -0.00001220   -0.00048996
     atom    7 type  1   force =    -0.00001220    0.00001220   -0.00048996
     atom    8 type  1   force =     0.00001220    0.00001220   -0.00048996
     atom    9 type  1   force =    -0.00000000   -0.00000000    0.00084694
     atom   10 type  1   force =    -0.00000000   -0.00000000    0.00064200
     atom   11 type  1   force =    -0.00000000   -0.00000000    0.00064200
     atom   12 type  1   force =    -0.00000000   -0.00000000    0.00030250
     atom   13 type  1   force =     0.00005826    0.00005826   -0.00191606
     atom   14 type  1   force =    -0.00005826    0.00005826   -0.00191606
     atom   15 type  1   force =     0.00005826   -0.00005826   -0.00191606
     atom   16 type  1   force =    -0.00005826   -0.00005826   -0.00191606
     atom   17 type  2   force =    -0.00000000   -0.00000000    0.00002196
     The Hubbard contrib.    to forces
     atom    1 type  1   force =     0.00000000    0.00000000    0.00000000
     atom    2 type  1   force =     0.00000000    0.00000000    0.00000000
     atom    3 type  1   force =     0.00000000    0.00000000    0.00000000
     atom    4 type  1   force =     0.00000000    0.00000000    0.00000000
     atom    5 type  1   force =     0.00000000    0.00000000    0.00000000
     atom    6 type  1   force =     0.00000000    0.00000000    0.00000000
     atom    7 type  1   force =     0.00000000    0.00000000    0.00000000
     atom    8 type  1   force =     0.00000000    0.00000000    0.00000000
     atom    9 type  1   force =     0.00000000    0.00000000    0.00000000
     atom   10 type  1   force =     0.00000000    0.00000000    0.00000000
     atom   11 type  1   force =     0.00000000    0.00000000    0.00000000
     atom   12 type  1   force =     0.00000000    0.00000000    0.00000000
     atom   13 type  1   force =     0.00000000    0.00000000    0.00000000
     atom   14 type  1   force =     0.00000000    0.00000000    0.00000000
     atom   15 type  1   force =     0.00000000    0.00000000    0.00000000
     atom   16 type  1   force =     0.00000000    0.00000000    0.00000000
     atom   17 type  2   force =     0.00000000    0.00000000    0.00000000
     The SCF correction term to forces
     atom    1 type  1   force =    -0.00000000   -0.00000000   -0.00000000
     atom    2 type  1   force =     0.00000000   -0.00000000   -0.00000000
     atom    3 type  1   force =    -0.00000000    0.00000000   -0.00000000
     atom    4 type  1   force =     0.00000000    0.00000000   -0.00000000
     atom    5 type  1   force =    -0.00000000   -0.00000000   -0.00000000
     atom    6 type  1   force =     0.00000000   -0.00000000   -0.00000000
     atom    7 type  1   force =    -0.00000000    0.00000000   -0.00000000
     atom    8 type  1   force =     0.00000000    0.00000000   -0.00000000
     atom    9 type  1   force =    -0.00000000   -0.00000000    0.00004767
     atom   10 type  1   force =     0.00000000   -0.00000000   -0.00001105
     atom   11 type  1   force =    -0.00000000    0.00000000   -0.00001105
     atom   12 type  1   force =     0.00000000    0.00000000   -0.00004393
     atom   13 type  1   force =     0.00025895    0.00025895    0.00006535
     atom   14 type  1   force =    -0.00025895    0.00025895    0.00006535
     atom   15 type  1   force =     0.00025895   -0.00025895    0.00006535
     atom   16 type  1   force =    -0.00025895   -0.00025895    0.00006535
     atom   17 type  2   force =    -0.00000000   -0.00000000    0.00000000

     Total force =     0.057053     Total SCF correction =     0.000747


     Computing stress (Cartesian axis) and pressure


     negative rho (up, down):  2.494E-04 2.350E-04
          total   stress  (Ry/bohr**3)                   (kbar)     P=      -16.24
  -0.00012647   0.00000000   0.00000000          -18.60        0.00        0.00
   0.00000000  -0.00012647   0.00000000            0.00      -18.60        0.00
   0.00000000   0.00000000  -0.00007831            0.00        0.00      -11.52

     kinetic stress (kbar)  17199.42      0.00      0.00
                                0.00  17199.42      0.00
                                0.00      0.00  17280.44

     local   stress (kbar)**********      0.00     -0.00
                                0.00**********     -0.00
                               -0.00     -0.001638288.72

     nonloc. stress (kbar)   7953.21      0.00      0.00
                                0.00   7953.21      0.00
                                0.00      0.00   7984.58

     hartree stress (kbar) 834786.03      0.00     -0.00
                                0.00 834786.03      0.00
                               -0.00      0.00-793264.18

     exc-cor stress (kbar)  -5233.76      0.00      0.00
                                0.00  -5233.76      0.00
                                0.00      0.00  -5241.96

     corecor stress (kbar)  -1013.90     -0.00     -0.00
                               -0.00  -1013.90     -0.00
                               -0.00     -0.00  -1014.37

     ewald   stress (kbar) 784762.73     -0.00      0.00
                               -0.00 784762.73      0.00
                                0.00      0.00-864044.76

     hubbard stress (kbar)      0.00      0.00      0.00
                                0.00      0.00      0.00
                                0.00      0.00      0.00

     DFT-D   stress (kbar)      0.00      0.00      0.00
                                0.00      0.00      0.00
                                0.00      0.00      0.00

     XDM     stress (kbar)      0.00      0.00      0.00
                                0.00      0.00      0.00
                                0.00      0.00      0.00

     dft-nl  stress (kbar)      0.00      0.00      0.00
                                0.00      0.00      0.00
                                0.00      0.00      0.00

     TS-vdW  stress (kbar)      0.00      0.00      0.00
                                0.00      0.00      0.00
                                0.00      0.00      0.00

     MDB     stress (kbar)      0.00      0.00      0.00
                                0.00      0.00      0.00
                                0.00      0.00      0.00

     3D-RISM stress (kbar)      0.00      0.00      0.00
                                0.00      0.00      0.00
                                0.00      0.00      0.00


     Writing all to output data dir ./output_vc/n-ni100-5.0A.save/ :
     XML data file, charge density, pseudopotentials, collected wavefunctions

     init_run     :     34.58s CPU     35.61s WALL (       1 calls)
     electrons    :  33655.56s CPU  33927.05s WALL (       1 calls)
     forces       :     13.68s CPU     13.79s WALL (       1 calls)
     stress       :     46.96s CPU     47.25s WALL (       1 calls)

     Called by init_run:
     wfcinit      :     31.63s CPU     32.37s WALL (       1 calls)
     wfcinit:atom :      0.26s CPU      0.26s WALL (      30 calls)
     wfcinit:wfcr :     29.47s CPU     29.70s WALL (      30 calls)
     potinit      :      1.45s CPU      1.56s WALL (       1 calls)
     hinit0       :      0.26s CPU      0.28s WALL (       1 calls)

     Called by electrons:
     c_bands      :  32471.31s CPU  32719.91s WALL (     110 calls)
     sum_band     :    984.61s CPU    999.10s WALL (     110 calls)
     v_of_rho     :     67.04s CPU     67.33s WALL (     111 calls)
     v_h          :      1.83s CPU      1.84s WALL (     111 calls)
     v_xc         :     66.34s CPU     66.62s WALL (     113 calls)
     newd         :     78.13s CPU     83.66s WALL (     111 calls)
     PAW_pot      :     29.48s CPU     29.51s WALL (     111 calls)
     mix_rho      :     22.26s CPU     23.18s WALL (     110 calls)

     Called by c_bands:
     init_us_2    :     84.93s CPU     85.43s WALL (    6690 calls)
     ccgdiagg     :  29529.79s CPU  29729.32s WALL (    3341 calls)
     wfcrot       :   2893.78s CPU   2907.99s WALL (    3341 calls)

     Called by sum_band:
     sum_band:wei :      0.92s CPU      0.92s WALL (     110 calls)
     sum_band:loo :    830.56s CPU    835.67s WALL (     110 calls)
     sum_band:buf :     17.63s CPU     17.80s WALL (    3300 calls)
     sum_band:ini :     41.69s CPU     41.87s WALL (    3300 calls)
     sum_band:cal :    290.57s CPU    291.00s WALL (    3300 calls)
     sum_band:bec :      3.11s CPU      3.13s WALL (    3300 calls)
     addusdens    :    145.65s CPU    154.98s WALL (     110 calls)
                                        0.00s GPU  (     110 calls)
     addusd:skk   :      1.00s CPU      1.01s WALL (     220 calls)
                                        0.00s GPU  (     220 calls)

     Called by *cgdiagg:
     h_psi        :  15620.96s CPU  15729.86s WALL ( 1307645 calls)
     s_psi        :   8105.53s CPU   8158.74s WALL ( 2611949 calls)

     Called by h_psi:
     h_psi:calbec :   5224.18s CPU   5258.28s WALL ( 1307645 calls)
     vloc_psi     :   4866.82s CPU   4911.64s WALL ( 1307645 calls)
     add_vuspsi   :   5473.39s CPU   5507.20s WALL ( 1307645 calls)
     hs_1psi      :  17720.68s CPU  17837.51s WALL ( 1304304 calls)
     s_1psi       :   7730.69s CPU   7776.34s WALL ( 1304304 calls)

     General routines
     calbec       :   9388.00s CPU   9456.90s WALL ( 2615759 calls)
     fft          :     28.42s CPU     28.58s WALL (    2813 calls)
     ffts         :      0.73s CPU      0.73s WALL (     442 calls)
     fftw         :   3792.84s CPU   3824.82s WALL ( 4367600 calls)
     interpolate  :      2.77s CPU      2.78s WALL (     222 calls)

     Parallel routines

     PAW routines
     PAW_pot      :     29.48s CPU     29.51s WALL (     111 calls)
     PAW_symme    :      0.05s CPU      0.05s WALL (     221 calls)

     PWSCF        :      9h22m CPU      9h28m WALL


   This run was terminated on:  20:48:51  28Jul2026            

=------------------------------------------------------------------------------=
   JOB DONE.
=------------------------------------------------------------------------------=
