
     Program PWSCF v.7.4.1 starts on  9Jun2026 at  9: 6:56 

     This program is part of the open-source Quantum ESPRESSO suite
     for quantum simulation of materials; please cite
         "P. Giannozzi et al., J. Phys.:Condens. Matter 21 395502 (2009);
         "P. Giannozzi et al., J. Phys.:Condens. Matter 29 465901 (2017);
         "P. Giannozzi et al., J. Chem. Phys. 152 154105 (2020);
          URL http://www.quantum-espresso.org", 
     in publications or presentations arising from this work. More details at
     http://www.quantum-espresso.org/quote

     Parallel version (MPI), running on    20 processors

     MPI processes distributed on     1 nodes
     452490 MiB available memory on the printing compute node when the environment starts

     Reading input from pt-o-4.0A.in

     Current dimensions of program PWSCF are:
     Max number of different atomic species (ntypx) = 10
     Max number of k-points (npk) =  40000
     Max angular momentum in pseudopotentials (lmaxx) =  4
     Presently stress not available with electric field and gates

     file Pt.pbe-spn-kjpaw_psl.1.0.0.UPF: wavefunction(s)  5P 5D renormalized
     file O.pbe-n-kjpaw_psl.1.0.0.UPF: wavefunction(s)  2S 2P renormalized

     IMPORTANT: XC functional enforced from input :
     Exchange-correlation= RPBE
                           (   1   4  44   4   0   0   0)
     Any further DFT definition will be discarded
     Please, verify this is what you really want


     R & G space division:  proc/nbgrp/npool/nimage =      20
     Subspace diagonalization in iterative solution of the eigenvalue problem:
     one sub-group per band group will be used
     custom distributed-memory algorithm (size of sub-group:  4*  4 procs)


     Parallelization info
     --------------------
     sticks:   dense  smooth     PW     G-vecs:    dense   smooth      PW
     Min         528     211     57               139422    35261    4999
     Max         529     212     59               139436    35272    5008
     Sum       10561    4231   1159              2788561   705305  100061

     Using Slab Decomposition



     bravais-lattice index     =            0
     lattice parameter (alat)  =      15.9739  a.u.
     unit-cell volume          =   11233.9610 (a.u.)^3
     number of atoms/cell      =           37
     number of atomic types    =            2
     number of electrons       =       654.00
     number of Kohn-Sham states=          392
     kinetic-energy cutoff     =      60.0000  Ry
     charge density cutoff     =     600.0000  Ry
     scf convergence threshold =      1.0E-06
     mixing beta               =       0.7000
     number of iterations used =           12  local-TF  mixing
     Exchange-correlation= RPBE
                           (   1   4  44   4   0   0   0)

     celldm(1)=  15.973885  celldm(2)=   0.000000  celldm(3)=   0.000000
     celldm(4)=   0.000000  celldm(5)=   0.000000  celldm(6)=   0.000000

     crystal axes: (cart. coord. in units of alat)
               a(1) = (   1.000000   0.000000   0.000000 )  
               a(2) = (   0.500000   0.866025   0.000000 )  
               a(3) = (   0.000000   0.000000   3.182516 )  

     reciprocal axes: (cart. coord. in units 2 pi/alat)
               b(1) = (  1.000000 -0.577350  0.000000 )  
               b(2) = (  0.000000  1.154701  0.000000 )  
               b(3) = (  0.000000  0.000000  0.314217 )  


     PseudoPot. # 1 for Pt read from file:
     ./pseudo/Pt.pbe-spn-kjpaw_psl.1.0.0.UPF
     MD5 check sum: f62f2ab5688b80eb25add38ff45b0645
     Pseudo is Projector augmented-wave + core cor, Zval = 18.0
     Generated using &quot;atomic&quot; code by A. Dal Corso  v.6.3
     Shape of augmentation charge: PSQ
     Using radial grid of 1277 points,  6 beta functions with: 
                l(1) =   0
                l(2) =   0
                l(3) =   1
                l(4) =   1
                l(5) =   2
                l(6) =   2
     Q(r) pseudized with 0 coefficients 


     PseudoPot. # 2 for O  read from file:
     ./pseudo/O.pbe-n-kjpaw_psl.1.0.0.UPF
     MD5 check sum: 9aa21d4642c1c2a0b5c883e051f79e44
     Pseudo is Projector augmented-wave + core cor, Zval =  6.0
     Generated using &quot;atomic&quot; code by A. Dal Corso  v.6.3
     Shape of augmentation charge: PSQ
     Using radial grid of 1095 points,  4 beta functions with: 
                l(1) =   0
                l(2) =   0
                l(3) =   1
                l(4) =   1
     Q(r) pseudized with 0 coefficients 


     atomic species   valence    mass     pseudopotential
     Pt               18.00   195.08000     Pt( 1.00)
     O                 6.00    15.99900     O ( 1.00)

     Starting magnetic structure 
     atomic species   magnetization
     Pt              0.000
     O               0.167

     No symmetry found


                                    s                        frac. trans.

      isym =  1     identity                                     

 cryst.   s( 1) = (     1          0          0      )
                  (     0          1          0      )
                  (     0          0          1      )

 cart.    s( 1) = (  1.0000000  0.0000000  0.0000000 )
                  (  0.0000000  1.0000000  0.0000000 )
                  (  0.0000000  0.0000000  1.0000000 )


   Cartesian axes

     site n.     atom                  positions (alat units)
         1        Pt     tau(   1) = (   0.0000000   0.0000000   0.2366019  )
         2        Pt     tau(   2) = (   0.3333333   0.0000000   0.2366019  )
         3        Pt     tau(   3) = (   0.6666667   0.0000000   0.2366019  )
         4        Pt     tau(   4) = (   0.1666667   0.2886751   0.2366019  )
         5        Pt     tau(   5) = (   0.5000000   0.2886751   0.2366019  )
         6        Pt     tau(   6) = (   0.8333333   0.2886751   0.2366019  )
         7        Pt     tau(   7) = (   0.3333333   0.5773503   0.2366019  )
         8        Pt     tau(   8) = (   0.6666667   0.5773503   0.2366019  )
         9        Pt     tau(   9) = (   1.0000000   0.5773503   0.2366019  )
        10        Pt     tau(  10) = (   0.1666667   0.0962250   0.5087675  )
        11        Pt     tau(  11) = (   0.5000000   0.0962250   0.5087675  )
        12        Pt     tau(  12) = (   0.8333333   0.0962250   0.5087675  )
        13        Pt     tau(  13) = (   0.3333333   0.3849002   0.5087675  )
        14        Pt     tau(  14) = (   0.6666667   0.3849002   0.5087675  )
        15        Pt     tau(  15) = (   1.0000000   0.3849002   0.5087675  )
        16        Pt     tau(  16) = (   0.5000000   0.6735753   0.5087675  )
        17        Pt     tau(  17) = (   0.8333333   0.6735753   0.5087675  )
        18        Pt     tau(  18) = (   1.1666667   0.6735753   0.5087675  )
        19        Pt     tau(  19) = (  -0.0009359   0.1939773   0.7797341  )
        20        Pt     tau(  20) = (   0.3342811   0.1939797   0.7797400  )
        21        Pt     tau(  21) = (   0.6666698   0.1927223   0.7818215  )
        22        Pt     tau(  22) = (   0.1666723   0.4815496   0.7765130  )
        23        Pt     tau(  23) = (   0.4995880   0.4800739   0.7796991  )
        24        Pt     tau(  24) = (   0.8337578   0.4800763   0.7796924  )
        25        Pt     tau(  25) = (   0.3318220   0.7704796   0.7799570  )
        26        Pt     tau(  26) = (   0.6666729   0.7701750   0.7746330  )
        27        Pt     tau(  27) = (   1.0015233   0.7704771   0.7799565  )
        28        Pt     tau(  28) = (   0.0025323  -0.0008167   1.0509928  )
        29        Pt     tau(  29) = (   0.3308207  -0.0008161   1.0509913  )
        30        Pt     tau(  30) = (   0.6666770  -0.0089227   1.0664244  )
        31        Pt     tau(  31) = (   0.1666822   0.2891436   1.0515803  )
        32        Pt     tau(  32) = (   0.4916503   0.2940997   1.0660716  )
        33        Pt     tau(  33) = (   0.8417051   0.2941009   1.0660670  )
        34        Pt     tau(  34) = (   0.3335135   0.5781048   1.0514827  )
        35        Pt     tau(  35) = (   0.6666759   0.5811172   1.0510875  )
        36        Pt     tau(  36) = (   0.9998420   0.5781091   1.0514850  )
        37        O      tau(  37) = (   0.6666775   0.1930926   1.5393915  )

     Fixed atoms
     site n.  direction
         1    0   0   0
         2    0   0   0
         3    0   0   0
         4    0   0   0
         5    0   0   0
         6    0   0   0
         7    0   0   0
         8    0   0   0
         9    0   0   0
        10    0   0   0
        11    0   0   0
        12    0   0   0
        13    0   0   0
        14    0   0   0
        15    0   0   0
        16    0   0   0
        17    0   0   0
        18    0   0   0
        19    1   1   1
        20    1   1   1
        21    1   1   1
        22    1   1   1
        23    1   1   1
        24    1   1   1
        25    1   1   1
        26    1   1   1
        27    1   1   1
        28    1   1   1
        29    1   1   1
        30    1   1   1
        31    1   1   1
        32    1   1   1
        33    1   1   1
        34    1   1   1
        35    1   1   1
        36    1   1   1
        37    1   1   1

   Crystallographic axes

     site n.     atom                  positions (cryst. coord.)
         1        Pt     tau(   1) = (  0.0000000  0.0000000  0.0743443  )
         2        Pt     tau(   2) = (  0.3333333  0.0000000  0.0743443  )
         3        Pt     tau(   3) = (  0.6666667  0.0000000  0.0743443  )
         4        Pt     tau(   4) = (  0.0000000  0.3333333  0.0743443  )
         5        Pt     tau(   5) = (  0.3333333  0.3333333  0.0743443  )
         6        Pt     tau(   6) = (  0.6666667  0.3333333  0.0743443  )
         7        Pt     tau(   7) = ( -0.0000000  0.6666667  0.0743443  )
         8        Pt     tau(   8) = (  0.3333333  0.6666667  0.0743443  )
         9        Pt     tau(   9) = (  0.6666667  0.6666667  0.0743443  )
        10        Pt     tau(  10) = (  0.1111111  0.1111111  0.1598633  )
        11        Pt     tau(  11) = (  0.4444444  0.1111111  0.1598633  )
        12        Pt     tau(  12) = (  0.7777778  0.1111111  0.1598633  )
        13        Pt     tau(  13) = (  0.1111111  0.4444444  0.1598633  )
        14        Pt     tau(  14) = (  0.4444444  0.4444444  0.1598633  )
        15        Pt     tau(  15) = (  0.7777778  0.4444444  0.1598633  )
        16        Pt     tau(  16) = (  0.1111111  0.7777778  0.1598633  )
        17        Pt     tau(  17) = (  0.4444444  0.7777778  0.1598633  )
        18        Pt     tau(  18) = (  0.7777778  0.7777778  0.1598633  )
        19        Pt     tau(  19) = ( -0.1129288  0.2239857  0.2450056  )
        20        Pt     tau(  20) = (  0.2222869  0.2239884  0.2450074  )
        21        Pt     tau(  21) = (  0.5554015  0.2225365  0.2456615  )
        22        Pt     tau(  22) = ( -0.1113505  0.5560455  0.2439934  )
        23        Pt     tau(  23) = (  0.2224172  0.5543415  0.2449946  )
        24        Pt     tau(  24) = (  0.5565855  0.5543444  0.2449925  )
        25        Pt     tau(  25) = ( -0.1130146  0.8896732  0.2450756  )
        26        Pt     tau(  26) = (  0.2220122  0.8893215  0.2434027  )
        27        Pt     tau(  27) = (  0.5566882  0.8896703  0.2450754  )
        28        Pt     tau(  28) = (  0.0030038 -0.0009431  0.3302396  )
        29        Pt     tau(  29) = (  0.3312919 -0.0009424  0.3302391  )
        30        Pt     tau(  30) = (  0.6718285 -0.0103030  0.3350885  )
        31        Pt     tau(  31) = ( -0.0002549  0.3338743  0.3304242  )
        32        Pt     tau(  32) = (  0.3218517  0.3395971  0.3349776  )
        33        Pt     tau(  33) = (  0.6719059  0.3395984  0.3349762  )
        34        Pt     tau(  34) = ( -0.0002555  0.6675379  0.3303935  )
        35        Pt     tau(  35) = (  0.3311678  0.6710163  0.3302694  )
        36        Pt     tau(  36) = (  0.6660705  0.6675429  0.3303943  )
        37        O      tau(  37) = (  0.5551954  0.2229642  0.4837027  )

     number of k points=    20  Fermi-Dirac smearing, width (Ry)=  0.0037
                       cart. coord. in units 2pi/alat
        k(    1) = (   0.0000000   0.0000000   0.0000000), wk =   0.0277778
        k(    2) = (   0.0000000   0.1924501   0.0000000), wk =   0.0555556
        k(    3) = (   0.0000000   0.3849002   0.0000000), wk =   0.0555556
        k(    4) = (   0.0000000  -0.5773503   0.0000000), wk =   0.0277778
        k(    5) = (   0.1666667  -0.0962250   0.0000000), wk =   0.0555556
        k(    6) = (   0.1666667   0.0962250   0.0000000), wk =   0.0555556
        k(    7) = (   0.1666667   0.2886751   0.0000000), wk =   0.0555556
        k(    8) = (   0.1666667  -0.6735753   0.0000000), wk =   0.0555556
        k(    9) = (   0.1666667  -0.4811252   0.0000000), wk =   0.0555556
        k(   10) = (   0.1666667  -0.2886751   0.0000000), wk =   0.0555556
        k(   11) = (   0.3333333  -0.1924501   0.0000000), wk =   0.0555556
        k(   12) = (   0.3333333   0.0000000   0.0000000), wk =   0.0555556
        k(   13) = (   0.3333333   0.1924501   0.0000000), wk =   0.0555556
        k(   14) = (   0.3333333  -0.7698004   0.0000000), wk =   0.0555556
        k(   15) = (   0.3333333  -0.5773503   0.0000000), wk =   0.0555556
        k(   16) = (   0.3333333  -0.3849002   0.0000000), wk =   0.0555556
        k(   17) = (  -0.5000000   0.2886751   0.0000000), wk =   0.0277778
        k(   18) = (  -0.5000000   0.4811252   0.0000000), wk =   0.0555556
        k(   19) = (  -0.5000000   0.6735753   0.0000000), wk =   0.0555556
        k(   20) = (  -0.5000000  -0.2886751   0.0000000), wk =   0.0277778

                       cryst. coord.
        k(    1) = (   0.0000000   0.0000000   0.0000000), wk =   0.0277778
        k(    2) = (   0.0000000   0.1666667   0.0000000), wk =   0.0555556
        k(    3) = (   0.0000000   0.3333333   0.0000000), wk =   0.0555556
        k(    4) = (   0.0000000  -0.5000000   0.0000000), wk =   0.0277778
        k(    5) = (   0.1666667  -0.0000000   0.0000000), wk =   0.0555556
        k(    6) = (   0.1666667   0.1666667   0.0000000), wk =   0.0555556
        k(    7) = (   0.1666667   0.3333333   0.0000000), wk =   0.0555556
        k(    8) = (   0.1666667  -0.5000000   0.0000000), wk =   0.0555556
        k(    9) = (   0.1666667  -0.3333333   0.0000000), wk =   0.0555556
        k(   10) = (   0.1666667  -0.1666667   0.0000000), wk =   0.0555556
        k(   11) = (   0.3333333  -0.0000000   0.0000000), wk =   0.0555556
        k(   12) = (   0.3333333   0.1666667   0.0000000), wk =   0.0555556
        k(   13) = (   0.3333333   0.3333333   0.0000000), wk =   0.0555556
        k(   14) = (   0.3333333  -0.5000000   0.0000000), wk =   0.0555556
        k(   15) = (   0.3333333  -0.3333333   0.0000000), wk =   0.0555556
        k(   16) = (   0.3333333  -0.1666667   0.0000000), wk =   0.0555556
        k(   17) = (  -0.5000000   0.0000000   0.0000000), wk =   0.0277778
        k(   18) = (  -0.5000000   0.1666667   0.0000000), wk =   0.0555556
        k(   19) = (  -0.5000000   0.3333333   0.0000000), wk =   0.0555556
        k(   20) = (  -0.5000000  -0.5000000   0.0000000), wk =   0.0277778

     Dense  grid:  2788561 G-vectors     FFT dimensions: ( 125, 125, 400)

     Smooth grid:   705305 G-vectors     FFT dimensions: (  80,  80, 256)

     Dynamical RAM for                 wfc:      26.37 MB

     Dynamical RAM for     wfc (w. buffer):    1081.01 MB

     Dynamical RAM for           str. fact:       4.25 MB

     Dynamical RAM for           local pot:       0.00 MB

     Dynamical RAM for          nlocal pot:      44.12 MB

     Dynamical RAM for                qrad:       3.93 MB

     Dynamical RAM for          rho,v,vnew:      27.07 MB

     Dynamical RAM for               rhoin:       9.02 MB

     Dynamical RAM for            rho*nmix:     102.12 MB

     Dynamical RAM for           G-vectors:       8.25 MB

     Dynamical RAM for          h,s,v(r/c):       1.76 MB

     Dynamical RAM for          <psi|beta>:       3.92 MB

     Dynamical RAM for                 psi:      52.73 MB

     Dynamical RAM for                hpsi:      52.73 MB

     Dynamical RAM for                spsi:      52.73 MB

     Dynamical RAM for      wfcinit/wfcrot:      56.25 MB

     Dynamical RAM for           addusdens:     474.41 MB

     Dynamical RAM for          addusforce:     623.61 MB

     Estimated static dynamical RAM per process >       1.17 GB

     Estimated max dynamical RAM per process >       1.88 GB

     Estimated total dynamical RAM >      37.58 GB
     Generating pointlists ...
     new r_m :   0.1342 (alat units)  2.1437 (a.u.) for type    1
     new r_m :   0.2122 (alat units)  3.3889 (a.u.) for type    2

     Initial potential from superposition of free atoms

     starting charge     653.9952, renormalised to     654.0000

     negative rho (up, down):  2.415E-04 2.400E-04

     Adding external electric field

     Computed dipole along edir(3) : 
        Elec. dipole        -10.0256 Ry au,        -25.4825 Debye
        Ion. dipole         -10.0303 Ry au,        -25.4944 Debye
        Dipole               -4.1982 Ry au,        -10.6707 Debye
        Dipole field         -0.0047 Ry au, 

        Potential amp.        0.4536 Ry
        Total length         48.2953 bohr


     Adding external electric field

     Computed dipole along edir(3) : 
        Elec. dipole        -10.0256 Ry au,        -25.4825 Debye
        Ion. dipole         -10.0303 Ry au,        -25.4944 Debye
        Dipole               -4.1982 Ry au,        -10.6707 Debye
        Dipole field         -0.0047 Ry au, 

        Potential amp.        0.4536 Ry
        Total length         48.2953 bohr

     Starting wfcs are  364 randomized atomic wfcs +   28 random wfcs
     Checking if some PAW data can be deallocated... 
       PAW data deallocated on    1 nodes for type:  1
       PAW data deallocated on   19 nodes for type:  2

     total cpu time spent up to now is      346.4 secs

     per-process dynamical memory:  1260.3 Mb

     Self-consistent Calculation

     iteration #  1     ecut=    60.00 Ry     beta= 0.70
     Davidson diagonalization with overlap

---- Real-time Memory Report at c_bands before calling an iterative solver
          1275 MiB given to the printing process from OS
          1236 MiB allocation reported by mallinfo(arena+hblkhd)
        428435 MiB available memory on the node where the printing process lives
------------------
     ethr =  1.00E-02,  avg # of iterations =  4.1

     negative rho (up, down):  1.785E-05 1.767E-05

     Adding external electric field

     Computed dipole along edir(3) : 
        Elec. dipole        -10.0260 Ry au,        -25.4836 Debye
        Ion. dipole         -10.0303 Ry au,        -25.4944 Debye
        Dipole               -3.8252 Ry au,         -9.7226 Debye
        Dipole field         -0.0043 Ry au, 

        Potential amp.        0.4133 Ry
        Total length         48.2953 bohr


     Adding external electric field

     Computed dipole along edir(3) : 
        Elec. dipole        -10.0260 Ry au,        -25.4836 Debye
        Ion. dipole         -10.0303 Ry au,        -25.4944 Debye
        Dipole               -3.8252 Ry au,         -9.7226 Debye
        Dipole field         -0.0043 Ry au, 

        Potential amp.        0.4133 Ry
        Total length         48.2953 bohr


     total cpu time spent up to now is     1709.3 secs

     total energy              =  -33080.34192843 Ry
     estimated scf accuracy    <      79.06668969 Ry

     total magnetization       =     2.96 Bohr mag/cell
     absolute magnetization    =     2.99 Bohr mag/cell

     iteration #  2     ecut=    60.00 Ry     beta= 0.70
     Davidson diagonalization with overlap

---- Real-time Memory Report at c_bands before calling an iterative solver
          1769 MiB given to the printing process from OS
          1313 MiB allocation reported by mallinfo(arena+hblkhd)
        426620 MiB available memory on the node where the printing process lives
------------------
     ethr =  1.00E-02,  avg # of iterations =  1.0

     negative rho (up, down):  1.654E-06 3.659E-06

     Adding external electric field

     Computed dipole along edir(3) : 
        Elec. dipole        -10.0255 Ry au,        -25.4824 Debye
        Ion. dipole         -10.0303 Ry au,        -25.4944 Debye
        Dipole               -4.2522 Ry au,        -10.8080 Debye
        Dipole field         -0.0048 Ry au, 

        Potential amp.        0.4594 Ry
        Total length         48.2953 bohr


     Adding external electric field

     Computed dipole along edir(3) : 
        Elec. dipole        -10.0255 Ry au,        -25.4824 Debye
        Ion. dipole         -10.0303 Ry au,        -25.4944 Debye
        Dipole               -4.2522 Ry au,        -10.8080 Debye
        Dipole field         -0.0048 Ry au, 

        Potential amp.        0.4594 Ry
        Total length         48.2953 bohr


     total cpu time spent up to now is     2633.8 secs

     total energy              =  -33080.77991444 Ry
     estimated scf accuracy    <      65.58685231 Ry

     total magnetization       =    -0.00 Bohr mag/cell
     absolute magnetization    =     0.22 Bohr mag/cell

     iteration #  3     ecut=    60.00 Ry     beta= 0.70
     Davidson diagonalization with overlap

---- Real-time Memory Report at c_bands before calling an iterative solver
          1780 MiB given to the printing process from OS
          1315 MiB allocation reported by mallinfo(arena+hblkhd)
        426633 MiB available memory on the node where the printing process lives
------------------
     ethr =  1.00E-02,  avg # of iterations =  1.0

     negative rho (up, down):  1.412E-06 1.872E-06

     Adding external electric field

     Computed dipole along edir(3) : 
        Elec. dipole        -10.0258 Ry au,        -25.4829 Debye
        Ion. dipole         -10.0303 Ry au,        -25.4944 Debye
        Dipole               -4.0482 Ry au,        -10.2896 Debye
        Dipole field         -0.0045 Ry au, 

        Potential amp.        0.4374 Ry
        Total length         48.2953 bohr


     Adding external electric field

     Computed dipole along edir(3) : 
        Elec. dipole        -10.0258 Ry au,        -25.4829 Debye
        Ion. dipole         -10.0303 Ry au,        -25.4944 Debye
        Dipole               -4.0482 Ry au,        -10.2896 Debye
        Dipole field         -0.0045 Ry au, 

        Potential amp.        0.4374 Ry
        Total length         48.2953 bohr


     total cpu time spent up to now is     3559.0 secs

     total energy              =  -33081.87326247 Ry
     estimated scf accuracy    <      14.76006986 Ry

     total magnetization       =     2.99 Bohr mag/cell
     absolute magnetization    =     3.01 Bohr mag/cell

     iteration #  4     ecut=    60.00 Ry     beta= 0.70
     Davidson diagonalization with overlap

---- Real-time Memory Report at c_bands before calling an iterative solver
          1781 MiB given to the printing process from OS
          1318 MiB allocation reported by mallinfo(arena+hblkhd)
        426582 MiB available memory on the node where the printing process lives
------------------
     ethr =  2.26E-03,  avg # of iterations =  1.1

     negative rho (up, down):  1.445E-06 2.471E-06

     Adding external electric field

     Computed dipole along edir(3) : 
        Elec. dipole        -10.0258 Ry au,        -25.4830 Debye
        Ion. dipole         -10.0303 Ry au,        -25.4944 Debye
        Dipole               -4.0192 Ry au,        -10.2158 Debye
        Dipole field         -0.0045 Ry au, 

        Potential amp.        0.4343 Ry
        Total length         48.2953 bohr


     Adding external electric field

     Computed dipole along edir(3) : 
        Elec. dipole        -10.0258 Ry au,        -25.4830 Debye
        Ion. dipole         -10.0303 Ry au,        -25.4944 Debye
        Dipole               -4.0192 Ry au,        -10.2158 Debye
        Dipole field         -0.0045 Ry au, 

        Potential amp.        0.4343 Ry
        Total length         48.2953 bohr


     total cpu time spent up to now is     4468.3 secs

     total energy              =  -33081.88602964 Ry
     estimated scf accuracy    <       5.75161376 Ry

     total magnetization       =     2.99 Bohr mag/cell
     absolute magnetization    =     3.01 Bohr mag/cell

     iteration #  5     ecut=    60.00 Ry     beta= 0.70
     Davidson diagonalization with overlap

---- Real-time Memory Report at c_bands before calling an iterative solver
          1783 MiB given to the printing process from OS
          1320 MiB allocation reported by mallinfo(arena+hblkhd)
        426529 MiB available memory on the node where the printing process lives
------------------
     ethr =  8.79E-04,  avg # of iterations =  1.5

     negative rho (up, down):  3.038E-06 2.864E-06

     Adding external electric field

     Computed dipole along edir(3) : 
        Elec. dipole        -10.0261 Ry au,        -25.4837 Debye
        Ion. dipole         -10.0303 Ry au,        -25.4944 Debye
        Dipole               -3.7847 Ry au,         -9.6196 Debye
        Dipole field         -0.0042 Ry au, 

        Potential amp.        0.4089 Ry
        Total length         48.2953 bohr


     Adding external electric field

     Computed dipole along edir(3) : 
        Elec. dipole        -10.0261 Ry au,        -25.4837 Debye
        Ion. dipole         -10.0303 Ry au,        -25.4944 Debye
        Dipole               -3.7847 Ry au,         -9.6196 Debye
        Dipole field         -0.0042 Ry au, 

        Potential amp.        0.4089 Ry
        Total length         48.2953 bohr


     total cpu time spent up to now is     5445.1 secs

     total energy              =  -33081.70819727 Ry
     estimated scf accuracy    <       5.55697939 Ry

     total magnetization       =     2.99 Bohr mag/cell
     absolute magnetization    =     3.01 Bohr mag/cell

     iteration #  6     ecut=    60.00 Ry     beta= 0.70
     Davidson diagonalization with overlap

---- Real-time Memory Report at c_bands before calling an iterative solver
          1786 MiB given to the printing process from OS
          1322 MiB allocation reported by mallinfo(arena+hblkhd)
        426478 MiB available memory on the node where the printing process lives
------------------
     ethr =  8.50E-04,  avg # of iterations =  2.9

     negative rho (up, down):  5.153E-07 7.173E-07

     Adding external electric field

     Computed dipole along edir(3) : 
        Elec. dipole        -10.0262 Ry au,        -25.4840 Debye
        Ion. dipole         -10.0303 Ry au,        -25.4944 Debye
        Dipole               -3.6651 Ry au,         -9.3158 Debye
        Dipole field         -0.0041 Ry au, 

        Potential amp.        0.3960 Ry
        Total length         48.2953 bohr


     Adding external electric field

     Computed dipole along edir(3) : 
        Elec. dipole        -10.0262 Ry au,        -25.4840 Debye
        Ion. dipole         -10.0303 Ry au,        -25.4944 Debye
        Dipole               -3.6651 Ry au,         -9.3158 Debye
        Dipole field         -0.0041 Ry au, 

        Potential amp.        0.3960 Ry
        Total length         48.2953 bohr


     total cpu time spent up to now is     6487.7 secs

     total energy              =  -33081.78241311 Ry
     estimated scf accuracy    <       4.04317990 Ry

     total magnetization       =     0.01 Bohr mag/cell
     absolute magnetization    =     0.38 Bohr mag/cell

     iteration #  7     ecut=    60.00 Ry     beta= 0.70
     Davidson diagonalization with overlap

---- Real-time Memory Report at c_bands before calling an iterative solver
          1788 MiB given to the printing process from OS
          1325 MiB allocation reported by mallinfo(arena+hblkhd)
        426369 MiB available memory on the node where the printing process lives
------------------
     ethr =  6.18E-04,  avg # of iterations =  2.4

     negative rho (up, down):  2.041E-07 2.123E-07

     Adding external electric field

     Computed dipole along edir(3) : 
        Elec. dipole        -10.0261 Ry au,        -25.4838 Debye
        Ion. dipole         -10.0303 Ry au,        -25.4944 Debye
        Dipole               -3.7305 Ry au,         -9.4820 Debye
        Dipole field         -0.0042 Ry au, 

        Potential amp.        0.4031 Ry
        Total length         48.2953 bohr


     Adding external electric field

     Computed dipole along edir(3) : 
        Elec. dipole        -10.0261 Ry au,        -25.4838 Debye
        Ion. dipole         -10.0303 Ry au,        -25.4944 Debye
        Dipole               -3.7305 Ry au,         -9.4820 Debye
        Dipole field         -0.0042 Ry au, 

        Potential amp.        0.4031 Ry
        Total length         48.2953 bohr


     total cpu time spent up to now is     7548.4 secs

     total energy              =  -33081.82437678 Ry
     estimated scf accuracy    <       0.55567171 Ry

     total magnetization       =     2.15 Bohr mag/cell
     absolute magnetization    =     2.18 Bohr mag/cell

     iteration #  8     ecut=    60.00 Ry     beta= 0.70
     Davidson diagonalization with overlap

---- Real-time Memory Report at c_bands before calling an iterative solver
          1790 MiB given to the printing process from OS
          1327 MiB allocation reported by mallinfo(arena+hblkhd)
        426406 MiB available memory on the node where the printing process lives
------------------
     c_bands:  2 eigenvalues not converged
     ethr =  8.50E-05,  avg # of iterations = 12.0

     negative rho (up, down):  5.135E-07 6.211E-07

     Adding external electric field

     Computed dipole along edir(3) : 
        Elec. dipole        -10.0262 Ry au,        -25.4842 Debye
        Ion. dipole         -10.0303 Ry au,        -25.4944 Debye
        Dipole               -3.6115 Ry au,         -9.1795 Debye
        Dipole field         -0.0040 Ry au, 

        Potential amp.        0.3902 Ry
        Total length         48.2953 bohr


     Adding external electric field

     Computed dipole along edir(3) : 
        Elec. dipole        -10.0262 Ry au,        -25.4842 Debye
        Ion. dipole         -10.0303 Ry au,        -25.4944 Debye
        Dipole               -3.6115 Ry au,         -9.1795 Debye
        Dipole field         -0.0040 Ry au, 

        Potential amp.        0.3902 Ry
        Total length         48.2953 bohr


     total cpu time spent up to now is     8760.2 secs

     total energy              =  -33081.87640777 Ry
     estimated scf accuracy    <       1.88843317 Ry

     total magnetization       =     3.00 Bohr mag/cell
     absolute magnetization    =     3.02 Bohr mag/cell

     iteration #  9     ecut=    60.00 Ry     beta= 0.70
     Davidson diagonalization with overlap

---- Real-time Memory Report at c_bands before calling an iterative solver
          1794 MiB given to the printing process from OS
          1329 MiB allocation reported by mallinfo(arena+hblkhd)
        426343 MiB available memory on the node where the printing process lives
------------------
     ethr =  8.50E-05,  avg # of iterations =  1.6

     negative rho (up, down):  9.789E-07 1.222E-06

     Adding external electric field

     Computed dipole along edir(3) : 
        Elec. dipole        -10.0265 Ry au,        -25.4848 Debye
        Ion. dipole         -10.0303 Ry au,        -25.4944 Debye
        Dipole               -3.3954 Ry au,         -8.6302 Debye
        Dipole field         -0.0038 Ry au, 

        Potential amp.        0.3669 Ry
        Total length         48.2953 bohr


     Adding external electric field

     Computed dipole along edir(3) : 
        Elec. dipole        -10.0265 Ry au,        -25.4848 Debye
        Ion. dipole         -10.0303 Ry au,        -25.4944 Debye
        Dipole               -3.3954 Ry au,         -8.6302 Debye
        Dipole field         -0.0038 Ry au, 

        Potential amp.        0.3669 Ry
        Total length         48.2953 bohr


     total cpu time spent up to now is     9748.6 secs

     total energy              =  -33081.82448849 Ry
     estimated scf accuracy    <       1.58855867 Ry

     total magnetization       =     3.00 Bohr mag/cell
     absolute magnetization    =     3.02 Bohr mag/cell

     iteration # 10     ecut=    60.00 Ry     beta= 0.70
     Davidson diagonalization with overlap

---- Real-time Memory Report at c_bands before calling an iterative solver
          1795 MiB given to the printing process from OS
          1332 MiB allocation reported by mallinfo(arena+hblkhd)
        426198 MiB available memory on the node where the printing process lives
------------------
     ethr =  8.50E-05,  avg # of iterations =  4.0

     negative rho (up, down):  9.308E-07 1.111E-06

     Adding external electric field

     Computed dipole along edir(3) : 
        Elec. dipole        -10.0267 Ry au,        -25.4854 Debye
        Ion. dipole         -10.0303 Ry au,        -25.4944 Debye
        Dipole               -3.1715 Ry au,         -8.0611 Debye
        Dipole field         -0.0035 Ry au, 

        Potential amp.        0.3427 Ry
        Total length         48.2953 bohr


     Adding external electric field

     Computed dipole along edir(3) : 
        Elec. dipole        -10.0267 Ry au,        -25.4854 Debye
        Ion. dipole         -10.0303 Ry au,        -25.4944 Debye
        Dipole               -3.1715 Ry au,         -8.0611 Debye
        Dipole field         -0.0035 Ry au, 

        Potential amp.        0.3427 Ry
        Total length         48.2953 bohr


     total cpu time spent up to now is    10836.2 secs

     total energy              =  -33081.77671995 Ry
     estimated scf accuracy    <       0.97721538 Ry

     total magnetization       =     2.90 Bohr mag/cell
     absolute magnetization    =     2.92 Bohr mag/cell

     iteration # 11     ecut=    60.00 Ry     beta= 0.70
     Davidson diagonalization with overlap

---- Real-time Memory Report at c_bands before calling an iterative solver
          1797 MiB given to the printing process from OS
          1334 MiB allocation reported by mallinfo(arena+hblkhd)
        426235 MiB available memory on the node where the printing process lives
------------------
     ethr =  8.50E-05,  avg # of iterations =  5.7

     negative rho (up, down):  1.703E-06 2.773E-06

     Adding external electric field

     Computed dipole along edir(3) : 
        Elec. dipole        -10.0268 Ry au,        -25.4855 Debye
        Ion. dipole         -10.0303 Ry au,        -25.4944 Debye
        Dipole               -3.1521 Ry au,         -8.0119 Debye
        Dipole field         -0.0035 Ry au, 

        Potential amp.        0.3406 Ry
        Total length         48.2953 bohr


     Adding external electric field

     Computed dipole along edir(3) : 
        Elec. dipole        -10.0268 Ry au,        -25.4855 Debye
        Ion. dipole         -10.0303 Ry au,        -25.4944 Debye
        Dipole               -3.1521 Ry au,         -8.0119 Debye
        Dipole field         -0.0035 Ry au, 

        Potential amp.        0.3406 Ry
        Total length         48.2953 bohr


     total cpu time spent up to now is    11946.7 secs

     total energy              =  -33081.83698061 Ry
     estimated scf accuracy    <       4.27020835 Ry

     total magnetization       =     0.05 Bohr mag/cell
     absolute magnetization    =     0.38 Bohr mag/cell

     iteration # 12     ecut=    60.00 Ry     beta= 0.70
     Davidson diagonalization with overlap

---- Real-time Memory Report at c_bands before calling an iterative solver
          1800 MiB given to the printing process from OS
          1336 MiB allocation reported by mallinfo(arena+hblkhd)
        426224 MiB available memory on the node where the printing process lives
------------------
     ethr =  8.50E-05,  avg # of iterations =  1.6

     negative rho (up, down):  1.970E-03 1.838E-03

     Adding external electric field

     Computed dipole along edir(3) : 
        Elec. dipole        -10.0267 Ry au,        -25.4854 Debye
        Ion. dipole         -10.0303 Ry au,        -25.4944 Debye
        Dipole               -3.1649 Ry au,         -8.0442 Debye
        Dipole field         -0.0035 Ry au, 

        Potential amp.        0.3420 Ry
        Total length         48.2953 bohr


     Adding external electric field

     Computed dipole along edir(3) : 
        Elec. dipole        -10.0267 Ry au,        -25.4854 Debye
        Ion. dipole         -10.0303 Ry au,        -25.4944 Debye
        Dipole               -3.1649 Ry au,         -8.0442 Debye
        Dipole field         -0.0035 Ry au, 

        Potential amp.        0.3420 Ry
        Total length         48.2953 bohr


     total cpu time spent up to now is    12932.9 secs

     total energy              =  -33081.75598699 Ry
     estimated scf accuracy    <       4.17664200 Ry

     total magnetization       =     0.15 Bohr mag/cell
     absolute magnetization    =     0.43 Bohr mag/cell

     iteration # 13     ecut=    60.00 Ry     beta= 0.70
     Davidson diagonalization with overlap

---- Real-time Memory Report at c_bands before calling an iterative solver
          1802 MiB given to the printing process from OS
          1339 MiB allocation reported by mallinfo(arena+hblkhd)
        426179 MiB available memory on the node where the printing process lives
------------------
     ethr =  8.50E-05,  avg # of iterations =  2.5

     negative rho (up, down):  6.921E-03 6.604E-03

     Adding external electric field

     Computed dipole along edir(3) : 
        Elec. dipole        -10.0269 Ry au,        -25.4857 Debye
        Ion. dipole         -10.0303 Ry au,        -25.4944 Debye
        Dipole               -3.0654 Ry au,         -7.7915 Debye
        Dipole field         -0.0034 Ry au, 

        Potential amp.        0.3312 Ry
        Total length         48.2953 bohr


     Adding external electric field

     Computed dipole along edir(3) : 
        Elec. dipole        -10.0269 Ry au,        -25.4857 Debye
        Ion. dipole         -10.0303 Ry au,        -25.4944 Debye
        Dipole               -3.0654 Ry au,         -7.7915 Debye
        Dipole field         -0.0034 Ry au, 

        Potential amp.        0.3312 Ry
        Total length         48.2953 bohr


     total cpu time spent up to now is    14006.8 secs

     total energy              =  -33081.89345466 Ry
     estimated scf accuracy    <       1.23793416 Ry

     total magnetization       =     3.01 Bohr mag/cell
     absolute magnetization    =     3.02 Bohr mag/cell

     iteration # 14     ecut=    60.00 Ry     beta= 0.70
     Davidson diagonalization with overlap

---- Real-time Memory Report at c_bands before calling an iterative solver
          1806 MiB given to the printing process from OS
          1341 MiB allocation reported by mallinfo(arena+hblkhd)
        426055 MiB available memory on the node where the printing process lives
------------------
     ethr =  8.50E-05,  avg # of iterations =  2.0

     negative rho (up, down):  1.067E-02 1.081E-02

     Adding external electric field

     Computed dipole along edir(3) : 
        Elec. dipole        -10.0271 Ry au,        -25.4863 Debye
        Ion. dipole         -10.0303 Ry au,        -25.4944 Debye
        Dipole               -2.8760 Ry au,         -7.3101 Debye
        Dipole field         -0.0032 Ry au, 

        Potential amp.        0.3107 Ry
        Total length         48.2953 bohr


     Adding external electric field

     Computed dipole along edir(3) : 
        Elec. dipole        -10.0271 Ry au,        -25.4863 Debye
        Ion. dipole         -10.0303 Ry au,        -25.4944 Debye
        Dipole               -2.8760 Ry au,         -7.3101 Debye
        Dipole field         -0.0032 Ry au, 

        Potential amp.        0.3107 Ry
        Total length         48.2953 bohr


     total cpu time spent up to now is    15067.5 secs

     total energy              =  -33081.90634112 Ry
     estimated scf accuracy    <       1.46838491 Ry

     total magnetization       =     3.02 Bohr mag/cell
     absolute magnetization    =     3.03 Bohr mag/cell

     iteration # 15     ecut=    60.00 Ry     beta= 0.70
     Davidson diagonalization with overlap

---- Real-time Memory Report at c_bands before calling an iterative solver
          1806 MiB given to the printing process from OS
          1341 MiB allocation reported by mallinfo(arena+hblkhd)
        426064 MiB available memory on the node where the printing process lives
------------------
     ethr =  8.50E-05,  avg # of iterations =  1.4

     negative rho (up, down):  1.008E-02 1.037E-02

     Adding external electric field

     Computed dipole along edir(3) : 
        Elec. dipole        -10.0272 Ry au,        -25.4866 Debye
        Ion. dipole         -10.0303 Ry au,        -25.4944 Debye
        Dipole               -2.7451 Ry au,         -6.9774 Debye
        Dipole field         -0.0031 Ry au, 

        Potential amp.        0.2966 Ry
        Total length         48.2953 bohr


     Adding external electric field

     Computed dipole along edir(3) : 
        Elec. dipole        -10.0272 Ry au,        -25.4866 Debye
        Ion. dipole         -10.0303 Ry au,        -25.4944 Debye
        Dipole               -2.7451 Ry au,         -6.9774 Debye
        Dipole field         -0.0031 Ry au, 

        Potential amp.        0.2966 Ry
        Total length         48.2953 bohr


     total cpu time spent up to now is    16037.4 secs

     total energy              =  -33081.88710527 Ry
     estimated scf accuracy    <       1.43903879 Ry

     total magnetization       =     3.02 Bohr mag/cell
     absolute magnetization    =     3.03 Bohr mag/cell

     iteration # 16     ecut=    60.00 Ry     beta= 0.70
     Davidson diagonalization with overlap

---- Real-time Memory Report at c_bands before calling an iterative solver
          1806 MiB given to the printing process from OS
          1341 MiB allocation reported by mallinfo(arena+hblkhd)
        426055 MiB available memory on the node where the printing process lives
------------------
     ethr =  8.50E-05,  avg # of iterations =  1.3

     negative rho (up, down):  7.478E-03 7.689E-03

     Adding external electric field

     Computed dipole along edir(3) : 
        Elec. dipole        -10.0274 Ry au,        -25.4872 Debye
        Ion. dipole         -10.0303 Ry au,        -25.4944 Debye
        Dipole               -2.5428 Ry au,         -6.4633 Debye
        Dipole field         -0.0028 Ry au, 

        Potential amp.        0.2747 Ry
        Total length         48.2953 bohr


     Adding external electric field

     Computed dipole along edir(3) : 
        Elec. dipole        -10.0274 Ry au,        -25.4872 Debye
        Ion. dipole         -10.0303 Ry au,        -25.4944 Debye
        Dipole               -2.5428 Ry au,         -6.4633 Debye
        Dipole field         -0.0028 Ry au, 

        Potential amp.        0.2747 Ry
        Total length         48.2953 bohr


     total cpu time spent up to now is    16969.2 secs

     total energy              =  -33081.84629689 Ry
     estimated scf accuracy    <       1.40935546 Ry

     total magnetization       =     3.02 Bohr mag/cell
     absolute magnetization    =     3.03 Bohr mag/cell

     iteration # 17     ecut=    60.00 Ry     beta= 0.70
     Davidson diagonalization with overlap

---- Real-time Memory Report at c_bands before calling an iterative solver
          1806 MiB given to the printing process from OS
          1341 MiB allocation reported by mallinfo(arena+hblkhd)
        426053 MiB available memory on the node where the printing process lives
------------------
     ethr =  8.50E-05,  avg # of iterations =  2.2

     negative rho (up, down):  4.409E-03 4.495E-03

     Adding external electric field

     Computed dipole along edir(3) : 
        Elec. dipole        -10.0277 Ry au,        -25.4878 Debye
        Ion. dipole         -10.0303 Ry au,        -25.4944 Debye
        Dipole               -2.3190 Ry au,         -5.8943 Debye
        Dipole field         -0.0026 Ry au, 

        Potential amp.        0.2506 Ry
        Total length         48.2953 bohr


     Adding external electric field

     Computed dipole along edir(3) : 
        Elec. dipole        -10.0277 Ry au,        -25.4878 Debye
        Ion. dipole         -10.0303 Ry au,        -25.4944 Debye
        Dipole               -2.3190 Ry au,         -5.8943 Debye
        Dipole field         -0.0026 Ry au, 

        Potential amp.        0.2506 Ry
        Total length         48.2953 bohr


     total cpu time spent up to now is    17974.8 secs

     total energy              =  -33081.80342656 Ry
     estimated scf accuracy    <       1.31918976 Ry

     total magnetization       =     3.01 Bohr mag/cell
     absolute magnetization    =     3.03 Bohr mag/cell

     iteration # 18     ecut=    60.00 Ry     beta= 0.70
     Davidson diagonalization with overlap

---- Real-time Memory Report at c_bands before calling an iterative solver
          1806 MiB given to the printing process from OS
          1341 MiB allocation reported by mallinfo(arena+hblkhd)
        426051 MiB available memory on the node where the printing process lives
------------------
     ethr =  8.50E-05,  avg # of iterations =  2.8

     negative rho (up, down):  4.669E-03 4.644E-03

     Adding external electric field

     Computed dipole along edir(3) : 
        Elec. dipole        -10.0277 Ry au,        -25.4878 Debye
        Ion. dipole         -10.0303 Ry au,        -25.4944 Debye
        Dipole               -2.3435 Ry au,         -5.9566 Debye
        Dipole field         -0.0026 Ry au, 

        Potential amp.        0.2532 Ry
        Total length         48.2953 bohr


     Adding external electric field

     Computed dipole along edir(3) : 
        Elec. dipole        -10.0277 Ry au,        -25.4878 Debye
        Ion. dipole         -10.0303 Ry au,        -25.4944 Debye
        Dipole               -2.3435 Ry au,         -5.9566 Debye
        Dipole field         -0.0026 Ry au, 

        Potential amp.        0.2532 Ry
        Total length         48.2953 bohr


     total cpu time spent up to now is    19044.0 secs

     total energy              =  -33081.80898253 Ry
     estimated scf accuracy    <       0.69189876 Ry

     total magnetization       =     1.16 Bohr mag/cell
     absolute magnetization    =     1.22 Bohr mag/cell

     iteration # 19     ecut=    60.00 Ry     beta= 0.70
     Davidson diagonalization with overlap

---- Real-time Memory Report at c_bands before calling an iterative solver
          1806 MiB given to the printing process from OS
          1341 MiB allocation reported by mallinfo(arena+hblkhd)
        426056 MiB available memory on the node where the printing process lives
------------------
     ethr =  8.50E-05,  avg # of iterations =  1.3

     negative rho (up, down):  2.928E-03 2.919E-03

     Adding external electric field

     Computed dipole along edir(3) : 
        Elec. dipole        -10.0278 Ry au,        -25.4880 Debye
        Ion. dipole         -10.0303 Ry au,        -25.4944 Debye
        Dipole               -2.2545 Ry au,         -5.7305 Debye
        Dipole field         -0.0025 Ry au, 

        Potential amp.        0.2436 Ry
        Total length         48.2953 bohr


     Adding external electric field

     Computed dipole along edir(3) : 
        Elec. dipole        -10.0278 Ry au,        -25.4880 Debye
        Ion. dipole         -10.0303 Ry au,        -25.4944 Debye
        Dipole               -2.2545 Ry au,         -5.7305 Debye
        Dipole field         -0.0025 Ry au, 

        Potential amp.        0.2436 Ry
        Total length         48.2953 bohr


     total cpu time spent up to now is    19979.2 secs

     total energy              =  -33081.80778597 Ry
     estimated scf accuracy    <       0.53687399 Ry

     total magnetization       =     2.64 Bohr mag/cell
     absolute magnetization    =     2.66 Bohr mag/cell

     iteration # 20     ecut=    60.00 Ry     beta= 0.70
     Davidson diagonalization with overlap

---- Real-time Memory Report at c_bands before calling an iterative solver
          1806 MiB given to the printing process from OS
          1341 MiB allocation reported by mallinfo(arena+hblkhd)
        426087 MiB available memory on the node where the printing process lives
------------------
     ethr =  8.21E-05,  avg # of iterations =  1.9

     negative rho (up, down):  2.647E-03 2.677E-03

     Adding external electric field

     Computed dipole along edir(3) : 
        Elec. dipole        -10.0278 Ry au,        -25.4880 Debye
        Ion. dipole         -10.0303 Ry au,        -25.4944 Debye
        Dipole               -2.2566 Ry au,         -5.7356 Debye
        Dipole field         -0.0025 Ry au, 

        Potential amp.        0.2438 Ry
        Total length         48.2953 bohr


     Adding external electric field

     Computed dipole along edir(3) : 
        Elec. dipole        -10.0278 Ry au,        -25.4880 Debye
        Ion. dipole         -10.0303 Ry au,        -25.4944 Debye
        Dipole               -2.2566 Ry au,         -5.7356 Debye
        Dipole field         -0.0025 Ry au, 

        Potential amp.        0.2438 Ry
        Total length         48.2953 bohr


     total cpu time spent up to now is    20922.0 secs

     total energy              =  -33081.82291461 Ry
     estimated scf accuracy    <       1.67904368 Ry

     total magnetization       =     0.73 Bohr mag/cell
     absolute magnetization    =     0.84 Bohr mag/cell

     iteration # 21     ecut=    60.00 Ry     beta= 0.70
     Davidson diagonalization with overlap

---- Real-time Memory Report at c_bands before calling an iterative solver
          1806 MiB given to the printing process from OS
          1341 MiB allocation reported by mallinfo(arena+hblkhd)
        426118 MiB available memory on the node where the printing process lives
------------------
     ethr =  8.21E-05,  avg # of iterations =  1.5

     negative rho (up, down):  2.819E-03 2.957E-03

     Adding external electric field

     Computed dipole along edir(3) : 
        Elec. dipole        -10.0278 Ry au,        -25.4880 Debye
        Ion. dipole         -10.0303 Ry au,        -25.4944 Debye
        Dipole               -2.2543 Ry au,         -5.7299 Debye
        Dipole field         -0.0025 Ry au, 

        Potential amp.        0.2436 Ry
        Total length         48.2953 bohr


     Adding external electric field

     Computed dipole along edir(3) : 
        Elec. dipole        -10.0278 Ry au,        -25.4880 Debye
        Ion. dipole         -10.0303 Ry au,        -25.4944 Debye
        Dipole               -2.2543 Ry au,         -5.7299 Debye
        Dipole field         -0.0025 Ry au, 

        Potential amp.        0.2436 Ry
        Total length         48.2953 bohr


     total cpu time spent up to now is    21850.6 secs

     total energy              =  -33081.81238653 Ry
     estimated scf accuracy    <       2.10924140 Ry

     total magnetization       =     0.58 Bohr mag/cell
     absolute magnetization    =     0.73 Bohr mag/cell

     iteration # 22     ecut=    60.00 Ry     beta= 0.70
     Davidson diagonalization with overlap

---- Real-time Memory Report at c_bands before calling an iterative solver
          1806 MiB given to the printing process from OS
          1341 MiB allocation reported by mallinfo(arena+hblkhd)
        426102 MiB available memory on the node where the printing process lives
------------------
     ethr =  8.21E-05,  avg # of iterations =  1.0

     negative rho (up, down):  3.154E-03 3.151E-03

     Adding external electric field

     Computed dipole along edir(3) : 
        Elec. dipole        -10.0277 Ry au,        -25.4880 Debye
        Ion. dipole         -10.0303 Ry au,        -25.4944 Debye
        Dipole               -2.2749 Ry au,         -5.7822 Debye
        Dipole field         -0.0025 Ry au, 

        Potential amp.        0.2458 Ry
        Total length         48.2953 bohr


     Adding external electric field

     Computed dipole along edir(3) : 
        Elec. dipole        -10.0277 Ry au,        -25.4880 Debye
        Ion. dipole         -10.0303 Ry au,        -25.4944 Debye
        Dipole               -2.2749 Ry au,         -5.7822 Debye
        Dipole field         -0.0025 Ry au, 

        Potential amp.        0.2458 Ry
        Total length         48.2953 bohr


     total cpu time spent up to now is    22774.1 secs

     total energy              =  -33081.81586092 Ry
     estimated scf accuracy    <       0.13003053 Ry

     total magnetization       =     1.62 Bohr mag/cell
     absolute magnetization    =     1.66 Bohr mag/cell

     iteration # 23     ecut=    60.00 Ry     beta= 0.70
     Davidson diagonalization with overlap

---- Real-time Memory Report at c_bands before calling an iterative solver
          1806 MiB given to the printing process from OS
          1341 MiB allocation reported by mallinfo(arena+hblkhd)
        426099 MiB available memory on the node where the printing process lives
------------------
     ethr =  1.99E-05,  avg # of iterations =  2.2

     negative rho (up, down):  3.507E-03 3.470E-03

     Adding external electric field

     Computed dipole along edir(3) : 
        Elec. dipole        -10.0277 Ry au,        -25.4879 Debye
        Ion. dipole         -10.0303 Ry au,        -25.4944 Debye
        Dipole               -2.2862 Ry au,         -5.8108 Debye
        Dipole field         -0.0026 Ry au, 

        Potential amp.        0.2470 Ry
        Total length         48.2953 bohr


     Adding external electric field

     Computed dipole along edir(3) : 
        Elec. dipole        -10.0277 Ry au,        -25.4879 Debye
        Ion. dipole         -10.0303 Ry au,        -25.4944 Debye
        Dipole               -2.2862 Ry au,         -5.8108 Debye
        Dipole field         -0.0026 Ry au, 

        Potential amp.        0.2470 Ry
        Total length         48.2953 bohr


     total cpu time spent up to now is    23771.9 secs

     total energy              =  -33081.81632570 Ry
     estimated scf accuracy    <       0.04998458 Ry

     total magnetization       =     1.76 Bohr mag/cell
     absolute magnetization    =     1.79 Bohr mag/cell

     iteration # 24     ecut=    60.00 Ry     beta= 0.70
     Davidson diagonalization with overlap

---- Real-time Memory Report at c_bands before calling an iterative solver
          1806 MiB given to the printing process from OS
          1341 MiB allocation reported by mallinfo(arena+hblkhd)
        426092 MiB available memory on the node where the printing process lives
------------------
     ethr =  7.64E-06,  avg # of iterations =  4.3

     negative rho (up, down):  3.994E-03 3.937E-03

     Adding external electric field

     Computed dipole along edir(3) : 
        Elec. dipole        -10.0277 Ry au,        -25.4879 Debye
        Ion. dipole         -10.0303 Ry au,        -25.4944 Debye
        Dipole               -2.2957 Ry au,         -5.8352 Debye
        Dipole field         -0.0026 Ry au, 

        Potential amp.        0.2480 Ry
        Total length         48.2953 bohr


     Adding external electric field

     Computed dipole along edir(3) : 
        Elec. dipole        -10.0277 Ry au,        -25.4879 Debye
        Ion. dipole         -10.0303 Ry au,        -25.4944 Debye
        Dipole               -2.2957 Ry au,         -5.8352 Debye
        Dipole field         -0.0026 Ry au, 

        Potential amp.        0.2480 Ry
        Total length         48.2953 bohr


     total cpu time spent up to now is    24810.6 secs

     total energy              =  -33081.81396878 Ry
     estimated scf accuracy    <       0.34310772 Ry

     total magnetization       =     1.41 Bohr mag/cell
     absolute magnetization    =     1.45 Bohr mag/cell

     iteration # 25     ecut=    60.00 Ry     beta= 0.70
     Davidson diagonalization with overlap

---- Real-time Memory Report at c_bands before calling an iterative solver
          1806 MiB given to the printing process from OS
          1341 MiB allocation reported by mallinfo(arena+hblkhd)
        426113 MiB available memory on the node where the printing process lives
------------------
     ethr =  7.64E-06,  avg # of iterations =  2.2

     negative rho (up, down):  2.733E-03 2.703E-03

     Adding external electric field

     Computed dipole along edir(3) : 
        Elec. dipole        -10.0278 Ry au,        -25.4881 Debye
        Ion. dipole         -10.0303 Ry au,        -25.4944 Debye
        Dipole               -2.2412 Ry au,         -5.6965 Debye
        Dipole field         -0.0025 Ry au, 

        Potential amp.        0.2422 Ry
        Total length         48.2953 bohr


     Adding external electric field

     Computed dipole along edir(3) : 
        Elec. dipole        -10.0278 Ry au,        -25.4881 Debye
        Ion. dipole         -10.0303 Ry au,        -25.4944 Debye
        Dipole               -2.2412 Ry au,         -5.6965 Debye
        Dipole field         -0.0025 Ry au, 

        Potential amp.        0.2422 Ry
        Total length         48.2953 bohr


     total cpu time spent up to now is    25771.4 secs

     total energy              =  -33081.81419985 Ry
     estimated scf accuracy    <       0.05720785 Ry

     total magnetization       =     2.18 Bohr mag/cell
     absolute magnetization    =     2.21 Bohr mag/cell

     iteration # 26     ecut=    60.00 Ry     beta= 0.70
     Davidson diagonalization with overlap

---- Real-time Memory Report at c_bands before calling an iterative solver
          1806 MiB given to the printing process from OS
          1341 MiB allocation reported by mallinfo(arena+hblkhd)
        426115 MiB available memory on the node where the printing process lives
------------------
     c_bands:  1 eigenvalues not converged
     c_bands:  1 eigenvalues not converged
     c_bands:  1 eigenvalues not converged
     ethr =  7.64E-06,  avg # of iterations =  3.0

     negative rho (up, down):  2.120E-03 2.150E-03

     Adding external electric field

     Computed dipole along edir(3) : 
        Elec. dipole        -10.0278 Ry au,        -25.4880 Debye
        Ion. dipole         -10.0303 Ry au,        -25.4944 Debye
        Dipole               -2.2618 Ry au,         -5.7490 Debye
        Dipole field         -0.0025 Ry au, 

        Potential amp.        0.2444 Ry
        Total length         48.2953 bohr


     Adding external electric field

     Computed dipole along edir(3) : 
        Elec. dipole        -10.0278 Ry au,        -25.4880 Debye
        Ion. dipole         -10.0303 Ry au,        -25.4944 Debye
        Dipole               -2.2618 Ry au,         -5.7490 Debye
        Dipole field         -0.0025 Ry au, 

        Potential amp.        0.2444 Ry
        Total length         48.2953 bohr


     total cpu time spent up to now is    26808.3 secs

     total energy              =  -33081.82151644 Ry
     estimated scf accuracy    <       0.92486586 Ry

     total magnetization       =     1.05 Bohr mag/cell
     absolute magnetization    =     1.13 Bohr mag/cell

     iteration # 27     ecut=    60.00 Ry     beta= 0.70
     Davidson diagonalization with overlap

---- Real-time Memory Report at c_bands before calling an iterative solver
          1806 MiB given to the printing process from OS
          1341 MiB allocation reported by mallinfo(arena+hblkhd)
        426105 MiB available memory on the node where the printing process lives
------------------
     c_bands:  1 eigenvalues not converged
     ethr =  7.64E-06,  avg # of iterations =  1.6

     negative rho (up, down):  2.362E-03 2.500E-03

     Adding external electric field

     Computed dipole along edir(3) : 
        Elec. dipole        -10.0278 Ry au,        -25.4881 Debye
        Ion. dipole         -10.0303 Ry au,        -25.4944 Debye
        Dipole               -2.2413 Ry au,         -5.6967 Debye
        Dipole field         -0.0025 Ry au, 

        Potential amp.        0.2422 Ry
        Total length         48.2953 bohr


     Adding external electric field

     Computed dipole along edir(3) : 
        Elec. dipole        -10.0278 Ry au,        -25.4881 Debye
        Ion. dipole         -10.0303 Ry au,        -25.4944 Debye
        Dipole               -2.2413 Ry au,         -5.6967 Debye
        Dipole field         -0.0025 Ry au, 

        Potential amp.        0.2422 Ry
        Total length         48.2953 bohr


     total cpu time spent up to now is    27750.7 secs

     total energy              =  -33081.82039243 Ry
     estimated scf accuracy    <       1.81142984 Ry

     total magnetization       =     0.69 Bohr mag/cell
     absolute magnetization    =     0.82 Bohr mag/cell

     iteration # 28     ecut=    60.00 Ry     beta= 0.70
     Davidson diagonalization with overlap

---- Real-time Memory Report at c_bands before calling an iterative solver
          1806 MiB given to the printing process from OS
          1341 MiB allocation reported by mallinfo(arena+hblkhd)
        426101 MiB available memory on the node where the printing process lives
------------------
     ethr =  7.64E-06,  avg # of iterations =  1.1

     negative rho (up, down):  2.097E-03 2.251E-03

     Adding external electric field

     Computed dipole along edir(3) : 
        Elec. dipole        -10.0278 Ry au,        -25.4880 Debye
        Ion. dipole         -10.0303 Ry au,        -25.4944 Debye
        Dipole               -2.2583 Ry au,         -5.7400 Debye
        Dipole field         -0.0025 Ry au, 

        Potential amp.        0.2440 Ry
        Total length         48.2953 bohr


     Adding external electric field

     Computed dipole along edir(3) : 
        Elec. dipole        -10.0278 Ry au,        -25.4880 Debye
        Ion. dipole         -10.0303 Ry au,        -25.4944 Debye
        Dipole               -2.2583 Ry au,         -5.7400 Debye
        Dipole field         -0.0025 Ry au, 

        Potential amp.        0.2440 Ry
        Total length         48.2953 bohr


     total cpu time spent up to now is    28683.9 secs

     total energy              =  -33081.81867008 Ry
     estimated scf accuracy    <       1.35760242 Ry

     total magnetization       =     0.86 Bohr mag/cell
     absolute magnetization    =     0.96 Bohr mag/cell

     iteration # 29     ecut=    60.00 Ry     beta= 0.70
     Davidson diagonalization with overlap

---- Real-time Memory Report at c_bands before calling an iterative solver
          1806 MiB given to the printing process from OS
          1341 MiB allocation reported by mallinfo(arena+hblkhd)
        426106 MiB available memory on the node where the printing process lives
------------------
     ethr =  7.64E-06,  avg # of iterations =  1.3

     negative rho (up, down):  1.696E-03 1.836E-03

     Adding external electric field

     Computed dipole along edir(3) : 
        Elec. dipole        -10.0278 Ry au,        -25.4880 Debye
        Ion. dipole         -10.0303 Ry au,        -25.4944 Debye
        Dipole               -2.2606 Ry au,         -5.7458 Debye
        Dipole field         -0.0025 Ry au, 

        Potential amp.        0.2442 Ry
        Total length         48.2953 bohr


     Adding external electric field

     Computed dipole along edir(3) : 
        Elec. dipole        -10.0278 Ry au,        -25.4880 Debye
        Ion. dipole         -10.0303 Ry au,        -25.4944 Debye
        Dipole               -2.2606 Ry au,         -5.7458 Debye
        Dipole field         -0.0025 Ry au, 

        Potential amp.        0.2442 Ry
        Total length         48.2953 bohr


     total cpu time spent up to now is    29604.4 secs

     total energy              =  -33081.81578015 Ry
     estimated scf accuracy    <       0.90922659 Ry

     total magnetization       =     1.06 Bohr mag/cell
     absolute magnetization    =     1.13 Bohr mag/cell

     iteration # 30     ecut=    60.00 Ry     beta= 0.70
     Davidson diagonalization with overlap

---- Real-time Memory Report at c_bands before calling an iterative solver
          1806 MiB given to the printing process from OS
          1341 MiB allocation reported by mallinfo(arena+hblkhd)
        426116 MiB available memory on the node where the printing process lives
------------------
     ethr =  7.64E-06,  avg # of iterations =  1.0

     negative rho (up, down):  1.764E-03 1.802E-03

     Adding external electric field

     Computed dipole along edir(3) : 
        Elec. dipole        -10.0278 Ry au,        -25.4880 Debye
        Ion. dipole         -10.0303 Ry au,        -25.4944 Debye
        Dipole               -2.2628 Ry au,         -5.7513 Debye
        Dipole field         -0.0025 Ry au, 

        Potential amp.        0.2445 Ry
        Total length         48.2953 bohr


     Adding external electric field

     Computed dipole along edir(3) : 
        Elec. dipole        -10.0278 Ry au,        -25.4880 Debye
        Ion. dipole         -10.0303 Ry au,        -25.4944 Debye
        Dipole               -2.2628 Ry au,         -5.7513 Debye
        Dipole field         -0.0025 Ry au, 

        Potential amp.        0.2445 Ry
        Total length         48.2953 bohr


     total cpu time spent up to now is    30524.9 secs

     total energy              =  -33081.81545828 Ry
     estimated scf accuracy    <       0.19722335 Ry

     total magnetization       =     1.55 Bohr mag/cell
     absolute magnetization    =     1.59 Bohr mag/cell

     iteration # 31     ecut=    60.00 Ry     beta= 0.70
     Davidson diagonalization with overlap

---- Real-time Memory Report at c_bands before calling an iterative solver
          1806 MiB given to the printing process from OS
          1341 MiB allocation reported by mallinfo(arena+hblkhd)
        426109 MiB available memory on the node where the printing process lives
------------------
     ethr =  7.64E-06,  avg # of iterations =  1.0

     negative rho (up, down):  2.501E-03 2.490E-03

     Adding external electric field

     Computed dipole along edir(3) : 
        Elec. dipole        -10.0278 Ry au,        -25.4881 Debye
        Ion. dipole         -10.0303 Ry au,        -25.4944 Debye
        Dipole               -2.2335 Ry au,         -5.6769 Debye
        Dipole field         -0.0025 Ry au, 

        Potential amp.        0.2413 Ry
        Total length         48.2953 bohr


     Adding external electric field

     Computed dipole along edir(3) : 
        Elec. dipole        -10.0278 Ry au,        -25.4881 Debye
        Ion. dipole         -10.0303 Ry au,        -25.4944 Debye
        Dipole               -2.2335 Ry au,         -5.6769 Debye
        Dipole field         -0.0025 Ry au, 

        Potential amp.        0.2413 Ry
        Total length         48.2953 bohr


     total cpu time spent up to now is    31447.9 secs

     total energy              =  -33081.81602702 Ry
     estimated scf accuracy    <       0.00417755 Ry

     total magnetization       =     1.99 Bohr mag/cell
     absolute magnetization    =     2.02 Bohr mag/cell

     iteration # 32     ecut=    60.00 Ry     beta= 0.70
     Davidson diagonalization with overlap

---- Real-time Memory Report at c_bands before calling an iterative solver
          1806 MiB given to the printing process from OS
          1341 MiB allocation reported by mallinfo(arena+hblkhd)
        426093 MiB available memory on the node where the printing process lives
------------------
     ethr =  6.39E-07,  avg # of iterations =  3.9

     negative rho (up, down):  2.593E-03 2.580E-03

     Adding external electric field

     Computed dipole along edir(3) : 
        Elec. dipole        -10.0278 Ry au,        -25.4881 Debye
        Ion. dipole         -10.0303 Ry au,        -25.4944 Debye
        Dipole               -2.2368 Ry au,         -5.6855 Debye
        Dipole field         -0.0025 Ry au, 

        Potential amp.        0.2417 Ry
        Total length         48.2953 bohr


     Adding external electric field

     Computed dipole along edir(3) : 
        Elec. dipole        -10.0278 Ry au,        -25.4881 Debye
        Ion. dipole         -10.0303 Ry au,        -25.4944 Debye
        Dipole               -2.2368 Ry au,         -5.6855 Debye
        Dipole field         -0.0025 Ry au, 

        Potential amp.        0.2417 Ry
        Total length         48.2953 bohr


     total cpu time spent up to now is    32532.2 secs

     total energy              =  -33081.81615403 Ry
     estimated scf accuracy    <       0.01631762 Ry

     total magnetization       =     1.84 Bohr mag/cell
     absolute magnetization    =     1.87 Bohr mag/cell

     iteration # 33     ecut=    60.00 Ry     beta= 0.70
     Davidson diagonalization with overlap

---- Real-time Memory Report at c_bands before calling an iterative solver
          1806 MiB given to the printing process from OS
          1341 MiB allocation reported by mallinfo(arena+hblkhd)
        426098 MiB available memory on the node where the printing process lives
------------------
     ethr =  6.39E-07,  avg # of iterations =  1.1

     negative rho (up, down):  4.117E-03 4.095E-03

     Adding external electric field

     Computed dipole along edir(3) : 
        Elec. dipole        -10.0278 Ry au,        -25.4880 Debye
        Ion. dipole         -10.0303 Ry au,        -25.4944 Debye
        Dipole               -2.2531 Ry au,         -5.7267 Debye
        Dipole field         -0.0025 Ry au, 

        Potential amp.        0.2434 Ry
        Total length         48.2953 bohr


     Adding external electric field

     Computed dipole along edir(3) : 
        Elec. dipole        -10.0278 Ry au,        -25.4880 Debye
        Ion. dipole         -10.0303 Ry au,        -25.4944 Debye
        Dipole               -2.2531 Ry au,         -5.7267 Debye
        Dipole field         -0.0025 Ry au, 

        Potential amp.        0.2434 Ry
        Total length         48.2953 bohr


     total cpu time spent up to now is    33469.0 secs

     total energy              =  -33081.81621616 Ry
     estimated scf accuracy    <       0.01618703 Ry

     total magnetization       =     1.84 Bohr mag/cell
     absolute magnetization    =     1.87 Bohr mag/cell

     iteration # 34     ecut=    60.00 Ry     beta= 0.70
     Davidson diagonalization with overlap

---- Real-time Memory Report at c_bands before calling an iterative solver
          1806 MiB given to the printing process from OS
          1341 MiB allocation reported by mallinfo(arena+hblkhd)
        426114 MiB available memory on the node where the printing process lives
------------------
     c_bands:  1 eigenvalues not converged
     ethr =  6.39E-07,  avg # of iterations =  4.2

     negative rho (up, down):  4.227E-03 4.204E-03

     Adding external electric field

     Computed dipole along edir(3) : 
        Elec. dipole        -10.0278 Ry au,        -25.4880 Debye
        Ion. dipole         -10.0303 Ry au,        -25.4944 Debye
        Dipole               -2.2495 Ry au,         -5.7175 Debye
        Dipole field         -0.0025 Ry au, 

        Potential amp.        0.2430 Ry
        Total length         48.2953 bohr


     Adding external electric field

     Computed dipole along edir(3) : 
        Elec. dipole        -10.0278 Ry au,        -25.4880 Debye
        Ion. dipole         -10.0303 Ry au,        -25.4944 Debye
        Dipole               -2.2495 Ry au,         -5.7175 Debye
        Dipole field         -0.0025 Ry au, 

        Potential amp.        0.2430 Ry
        Total length         48.2953 bohr


     total cpu time spent up to now is    34571.8 secs

     total energy              =  -33081.81620980 Ry
     estimated scf accuracy    <       0.01322498 Ry

     total magnetization       =     1.85 Bohr mag/cell
     absolute magnetization    =     1.88 Bohr mag/cell

     iteration # 35     ecut=    60.00 Ry     beta= 0.70
     Davidson diagonalization with overlap

---- Real-time Memory Report at c_bands before calling an iterative solver
          1806 MiB given to the printing process from OS
          1341 MiB allocation reported by mallinfo(arena+hblkhd)
        426104 MiB available memory on the node where the printing process lives
------------------
     ethr =  6.39E-07,  avg # of iterations =  1.4

     negative rho (up, down):  3.431E-03 3.409E-03

     Adding external electric field

     Computed dipole along edir(3) : 
        Elec. dipole        -10.0278 Ry au,        -25.4881 Debye
        Ion. dipole         -10.0303 Ry au,        -25.4944 Debye
        Dipole               -2.2439 Ry au,         -5.7033 Debye
        Dipole field         -0.0025 Ry au, 

        Potential amp.        0.2424 Ry
        Total length         48.2953 bohr


     Adding external electric field

     Computed dipole along edir(3) : 
        Elec. dipole        -10.0278 Ry au,        -25.4881 Debye
        Ion. dipole         -10.0303 Ry au,        -25.4944 Debye
        Dipole               -2.2439 Ry au,         -5.7033 Debye
        Dipole field         -0.0025 Ry au, 

        Potential amp.        0.2424 Ry
        Total length         48.2953 bohr


     total cpu time spent up to now is    35542.9 secs

     total energy              =  -33081.81644429 Ry
     estimated scf accuracy    <       0.01366184 Ry

     total magnetization       =     1.85 Bohr mag/cell
     absolute magnetization    =     1.87 Bohr mag/cell

     iteration # 36     ecut=    60.00 Ry     beta= 0.70
     Davidson diagonalization with overlap

---- Real-time Memory Report at c_bands before calling an iterative solver
          1806 MiB given to the printing process from OS
          1341 MiB allocation reported by mallinfo(arena+hblkhd)
        426106 MiB available memory on the node where the printing process lives
------------------
     ethr =  6.39E-07,  avg # of iterations =  1.1

     negative rho (up, down):  3.077E-03 3.058E-03

     Adding external electric field

     Computed dipole along edir(3) : 
        Elec. dipole        -10.0278 Ry au,        -25.4880 Debye
        Ion. dipole         -10.0303 Ry au,        -25.4944 Debye
        Dipole               -2.2507 Ry au,         -5.7206 Debye
        Dipole field         -0.0025 Ry au, 

        Potential amp.        0.2432 Ry
        Total length         48.2953 bohr


     Adding external electric field

     Computed dipole along edir(3) : 
        Elec. dipole        -10.0278 Ry au,        -25.4880 Debye
        Ion. dipole         -10.0303 Ry au,        -25.4944 Debye
        Dipole               -2.2507 Ry au,         -5.7206 Debye
        Dipole field         -0.0025 Ry au, 

        Potential amp.        0.2432 Ry
        Total length         48.2953 bohr


     total cpu time spent up to now is    36469.3 secs

     total energy              =  -33081.81658450 Ry
     estimated scf accuracy    <       0.06422331 Ry

     total magnetization       =     1.71 Bohr mag/cell
     absolute magnetization    =     1.75 Bohr mag/cell

     iteration # 37     ecut=    60.00 Ry     beta= 0.70
     Davidson diagonalization with overlap

---- Real-time Memory Report at c_bands before calling an iterative solver
          1806 MiB given to the printing process from OS
          1341 MiB allocation reported by mallinfo(arena+hblkhd)
        426108 MiB available memory on the node where the printing process lives
------------------
     ethr =  6.39E-07,  avg # of iterations =  1.1

     negative rho (up, down):  2.313E-03 2.297E-03

     Adding external electric field

     Computed dipole along edir(3) : 
        Elec. dipole        -10.0278 Ry au,        -25.4880 Debye
        Ion. dipole         -10.0303 Ry au,        -25.4944 Debye
        Dipole               -2.2652 Ry au,         -5.7576 Debye
        Dipole field         -0.0025 Ry au, 

        Potential amp.        0.2448 Ry
        Total length         48.2953 bohr


     Adding external electric field

     Computed dipole along edir(3) : 
        Elec. dipole        -10.0278 Ry au,        -25.4880 Debye
        Ion. dipole         -10.0303 Ry au,        -25.4944 Debye
        Dipole               -2.2652 Ry au,         -5.7576 Debye
        Dipole field         -0.0025 Ry au, 

        Potential amp.        0.2448 Ry
        Total length         48.2953 bohr


     total cpu time spent up to now is    37403.4 secs

     total energy              =  -33081.81662317 Ry
     estimated scf accuracy    <       0.05617826 Ry

     total magnetization       =     1.73 Bohr mag/cell
     absolute magnetization    =     1.76 Bohr mag/cell

     iteration # 38     ecut=    60.00 Ry     beta= 0.70
     Davidson diagonalization with overlap

---- Real-time Memory Report at c_bands before calling an iterative solver
          1806 MiB given to the printing process from OS
          1341 MiB allocation reported by mallinfo(arena+hblkhd)
        426089 MiB available memory on the node where the printing process lives
------------------
     c_bands:  1 eigenvalues not converged
     ethr =  6.39E-07,  avg # of iterations =  2.8

     negative rho (up, down):  2.059E-03 2.048E-03

     Adding external electric field

     Computed dipole along edir(3) : 
        Elec. dipole        -10.0277 Ry au,        -25.4880 Debye
        Ion. dipole         -10.0303 Ry au,        -25.4944 Debye
        Dipole               -2.2708 Ry au,         -5.7719 Debye
        Dipole field         -0.0025 Ry au, 

        Potential amp.        0.2454 Ry
        Total length         48.2953 bohr


     Adding external electric field

     Computed dipole along edir(3) : 
        Elec. dipole        -10.0277 Ry au,        -25.4880 Debye
        Ion. dipole         -10.0303 Ry au,        -25.4944 Debye
        Dipole               -2.2708 Ry au,         -5.7719 Debye
        Dipole field         -0.0025 Ry au, 

        Potential amp.        0.2454 Ry
        Total length         48.2953 bohr


     total cpu time spent up to now is    38485.0 secs

     total energy              =  -33081.81659610 Ry
     estimated scf accuracy    <       0.06672416 Ry

     total magnetization       =     1.72 Bohr mag/cell
     absolute magnetization    =     1.75 Bohr mag/cell

     iteration # 39     ecut=    60.00 Ry     beta= 0.70
     Davidson diagonalization with overlap

---- Real-time Memory Report at c_bands before calling an iterative solver
          1806 MiB given to the printing process from OS
          1341 MiB allocation reported by mallinfo(arena+hblkhd)
        426077 MiB available memory on the node where the printing process lives
------------------
     ethr =  6.39E-07,  avg # of iterations =  2.1

     negative rho (up, down):  2.612E-03 2.597E-03

     Adding external electric field

     Computed dipole along edir(3) : 
        Elec. dipole        -10.0278 Ry au,        -25.4880 Debye
        Ion. dipole         -10.0303 Ry au,        -25.4944 Debye
        Dipole               -2.2538 Ry au,         -5.7285 Debye
        Dipole field         -0.0025 Ry au, 

        Potential amp.        0.2435 Ry
        Total length         48.2953 bohr


     Adding external electric field

     Computed dipole along edir(3) : 
        Elec. dipole        -10.0278 Ry au,        -25.4880 Debye
        Ion. dipole         -10.0303 Ry au,        -25.4944 Debye
        Dipole               -2.2538 Ry au,         -5.7285 Debye
        Dipole field         -0.0025 Ry au, 

        Potential amp.        0.2435 Ry
        Total length         48.2953 bohr


     total cpu time spent up to now is    39483.5 secs

     total energy              =  -33081.81650436 Ry
     estimated scf accuracy    <       0.09253125 Ry

     total magnetization       =     1.67 Bohr mag/cell
     absolute magnetization    =     1.71 Bohr mag/cell

     iteration # 40     ecut=    60.00 Ry     beta= 0.70
     Davidson diagonalization with overlap

---- Real-time Memory Report at c_bands before calling an iterative solver
          1806 MiB given to the printing process from OS
          1341 MiB allocation reported by mallinfo(arena+hblkhd)
        426063 MiB available memory on the node where the printing process lives
------------------
     ethr =  6.39E-07,  avg # of iterations =  1.4

     negative rho (up, down):  3.909E-03 3.884E-03

     Adding external electric field

     Computed dipole along edir(3) : 
        Elec. dipole        -10.0278 Ry au,        -25.4882 Debye
        Ion. dipole         -10.0303 Ry au,        -25.4944 Debye
        Dipole               -2.2071 Ry au,         -5.6099 Debye
        Dipole field         -0.0025 Ry au, 

        Potential amp.        0.2385 Ry
        Total length         48.2953 bohr


     Adding external electric field

     Computed dipole along edir(3) : 
        Elec. dipole        -10.0278 Ry au,        -25.4882 Debye
        Ion. dipole         -10.0303 Ry au,        -25.4944 Debye
        Dipole               -2.2071 Ry au,         -5.6099 Debye
        Dipole field         -0.0025 Ry au, 

        Potential amp.        0.2385 Ry
        Total length         48.2953 bohr


     total cpu time spent up to now is    40423.2 secs

     total energy              =  -33081.81643661 Ry
     estimated scf accuracy    <       0.07752739 Ry

     total magnetization       =     1.70 Bohr mag/cell
     absolute magnetization    =     1.73 Bohr mag/cell

     iteration # 41     ecut=    60.00 Ry     beta= 0.70
     Davidson diagonalization with overlap

---- Real-time Memory Report at c_bands before calling an iterative solver
          1806 MiB given to the printing process from OS
          1341 MiB allocation reported by mallinfo(arena+hblkhd)
        426094 MiB available memory on the node where the printing process lives
------------------
     ethr =  6.39E-07,  avg # of iterations =  4.2

     negative rho (up, down):  3.140E-03 3.115E-03

     Adding external electric field

     Computed dipole along edir(3) : 
        Elec. dipole        -10.0277 Ry au,        -25.4880 Debye
        Ion. dipole         -10.0303 Ry au,        -25.4944 Debye
        Dipole               -2.2708 Ry au,         -5.7717 Debye
        Dipole field         -0.0025 Ry au, 

        Potential amp.        0.2453 Ry
        Total length         48.2953 bohr


     Adding external electric field

     Computed dipole along edir(3) : 
        Elec. dipole        -10.0277 Ry au,        -25.4880 Debye
        Ion. dipole         -10.0303 Ry au,        -25.4944 Debye
        Dipole               -2.2708 Ry au,         -5.7717 Debye
        Dipole field         -0.0025 Ry au, 

        Potential amp.        0.2453 Ry
        Total length         48.2953 bohr


     total cpu time spent up to now is    41525.8 secs

     total energy              =  -33081.81594645 Ry
     estimated scf accuracy    <       0.05419874 Ry

     total magnetization       =     1.74 Bohr mag/cell
     absolute magnetization    =     1.77 Bohr mag/cell

     iteration # 42     ecut=    60.00 Ry     beta= 0.70
     Davidson diagonalization with overlap

---- Real-time Memory Report at c_bands before calling an iterative solver
          1806 MiB given to the printing process from OS
          1341 MiB allocation reported by mallinfo(arena+hblkhd)
        426105 MiB available memory on the node where the printing process lives
------------------
     ethr =  6.39E-07,  avg # of iterations =  2.2

     negative rho (up, down):  2.191E-03 2.141E-03

     Adding external electric field

     Computed dipole along edir(3) : 
        Elec. dipole        -10.0277 Ry au,        -25.4879 Debye
        Ion. dipole         -10.0303 Ry au,        -25.4944 Debye
        Dipole               -2.2967 Ry au,         -5.8376 Debye
        Dipole field         -0.0026 Ry au, 

        Potential amp.        0.2481 Ry
        Total length         48.2953 bohr


     Adding external electric field

     Computed dipole along edir(3) : 
        Elec. dipole        -10.0277 Ry au,        -25.4879 Debye
        Ion. dipole         -10.0303 Ry au,        -25.4944 Debye
        Dipole               -2.2967 Ry au,         -5.8376 Debye
        Dipole field         -0.0026 Ry au, 

        Potential amp.        0.2481 Ry
        Total length         48.2953 bohr


     total cpu time spent up to now is    42595.7 secs

     total energy              =  -33081.81564783 Ry
     estimated scf accuracy    <       0.02516796 Ry

     total magnetization       =     1.81 Bohr mag/cell
     absolute magnetization    =     1.84 Bohr mag/cell

     iteration # 43     ecut=    60.00 Ry     beta= 0.70
     Davidson diagonalization with overlap

---- Real-time Memory Report at c_bands before calling an iterative solver
          1806 MiB given to the printing process from OS
          1341 MiB allocation reported by mallinfo(arena+hblkhd)
        426104 MiB available memory on the node where the printing process lives
------------------
     c_bands:  1 eigenvalues not converged
     ethr =  6.39E-07,  avg # of iterations =  6.5

     negative rho (up, down):  2.323E-03 2.267E-03

     Adding external electric field

     Computed dipole along edir(3) : 
        Elec. dipole        -10.0277 Ry au,        -25.4879 Debye
        Ion. dipole         -10.0303 Ry au,        -25.4944 Debye
        Dipole               -2.2969 Ry au,         -5.8382 Debye
        Dipole field         -0.0026 Ry au, 

        Potential amp.        0.2482 Ry
        Total length         48.2953 bohr


     Adding external electric field

     Computed dipole along edir(3) : 
        Elec. dipole        -10.0277 Ry au,        -25.4879 Debye
        Ion. dipole         -10.0303 Ry au,        -25.4944 Debye
        Dipole               -2.2969 Ry au,         -5.8382 Debye
        Dipole field         -0.0026 Ry au, 

        Potential amp.        0.2482 Ry
        Total length         48.2953 bohr


     total cpu time spent up to now is    43727.0 secs

     total energy              =  -33081.81594642 Ry
     estimated scf accuracy    <       0.06605591 Ry

     total magnetization       =     1.73 Bohr mag/cell
     absolute magnetization    =     1.76 Bohr mag/cell

     iteration # 44     ecut=    60.00 Ry     beta= 0.70
     Davidson diagonalization with overlap

---- Real-time Memory Report at c_bands before calling an iterative solver
          1806 MiB given to the printing process from OS
          1341 MiB allocation reported by mallinfo(arena+hblkhd)
        426108 MiB available memory on the node where the printing process lives
------------------
     ethr =  6.39E-07,  avg # of iterations =  1.2

     negative rho (up, down):  1.925E-03 1.861E-03

     Adding external electric field

     Computed dipole along edir(3) : 
        Elec. dipole        -10.0277 Ry au,        -25.4878 Debye
        Ion. dipole         -10.0303 Ry au,        -25.4944 Debye
        Dipole               -2.3202 Ry au,         -5.8974 Debye
        Dipole field         -0.0026 Ry au, 

        Potential amp.        0.2507 Ry
        Total length         48.2953 bohr


     Adding external electric field

     Computed dipole along edir(3) : 
        Elec. dipole        -10.0277 Ry au,        -25.4878 Debye
        Ion. dipole         -10.0303 Ry au,        -25.4944 Debye
        Dipole               -2.3202 Ry au,         -5.8974 Debye
        Dipole field         -0.0026 Ry au, 

        Potential amp.        0.2507 Ry
        Total length         48.2953 bohr


     total cpu time spent up to now is    44684.9 secs

     total energy              =  -33081.81607878 Ry
     estimated scf accuracy    <       0.08288802 Ry

     total magnetization       =     1.71 Bohr mag/cell
     absolute magnetization    =     1.74 Bohr mag/cell

     iteration # 45     ecut=    60.00 Ry     beta= 0.70
     Davidson diagonalization with overlap

---- Real-time Memory Report at c_bands before calling an iterative solver
          1806 MiB given to the printing process from OS
          1341 MiB allocation reported by mallinfo(arena+hblkhd)
        426115 MiB available memory on the node where the printing process lives
------------------
     ethr =  6.39E-07,  avg # of iterations =  2.1

     negative rho (up, down):  3.516E-03 3.471E-03

     Adding external electric field

     Computed dipole along edir(3) : 
        Elec. dipole        -10.0278 Ry au,        -25.4880 Debye
        Ion. dipole         -10.0303 Ry au,        -25.4944 Debye
        Dipole               -2.2621 Ry au,         -5.7496 Debye
        Dipole field         -0.0025 Ry au, 

        Potential amp.        0.2444 Ry
        Total length         48.2953 bohr


     Adding external electric field

     Computed dipole along edir(3) : 
        Elec. dipole        -10.0278 Ry au,        -25.4880 Debye
        Ion. dipole         -10.0303 Ry au,        -25.4944 Debye
        Dipole               -2.2621 Ry au,         -5.7496 Debye
        Dipole field         -0.0025 Ry au, 

        Potential amp.        0.2444 Ry
        Total length         48.2953 bohr


     total cpu time spent up to now is    45748.3 secs

     total energy              =  -33081.81579337 Ry
     estimated scf accuracy    <       0.12649643 Ry

     total magnetization       =     1.66 Bohr mag/cell
     absolute magnetization    =     1.70 Bohr mag/cell

     iteration # 46     ecut=    60.00 Ry     beta= 0.70
     Davidson diagonalization with overlap

---- Real-time Memory Report at c_bands before calling an iterative solver
          1806 MiB given to the printing process from OS
          1341 MiB allocation reported by mallinfo(arena+hblkhd)
        426112 MiB available memory on the node where the printing process lives
------------------
     c_bands:  1 eigenvalues not converged
     ethr =  6.39E-07,  avg # of iterations =  4.2

     negative rho (up, down):  3.801E-03 3.753E-03

     Adding external electric field

     Computed dipole along edir(3) : 
        Elec. dipole        -10.0278 Ry au,        -25.4880 Debye
        Ion. dipole         -10.0303 Ry au,        -25.4944 Debye
        Dipole               -2.2536 Ry au,         -5.7282 Debye
        Dipole field         -0.0025 Ry au, 

        Potential amp.        0.2435 Ry
        Total length         48.2953 bohr


     Adding external electric field

     Computed dipole along edir(3) : 
        Elec. dipole        -10.0278 Ry au,        -25.4880 Debye
        Ion. dipole         -10.0303 Ry au,        -25.4944 Debye
        Dipole               -2.2536 Ry au,         -5.7282 Debye
        Dipole field         -0.0025 Ry au, 

        Potential amp.        0.2435 Ry
        Total length         48.2953 bohr


     total cpu time spent up to now is    46839.7 secs

     total energy              =  -33081.81575689 Ry
     estimated scf accuracy    <       0.04135724 Ry

     total magnetization       =     1.76 Bohr mag/cell
     absolute magnetization    =     1.79 Bohr mag/cell

     iteration # 47     ecut=    60.00 Ry     beta= 0.70
     Davidson diagonalization with overlap

---- Real-time Memory Report at c_bands before calling an iterative solver
          1806 MiB given to the printing process from OS
          1341 MiB allocation reported by mallinfo(arena+hblkhd)
        426109 MiB available memory on the node where the printing process lives
------------------
     ethr =  6.39E-07,  avg # of iterations =  1.8

     negative rho (up, down):  4.315E-03 4.276E-03

     Adding external electric field

     Computed dipole along edir(3) : 
        Elec. dipole        -10.0278 Ry au,        -25.4881 Debye
        Ion. dipole         -10.0303 Ry au,        -25.4944 Debye
        Dipole               -2.2430 Ry au,         -5.7012 Debye
        Dipole field         -0.0025 Ry au, 

        Potential amp.        0.2424 Ry
        Total length         48.2953 bohr


     Adding external electric field

     Computed dipole along edir(3) : 
        Elec. dipole        -10.0278 Ry au,        -25.4881 Debye
        Ion. dipole         -10.0303 Ry au,        -25.4944 Debye
        Dipole               -2.2430 Ry au,         -5.7012 Debye
        Dipole field         -0.0025 Ry au, 

        Potential amp.        0.2424 Ry
        Total length         48.2953 bohr


     total cpu time spent up to now is    47874.6 secs

     total energy              =  -33081.81582250 Ry
     estimated scf accuracy    <       0.01357011 Ry

     total magnetization       =     1.83 Bohr mag/cell
     absolute magnetization    =     1.87 Bohr mag/cell

     iteration # 48     ecut=    60.00 Ry     beta= 0.70
     Davidson diagonalization with overlap

---- Real-time Memory Report at c_bands before calling an iterative solver
          1806 MiB given to the printing process from OS
          1341 MiB allocation reported by mallinfo(arena+hblkhd)
        426103 MiB available memory on the node where the printing process lives
------------------
     ethr =  6.39E-07,  avg # of iterations =  3.5

     negative rho (up, down):  4.108E-03 4.053E-03

     Adding external electric field

     Computed dipole along edir(3) : 
        Elec. dipole        -10.0278 Ry au,        -25.4881 Debye
        Ion. dipole         -10.0303 Ry au,        -25.4944 Debye
        Dipole               -2.2207 Ry au,         -5.6445 Debye
        Dipole field         -0.0025 Ry au, 

        Potential amp.        0.2399 Ry
        Total length         48.2953 bohr


     Adding external electric field

     Computed dipole along edir(3) : 
        Elec. dipole        -10.0278 Ry au,        -25.4881 Debye
        Ion. dipole         -10.0303 Ry au,        -25.4944 Debye
        Dipole               -2.2207 Ry au,         -5.6445 Debye
        Dipole field         -0.0025 Ry au, 

        Potential amp.        0.2399 Ry
        Total length         48.2953 bohr


     total cpu time spent up to now is    48966.0 secs

     total energy              =  -33081.81575251 Ry
     estimated scf accuracy    <       0.01566927 Ry

     total magnetization       =     1.81 Bohr mag/cell
     absolute magnetization    =     1.85 Bohr mag/cell

     iteration # 49     ecut=    60.00 Ry     beta= 0.70
     Davidson diagonalization with overlap

---- Real-time Memory Report at c_bands before calling an iterative solver
          1806 MiB given to the printing process from OS
          1341 MiB allocation reported by mallinfo(arena+hblkhd)
        426032 MiB available memory on the node where the printing process lives
------------------
     ethr =  6.39E-07,  avg # of iterations =  1.3

     negative rho (up, down):  3.404E-03 3.342E-03

     Adding external electric field

     Computed dipole along edir(3) : 
        Elec. dipole        -10.0278 Ry au,        -25.4881 Debye
        Ion. dipole         -10.0303 Ry au,        -25.4944 Debye
        Dipole               -2.2322 Ry au,         -5.6738 Debye
        Dipole field         -0.0025 Ry au, 

        Potential amp.        0.2412 Ry
        Total length         48.2953 bohr


     Adding external electric field

     Computed dipole along edir(3) : 
        Elec. dipole        -10.0278 Ry au,        -25.4881 Debye
        Ion. dipole         -10.0303 Ry au,        -25.4944 Debye
        Dipole               -2.2322 Ry au,         -5.6738 Debye
        Dipole field         -0.0025 Ry au, 

        Potential amp.        0.2412 Ry
        Total length         48.2953 bohr


     total cpu time spent up to now is    49927.7 secs

     total energy              =  -33081.81573549 Ry
     estimated scf accuracy    <       0.00902218 Ry

     total magnetization       =     1.84 Bohr mag/cell
     absolute magnetization    =     1.88 Bohr mag/cell

     iteration # 50     ecut=    60.00 Ry     beta= 0.70
     Davidson diagonalization with overlap

---- Real-time Memory Report at c_bands before calling an iterative solver
          1806 MiB given to the printing process from OS
          1341 MiB allocation reported by mallinfo(arena+hblkhd)
        426068 MiB available memory on the node where the printing process lives
------------------
     ethr =  6.39E-07,  avg # of iterations =  1.3

     negative rho (up, down):  2.700E-03 2.633E-03

     Adding external electric field

     Computed dipole along edir(3) : 
        Elec. dipole        -10.0278 Ry au,        -25.4881 Debye
        Ion. dipole         -10.0303 Ry au,        -25.4944 Debye
        Dipole               -2.2377 Ry au,         -5.6877 Debye
        Dipole field         -0.0025 Ry au, 

        Potential amp.        0.2418 Ry
        Total length         48.2953 bohr


     Adding external electric field

     Computed dipole along edir(3) : 
        Elec. dipole        -10.0278 Ry au,        -25.4881 Debye
        Ion. dipole         -10.0303 Ry au,        -25.4944 Debye
        Dipole               -2.2377 Ry au,         -5.6877 Debye
        Dipole field         -0.0025 Ry au, 

        Potential amp.        0.2418 Ry
        Total length         48.2953 bohr


     total cpu time spent up to now is    50884.1 secs

     total energy              =  -33081.81571156 Ry
     estimated scf accuracy    <       0.00257762 Ry

     total magnetization       =     1.89 Bohr mag/cell
     absolute magnetization    =     1.93 Bohr mag/cell

     iteration # 51     ecut=    60.00 Ry     beta= 0.70
     Davidson diagonalization with overlap

---- Real-time Memory Report at c_bands before calling an iterative solver
          1806 MiB given to the printing process from OS
          1341 MiB allocation reported by mallinfo(arena+hblkhd)
        426089 MiB available memory on the node where the printing process lives
------------------
     ethr =  3.94E-07,  avg # of iterations =  1.8

     negative rho (up, down):  1.927E-03 1.864E-03

     Adding external electric field

     Computed dipole along edir(3) : 
        Elec. dipole        -10.0278 Ry au,        -25.4880 Debye
        Ion. dipole         -10.0303 Ry au,        -25.4944 Debye
        Dipole               -2.2478 Ry au,         -5.7134 Debye
        Dipole field         -0.0025 Ry au, 

        Potential amp.        0.2429 Ry
        Total length         48.2953 bohr


     Adding external electric field

     Computed dipole along edir(3) : 
        Elec. dipole        -10.0278 Ry au,        -25.4880 Debye
        Ion. dipole         -10.0303 Ry au,        -25.4944 Debye
        Dipole               -2.2478 Ry au,         -5.7134 Debye
        Dipole field         -0.0025 Ry au, 

        Potential amp.        0.2429 Ry
        Total length         48.2953 bohr


     total cpu time spent up to now is    51891.7 secs

     total energy              =  -33081.81568973 Ry
     estimated scf accuracy    <       0.00335580 Ry

     total magnetization       =     1.89 Bohr mag/cell
     absolute magnetization    =     1.93 Bohr mag/cell

     iteration # 52     ecut=    60.00 Ry     beta= 0.70
     Davidson diagonalization with overlap

---- Real-time Memory Report at c_bands before calling an iterative solver
          1806 MiB given to the printing process from OS
          1341 MiB allocation reported by mallinfo(arena+hblkhd)
        426094 MiB available memory on the node where the printing process lives
------------------
     ethr =  3.94E-07,  avg # of iterations =  2.6

     negative rho (up, down):  1.715E-03 1.655E-03

     Adding external electric field

     Computed dipole along edir(3) : 
        Elec. dipole        -10.0278 Ry au,        -25.4881 Debye
        Ion. dipole         -10.0303 Ry au,        -25.4944 Debye
        Dipole               -2.2474 Ry au,         -5.7124 Debye
        Dipole field         -0.0025 Ry au, 

        Potential amp.        0.2428 Ry
        Total length         48.2953 bohr


     Adding external electric field

     Computed dipole along edir(3) : 
        Elec. dipole        -10.0278 Ry au,        -25.4881 Debye
        Ion. dipole         -10.0303 Ry au,        -25.4944 Debye
        Dipole               -2.2474 Ry au,         -5.7124 Debye
        Dipole field         -0.0025 Ry au, 

        Potential amp.        0.2428 Ry
        Total length         48.2953 bohr


     total cpu time spent up to now is    52962.6 secs

     total energy              =  -33081.81569118 Ry
     estimated scf accuracy    <       0.00072632 Ry

     total magnetization       =     1.93 Bohr mag/cell
     absolute magnetization    =     1.97 Bohr mag/cell

     iteration # 53     ecut=    60.00 Ry     beta= 0.70
     Davidson diagonalization with overlap

---- Real-time Memory Report at c_bands before calling an iterative solver
          1806 MiB given to the printing process from OS
          1341 MiB allocation reported by mallinfo(arena+hblkhd)
        426098 MiB available memory on the node where the printing process lives
------------------
     c_bands:  1 eigenvalues not converged
     ethr =  1.11E-07,  avg # of iterations =  2.5

     negative rho (up, down):  1.717E-03 1.673E-03

     Adding external electric field

     Computed dipole along edir(3) : 
        Elec. dipole        -10.0278 Ry au,        -25.4881 Debye
        Ion. dipole         -10.0303 Ry au,        -25.4944 Debye
        Dipole               -2.2429 Ry au,         -5.7008 Debye
        Dipole field         -0.0025 Ry au, 

        Potential amp.        0.2423 Ry
        Total length         48.2953 bohr


     Adding external electric field

     Computed dipole along edir(3) : 
        Elec. dipole        -10.0278 Ry au,        -25.4881 Debye
        Ion. dipole         -10.0303 Ry au,        -25.4944 Debye
        Dipole               -2.2429 Ry au,         -5.7008 Debye
        Dipole field         -0.0025 Ry au, 

        Potential amp.        0.2423 Ry
        Total length         48.2953 bohr


     total cpu time spent up to now is    54006.2 secs

     total energy              =  -33081.81568692 Ry
     estimated scf accuracy    <       0.00183903 Ry

     total magnetization       =     1.92 Bohr mag/cell
     absolute magnetization    =     1.95 Bohr mag/cell

     iteration # 54     ecut=    60.00 Ry     beta= 0.70
     Davidson diagonalization with overlap

---- Real-time Memory Report at c_bands before calling an iterative solver
          1806 MiB given to the printing process from OS
          1341 MiB allocation reported by mallinfo(arena+hblkhd)
        426100 MiB available memory on the node where the printing process lives
------------------
     ethr =  1.11E-07,  avg # of iterations =  1.7

     negative rho (up, down):  1.287E-03 1.249E-03

     Adding external electric field

     Computed dipole along edir(3) : 
        Elec. dipole        -10.0278 Ry au,        -25.4880 Debye
        Ion. dipole         -10.0303 Ry au,        -25.4944 Debye
        Dipole               -2.2529 Ry au,         -5.7263 Debye
        Dipole field         -0.0025 Ry au, 

        Potential amp.        0.2434 Ry
        Total length         48.2953 bohr


     Adding external electric field

     Computed dipole along edir(3) : 
        Elec. dipole        -10.0278 Ry au,        -25.4880 Debye
        Ion. dipole         -10.0303 Ry au,        -25.4944 Debye
        Dipole               -2.2529 Ry au,         -5.7263 Debye
        Dipole field         -0.0025 Ry au, 

        Potential amp.        0.2434 Ry
        Total length         48.2953 bohr


     total cpu time spent up to now is    55025.4 secs

     total energy              =  -33081.81568780 Ry
     estimated scf accuracy    <       0.00008936 Ry

     total magnetization       =     1.96 Bohr mag/cell
     absolute magnetization    =     1.99 Bohr mag/cell

     iteration # 55     ecut=    60.00 Ry     beta= 0.70
     Davidson diagonalization with overlap

---- Real-time Memory Report at c_bands before calling an iterative solver
          1806 MiB given to the printing process from OS
          1341 MiB allocation reported by mallinfo(arena+hblkhd)
        426108 MiB available memory on the node where the printing process lives
------------------
     ethr =  1.37E-08,  avg # of iterations =  1.9

     negative rho (up, down):  1.513E-03 1.478E-03

     Adding external electric field

     Computed dipole along edir(3) : 
        Elec. dipole        -10.0278 Ry au,        -25.4881 Debye
        Ion. dipole         -10.0303 Ry au,        -25.4944 Debye
        Dipole               -2.2460 Ry au,         -5.7087 Debye
        Dipole field         -0.0025 Ry au, 

        Potential amp.        0.2427 Ry
        Total length         48.2953 bohr


     Adding external electric field

     Computed dipole along edir(3) : 
        Elec. dipole        -10.0278 Ry au,        -25.4881 Debye
        Ion. dipole         -10.0303 Ry au,        -25.4944 Debye
        Dipole               -2.2460 Ry au,         -5.7087 Debye
        Dipole field         -0.0025 Ry au, 

        Potential amp.        0.2427 Ry
        Total length         48.2953 bohr


     total cpu time spent up to now is    56074.8 secs

     total energy              =  -33081.81569973 Ry
     estimated scf accuracy    <       0.00012021 Ry

     total magnetization       =     1.97 Bohr mag/cell
     absolute magnetization    =     2.00 Bohr mag/cell

     iteration # 56     ecut=    60.00 Ry     beta= 0.70
     Davidson diagonalization with overlap

---- Real-time Memory Report at c_bands before calling an iterative solver
          1806 MiB given to the printing process from OS
          1341 MiB allocation reported by mallinfo(arena+hblkhd)
        426108 MiB available memory on the node where the printing process lives
------------------
     ethr =  1.37E-08,  avg # of iterations =  2.1

     negative rho (up, down):  1.576E-03 1.531E-03

     Adding external electric field

     Computed dipole along edir(3) : 
        Elec. dipole        -10.0278 Ry au,        -25.4881 Debye
        Ion. dipole         -10.0303 Ry au,        -25.4944 Debye
        Dipole               -2.2459 Ry au,         -5.7086 Debye
        Dipole field         -0.0025 Ry au, 

        Potential amp.        0.2427 Ry
        Total length         48.2953 bohr


     Adding external electric field

     Computed dipole along edir(3) : 
        Elec. dipole        -10.0278 Ry au,        -25.4881 Debye
        Ion. dipole         -10.0303 Ry au,        -25.4944 Debye
        Dipole               -2.2459 Ry au,         -5.7086 Debye
        Dipole field         -0.0025 Ry au, 

        Potential amp.        0.2427 Ry
        Total length         48.2953 bohr


     total cpu time spent up to now is    57137.0 secs

     total energy              =  -33081.81566262 Ry
     estimated scf accuracy    <       0.00057519 Ry

     total magnetization       =     1.97 Bohr mag/cell
     absolute magnetization    =     2.01 Bohr mag/cell

     iteration # 57     ecut=    60.00 Ry     beta= 0.70
     Davidson diagonalization with overlap

---- Real-time Memory Report at c_bands before calling an iterative solver
          1806 MiB given to the printing process from OS
          1341 MiB allocation reported by mallinfo(arena+hblkhd)
        426092 MiB available memory on the node where the printing process lives
------------------
     ethr =  1.37E-08,  avg # of iterations =  2.0

     negative rho (up, down):  1.446E-03 1.405E-03

     Adding external electric field

     Computed dipole along edir(3) : 
        Elec. dipole        -10.0278 Ry au,        -25.4880 Debye
        Ion. dipole         -10.0303 Ry au,        -25.4944 Debye
        Dipole               -2.2483 Ry au,         -5.7145 Debye
        Dipole field         -0.0025 Ry au, 

        Potential amp.        0.2429 Ry
        Total length         48.2953 bohr


     Adding external electric field

     Computed dipole along edir(3) : 
        Elec. dipole        -10.0278 Ry au,        -25.4880 Debye
        Ion. dipole         -10.0303 Ry au,        -25.4944 Debye
        Dipole               -2.2483 Ry au,         -5.7145 Debye
        Dipole field         -0.0025 Ry au, 

        Potential amp.        0.2429 Ry
        Total length         48.2953 bohr


     total cpu time spent up to now is    58199.1 secs

     total energy              =  -33081.81568499 Ry
     estimated scf accuracy    <       0.00005639 Ry

     total magnetization       =     1.96 Bohr mag/cell
     absolute magnetization    =     1.99 Bohr mag/cell

     iteration # 58     ecut=    60.00 Ry     beta= 0.70
     Davidson diagonalization with overlap

---- Real-time Memory Report at c_bands before calling an iterative solver
          1806 MiB given to the printing process from OS
          1341 MiB allocation reported by mallinfo(arena+hblkhd)
        426093 MiB available memory on the node where the printing process lives
------------------
     ethr =  8.62E-09,  avg # of iterations =  1.8

     negative rho (up, down):  1.462E-03 1.421E-03

     Adding external electric field

     Computed dipole along edir(3) : 
        Elec. dipole        -10.0278 Ry au,        -25.4880 Debye
        Ion. dipole         -10.0303 Ry au,        -25.4944 Debye
        Dipole               -2.2478 Ry au,         -5.7133 Debye
        Dipole field         -0.0025 Ry au, 

        Potential amp.        0.2429 Ry
        Total length         48.2953 bohr


     Adding external electric field

     Computed dipole along edir(3) : 
        Elec. dipole        -10.0278 Ry au,        -25.4880 Debye
        Ion. dipole         -10.0303 Ry au,        -25.4944 Debye
        Dipole               -2.2478 Ry au,         -5.7133 Debye
        Dipole field         -0.0025 Ry au, 

        Potential amp.        0.2429 Ry
        Total length         48.2953 bohr


     total cpu time spent up to now is    59227.3 secs

     total energy              =  -33081.81568577 Ry
     estimated scf accuracy    <       0.00004820 Ry

     total magnetization       =     1.96 Bohr mag/cell
     absolute magnetization    =     1.99 Bohr mag/cell

     iteration # 59     ecut=    60.00 Ry     beta= 0.70
     Davidson diagonalization with overlap

---- Real-time Memory Report at c_bands before calling an iterative solver
          1806 MiB given to the printing process from OS
          1341 MiB allocation reported by mallinfo(arena+hblkhd)
        426099 MiB available memory on the node where the printing process lives
------------------
     ethr =  7.37E-09,  avg # of iterations =  1.1

     negative rho (up, down):  1.496E-03 1.455E-03

     Adding external electric field

     Computed dipole along edir(3) : 
        Elec. dipole        -10.0278 Ry au,        -25.4881 Debye
        Ion. dipole         -10.0303 Ry au,        -25.4944 Debye
        Dipole               -2.2469 Ry au,         -5.7111 Debye
        Dipole field         -0.0025 Ry au, 

        Potential amp.        0.2428 Ry
        Total length         48.2953 bohr


     Adding external electric field

     Computed dipole along edir(3) : 
        Elec. dipole        -10.0278 Ry au,        -25.4881 Debye
        Ion. dipole         -10.0303 Ry au,        -25.4944 Debye
        Dipole               -2.2469 Ry au,         -5.7111 Debye
        Dipole field         -0.0025 Ry au, 

        Potential amp.        0.2428 Ry
        Total length         48.2953 bohr


     total cpu time spent up to now is    60155.8 secs

     total energy              =  -33081.81568609 Ry
     estimated scf accuracy    <       0.00004932 Ry

     total magnetization       =     1.96 Bohr mag/cell
     absolute magnetization    =     1.99 Bohr mag/cell

     iteration # 60     ecut=    60.00 Ry     beta= 0.70
     Davidson diagonalization with overlap

---- Real-time Memory Report at c_bands before calling an iterative solver
          1806 MiB given to the printing process from OS
          1341 MiB allocation reported by mallinfo(arena+hblkhd)
        426106 MiB available memory on the node where the printing process lives
------------------
     ethr =  7.37E-09,  avg # of iterations =  1.1

     negative rho (up, down):  1.499E-03 1.458E-03

     Adding external electric field

     Computed dipole along edir(3) : 
        Elec. dipole        -10.0278 Ry au,        -25.4881 Debye
        Ion. dipole         -10.0303 Ry au,        -25.4944 Debye
        Dipole               -2.2471 Ry au,         -5.7115 Debye
        Dipole field         -0.0025 Ry au, 

        Potential amp.        0.2428 Ry
        Total length         48.2953 bohr


     Adding external electric field

     Computed dipole along edir(3) : 
        Elec. dipole        -10.0278 Ry au,        -25.4881 Debye
        Ion. dipole         -10.0303 Ry au,        -25.4944 Debye
        Dipole               -2.2471 Ry au,         -5.7115 Debye
        Dipole field         -0.0025 Ry au, 

        Potential amp.        0.2428 Ry
        Total length         48.2953 bohr


     total cpu time spent up to now is    61074.3 secs

     total energy              =  -33081.81568509 Ry
     estimated scf accuracy    <       0.00004525 Ry

     total magnetization       =     1.96 Bohr mag/cell
     absolute magnetization    =     1.99 Bohr mag/cell

     iteration # 61     ecut=    60.00 Ry     beta= 0.70
     Davidson diagonalization with overlap

---- Real-time Memory Report at c_bands before calling an iterative solver
          1806 MiB given to the printing process from OS
          1341 MiB allocation reported by mallinfo(arena+hblkhd)
        426102 MiB available memory on the node where the printing process lives
------------------
     ethr =  6.92E-09,  avg # of iterations =  1.0

     negative rho (up, down):  1.293E-03 1.250E-03

     Adding external electric field

     Computed dipole along edir(3) : 
        Elec. dipole        -10.0278 Ry au,        -25.4880 Debye
        Ion. dipole         -10.0303 Ry au,        -25.4944 Debye
        Dipole               -2.2500 Ry au,         -5.7189 Debye
        Dipole field         -0.0025 Ry au, 

        Potential amp.        0.2431 Ry
        Total length         48.2953 bohr


     Adding external electric field

     Computed dipole along edir(3) : 
        Elec. dipole        -10.0278 Ry au,        -25.4880 Debye
        Ion. dipole         -10.0303 Ry au,        -25.4944 Debye
        Dipole               -2.2500 Ry au,         -5.7189 Debye
        Dipole field         -0.0025 Ry au, 

        Potential amp.        0.2431 Ry
        Total length         48.2953 bohr


     total cpu time spent up to now is    61979.5 secs

     total energy              =  -33081.81567742 Ry
     estimated scf accuracy    <       0.00004632 Ry

     total magnetization       =     1.96 Bohr mag/cell
     absolute magnetization    =     2.00 Bohr mag/cell

     iteration # 62     ecut=    60.00 Ry     beta= 0.70
     Davidson diagonalization with overlap

---- Real-time Memory Report at c_bands before calling an iterative solver
          1806 MiB given to the printing process from OS
          1341 MiB allocation reported by mallinfo(arena+hblkhd)
        426110 MiB available memory on the node where the printing process lives
------------------
     ethr =  6.92E-09,  avg # of iterations =  2.0

     negative rho (up, down):  9.608E-04 9.238E-04

     Adding external electric field

     Computed dipole along edir(3) : 
        Elec. dipole        -10.0278 Ry au,        -25.4880 Debye
        Ion. dipole         -10.0303 Ry au,        -25.4944 Debye
        Dipole               -2.2581 Ry au,         -5.7396 Debye
        Dipole field         -0.0025 Ry au, 

        Potential amp.        0.2440 Ry
        Total length         48.2953 bohr


     Adding external electric field

     Computed dipole along edir(3) : 
        Elec. dipole        -10.0278 Ry au,        -25.4880 Debye
        Ion. dipole         -10.0303 Ry au,        -25.4944 Debye
        Dipole               -2.2581 Ry au,         -5.7396 Debye
        Dipole field         -0.0025 Ry au, 

        Potential amp.        0.2440 Ry
        Total length         48.2953 bohr


     total cpu time spent up to now is    63037.7 secs

     total energy              =  -33081.81567575 Ry
     estimated scf accuracy    <       0.00096203 Ry

     total magnetization       =     1.93 Bohr mag/cell
     absolute magnetization    =     1.96 Bohr mag/cell

     iteration # 63     ecut=    60.00 Ry     beta= 0.70
     Davidson diagonalization with overlap

---- Real-time Memory Report at c_bands before calling an iterative solver
          1806 MiB given to the printing process from OS
          1341 MiB allocation reported by mallinfo(arena+hblkhd)
        426091 MiB available memory on the node where the printing process lives
------------------
     ethr =  6.92E-09,  avg # of iterations =  1.6

     negative rho (up, down):  6.238E-04 5.958E-04

     Adding external electric field

     Computed dipole along edir(3) : 
        Elec. dipole        -10.0277 Ry au,        -25.4880 Debye
        Ion. dipole         -10.0303 Ry au,        -25.4944 Debye
        Dipole               -2.2695 Ry au,         -5.7684 Debye
        Dipole field         -0.0025 Ry au, 

        Potential amp.        0.2452 Ry
        Total length         48.2953 bohr


     Adding external electric field

     Computed dipole along edir(3) : 
        Elec. dipole        -10.0277 Ry au,        -25.4880 Debye
        Ion. dipole         -10.0303 Ry au,        -25.4944 Debye
        Dipole               -2.2695 Ry au,         -5.7684 Debye
        Dipole field         -0.0025 Ry au, 

        Potential amp.        0.2452 Ry
        Total length         48.2953 bohr


     total cpu time spent up to now is    64032.9 secs

     total energy              =  -33081.81567271 Ry
     estimated scf accuracy    <       0.00019190 Ry

     total magnetization       =     1.95 Bohr mag/cell
     absolute magnetization    =     1.98 Bohr mag/cell

     iteration # 64     ecut=    60.00 Ry     beta= 0.70
     Davidson diagonalization with overlap

---- Real-time Memory Report at c_bands before calling an iterative solver
          1806 MiB given to the printing process from OS
          1341 MiB allocation reported by mallinfo(arena+hblkhd)
        426057 MiB available memory on the node where the printing process lives
------------------
     ethr =  6.92E-09,  avg # of iterations =  1.7

     negative rho (up, down):  6.264E-04 5.964E-04

     Adding external electric field

     Computed dipole along edir(3) : 
        Elec. dipole        -10.0277 Ry au,        -25.4880 Debye
        Ion. dipole         -10.0303 Ry au,        -25.4944 Debye
        Dipole               -2.2702 Ry au,         -5.7704 Debye
        Dipole field         -0.0025 Ry au, 

        Potential amp.        0.2453 Ry
        Total length         48.2953 bohr


     Adding external electric field

     Computed dipole along edir(3) : 
        Elec. dipole        -10.0277 Ry au,        -25.4880 Debye
        Ion. dipole         -10.0303 Ry au,        -25.4944 Debye
        Dipole               -2.2702 Ry au,         -5.7704 Debye
        Dipole field         -0.0025 Ry au, 

        Potential amp.        0.2453 Ry
        Total length         48.2953 bohr


     total cpu time spent up to now is    65045.1 secs

     total energy              =  -33081.81567373 Ry
     estimated scf accuracy    <       0.00000951 Ry

     total magnetization       =     1.97 Bohr mag/cell
     absolute magnetization    =     2.00 Bohr mag/cell

     iteration # 65     ecut=    60.00 Ry     beta= 0.70
     Davidson diagonalization with overlap

---- Real-time Memory Report at c_bands before calling an iterative solver
          1806 MiB given to the printing process from OS
          1341 MiB allocation reported by mallinfo(arena+hblkhd)
        426077 MiB available memory on the node where the printing process lives
------------------
     ethr =  1.45E-09,  avg # of iterations =  1.9

     negative rho (up, down):  6.214E-04 5.923E-04

     Adding external electric field

     Computed dipole along edir(3) : 
        Elec. dipole        -10.0277 Ry au,        -25.4880 Debye
        Ion. dipole         -10.0303 Ry au,        -25.4944 Debye
        Dipole               -2.2747 Ry au,         -5.7817 Debye
        Dipole field         -0.0025 Ry au, 

        Potential amp.        0.2458 Ry
        Total length         48.2953 bohr


     Adding external electric field

     Computed dipole along edir(3) : 
        Elec. dipole        -10.0277 Ry au,        -25.4880 Debye
        Ion. dipole         -10.0303 Ry au,        -25.4944 Debye
        Dipole               -2.2747 Ry au,         -5.7817 Debye
        Dipole field         -0.0025 Ry au, 

        Potential amp.        0.2458 Ry
        Total length         48.2953 bohr


     Magnetic moment per site  (integrated on atomic sphere of radius R)
     atom   1 (R=0.134)  charge= 15.8690  magn=  0.0002
     atom   2 (R=0.134)  charge= 15.8690  magn=  0.0002
     atom   3 (R=0.134)  charge= 15.8688  magn=  0.0005
     atom   4 (R=0.134)  charge= 15.8692  magn=  0.0006
     atom   5 (R=0.134)  charge= 15.8688  magn=  0.0005
     atom   6 (R=0.134)  charge= 15.8688  magn=  0.0005
     atom   7 (R=0.134)  charge= 15.8693  magn=  0.0006
     atom   8 (R=0.134)  charge= 15.8690  magn=  0.0002
     atom   9 (R=0.134)  charge= 15.8693  magn=  0.0006
     atom  10 (R=0.134)  charge= 15.9206  magn=  0.0017
     atom  11 (R=0.134)  charge= 15.9177  magn=  0.0013
     atom  12 (R=0.134)  charge= 15.9177  magn=  0.0013
     atom  13 (R=0.134)  charge= 15.9220  magn=  0.0026
     atom  14 (R=0.134)  charge= 15.9179  magn=  0.0013
     atom  15 (R=0.134)  charge= 15.9221  magn=  0.0026
     atom  16 (R=0.134)  charge= 15.9205  magn=  0.0017
     atom  17 (R=0.134)  charge= 15.9206  magn=  0.0017
     atom  18 (R=0.134)  charge= 15.9219  magn=  0.0026
     atom  19 (R=0.134)  charge= 15.9112  magn=  0.0041
     atom  20 (R=0.134)  charge= 15.9111  magn=  0.0041
     atom  21 (R=0.134)  charge= 15.8907  magn=  0.0010
     atom  22 (R=0.134)  charge= 15.9226  magn=  0.0020
     atom  23 (R=0.134)  charge= 15.9111  magn=  0.0041
     atom  24 (R=0.134)  charge= 15.9111  magn=  0.0041
     atom  25 (R=0.134)  charge= 15.9112  magn=  0.0041
     atom  26 (R=0.134)  charge= 15.9187  magn=  0.0059
     atom  27 (R=0.134)  charge= 15.9112  magn=  0.0041
     atom  28 (R=0.134)  charge= 15.8639  magn=  0.0018
     atom  29 (R=0.134)  charge= 15.8639  magn=  0.0018
     atom  30 (R=0.134)  charge= 15.8354  magn=  0.0081
     atom  31 (R=0.134)  charge= 15.8729  magn=  0.0014
     atom  32 (R=0.134)  charge= 15.8353  magn=  0.0080
     atom  33 (R=0.134)  charge= 15.8354  magn=  0.0080
     atom  34 (R=0.134)  charge= 15.8731  magn=  0.0015
     atom  35 (R=0.134)  charge= 15.8636  magn=  0.0018
     atom  36 (R=0.134)  charge= 15.8731  magn=  0.0015
     atom  37 (R=0.212)  charge=  6.0625  magn=  1.8865

     total cpu time spent up to now is    66089.7 secs

     End of self-consistent calculation

 ------ SPIN UP ------------


          k = 0.0000 0.0000 0.0000 ( 88097 PWs)   bands (ev):

   -95.5566 -95.5491 -95.5440 -95.5439 -95.5435 -95.5385 -95.5370 -95.5365
   -95.5239 -95.5190 -95.5187 -95.5181 -95.5150 -95.5149 -95.5129 -95.5127
   -95.5088 -95.4084 -95.1541 -95.1475 -95.1468 -95.1142 -95.1070 -95.1051
   -95.1046 -95.0938 -95.0935 -95.0933 -95.0900 -95.0899 -95.0863 -95.0811
   -95.0808 -94.9134 -94.9110 -94.9092 -49.8266 -49.8122 -49.8033 -49.8019
   -49.7969 -49.7955 -49.7942 -49.7891 -49.7890 -49.7827 -49.7819 -49.7818
   -49.7750 -49.7741 -49.7692 -49.7686 -49.7521 -49.7518 -49.7484 -49.7157
   -49.7152 -49.7074 -49.6997 -49.6991 -49.6802 -49.6800 -49.6787 -49.6374
   -49.6372 -49.6350 -49.6256 -49.6209 -49.6207 -49.6202 -49.6149 -49.6058
   -49.6054 -49.6040 -49.6022 -49.6021 -49.6013 -49.5989 -49.5986 -49.5723
   -49.5715 -49.5684 -49.5583 -49.5545 -49.5535 -49.5393 -49.5383 -49.4938
   -49.4930 -49.4798 -49.4648 -49.4647 -49.4473 -49.4361 -49.4355 -49.4304
   -49.4215 -49.4098 -49.4076 -49.4076 -49.4059 -49.4058 -49.4056 -49.3984
   -49.3970 -49.3897 -49.3896 -49.3243 -49.3229 -49.2858 -49.2650 -49.2643
   -49.2482 -49.2478 -49.2476 -49.2450 -49.2450 -49.2432 -49.2023 -49.1908
   -49.1905 -49.1452 -49.1451 -49.1152 -49.0901 -49.0900 -49.0644 -49.0525
   -49.0515 -49.0370 -49.0346 -49.0234 -49.0216 -49.0188 -49.0185 -49.0182
   -49.0137 -49.0136 -49.0100 -49.0016 -49.0013 -48.8309 -48.8257 -48.8235
   -15.0035  -6.2163  -4.9122  -3.8258  -3.7755  -3.7376  -3.7365  -3.7285
    -3.7166  -3.7165  -3.6768  -3.1665  -3.1655  -3.1627  -3.1340  -3.1334
    -3.0918  -2.6831  -2.6824  -2.6737  -2.6428  -2.6428  -2.6140  -2.4478
    -2.4477  -2.4274  -2.4149  -2.3920  -2.3919  -2.2331  -2.2328  -2.2172
    -2.1894  -2.1814  -2.1812  -2.1614  -2.1610  -2.1533  -2.1002  -2.0985
    -2.0490  -1.5735  -1.5726  -1.5229  -1.5229  -1.4964  -1.4963  -1.4873
    -1.4074  -1.4067  -1.3898  -1.3278  -1.3277  -1.1931  -1.1924  -0.7324
    -0.7312  -0.7202  -0.6983  -0.6975  -0.6803  -0.6316  -0.5302  -0.5301
    -0.5209  -0.5141  -0.5041  -0.5039  -0.4917  -0.4816  -0.4816  -0.4653
    -0.4527  -0.4510  -0.4191  -0.3782  -0.3771  -0.2881  -0.2865  -0.2584
    -0.2471  -0.2461  -0.2438  -0.0713  -0.0699  -0.0566  -0.0187  -0.0177
    -0.0007   0.0257   0.0266   0.0405   0.0687   0.0694   0.1076   0.1077
     0.1205   0.1216   0.1292   0.1295   0.1747   0.1747   0.1783   0.1863
     0.3170   0.3194   0.3197   0.3908   0.3966   0.3988   0.4141   0.8613
     0.8620   0.8870   0.8975   0.8989   0.9080   0.9324   0.9337   0.9653
     0.9708   0.9913   0.9920   1.0523   1.0539   1.0888   1.0890   1.1517
     1.1621   1.1621   1.2997   1.3588   1.3592   1.3913   1.3958   1.4356
     1.4432   1.6532   1.6786   1.6795   1.6930   1.6938   1.7201   1.7851
     1.7852   1.8785   1.8792   1.9075   1.9168   1.9171   1.9302   2.0875
     2.1022   2.1035   2.1205   2.1283   2.1284   2.1358   2.1366   2.1368
     2.1651   2.1653   2.1665   2.2276   2.2770   2.2770   2.3130   2.3136
     2.3402   2.3463   2.3469   2.3694   2.4193   2.4204   2.4429   2.4429
     2.4684   2.4906   2.4907   2.5232   2.5365   2.5367   2.5615   2.5861
     2.5862   2.6496   2.6508   2.6525   2.6541   2.6663   2.6677   2.6929
     2.8817   2.8860   2.9732   2.9891   2.9895   3.0055   3.0061   3.0073
     3.7320   3.7766   3.7774   3.8149   3.8283   3.8294   3.8411   6.1025
     6.1072   6.1090   6.1492   6.1514   6.1616   7.6208   7.6221   7.6679
     7.6774   7.6777   7.6944   8.3846   8.3848   8.7472   8.9508   8.9529
     8.9803   9.0181   9.0214   9.0715   9.4892   9.5377   9.5380   9.5624
     9.8139  10.2468  10.2480  10.2998  10.7447  10.8593  10.8619  10.9105
    10.9126  10.9508  11.0549  11.3232  11.3489  11.3507  11.3868  11.7187

     occupation numbers 
     1.0000   1.0000   1.0000   1.0000   1.0000   1.0000   1.0000   1.0000
     1.0000   1.0000   1.0000   1.0000   1.0000   1.0000   1.0000   1.0000
     1.0000   1.0000   1.0000   1.0000   1.0000   1.0000   1.0000   1.0000
     1.0000   1.0000   1.0000   1.0000   1.0000   1.0000   1.0000   1.0000
     1.0000   1.0000   1.0000   1.0000   1.0000   1.0000   1.0000   1.0000
     1.0000   1.0000   1.0000   1.0000   1.0000   1.0000   1.0000   1.0000
     1.0000   1.0000   1.0000   1.0000   1.0000   1.0000   1.0000   1.0000
     1.0000   1.0000   1.0000   1.0000   1.0000   1.0000   1.0000   1.0000
     1.0000   1.0000   1.0000   1.0000   1.0000   1.0000   1.0000   1.0000
     1.0000   1.0000   1.0000   1.0000   1.0000   1.0000   1.0000   1.0000
     1.0000   1.0000   1.0000   1.0000   1.0000   1.0000   1.0000   1.0000
     1.0000   1.0000   1.0000   1.0000   1.0000   1.0000   1.0000   1.0000
     1.0000   1.0000   1.0000   1.0000   1.0000   1.0000   1.0000   1.0000
     1.0000   1.0000   1.0000   1.0000   1.0000   1.0000   1.0000   1.0000
     1.0000   1.0000   1.0000   1.0000   1.0000   1.0000   1.0000   1.0000
     1.0000   1.0000   1.0000   1.0000   1.0000   1.0000   1.0000   1.0000
     1.0000   1.0000   1.0000   1.0000   1.0000   1.0000   1.0000   1.0000
     1.0000   1.0000   1.0000   1.0000   1.0000   1.0000   1.0000   1.0000
     1.0000   1.0000   1.0000   1.0000   1.0000   1.0000   1.0000   1.0000
     1.0000   1.0000   1.0000   1.0000   1.0000   1.0000   1.0000   1.0000
     1.0000   1.0000   1.0000   1.0000   1.0000   1.0000   1.0000   1.0000
     1.0000   1.0000   1.0000   1.0000   1.0000   1.0000   1.0000   1.0000
     1.0000   1.0000   1.0000   1.0000   1.0000   1.0000   1.0000   1.0000
     1.0000   1.0000   1.0000   1.0000   1.0000   1.0000   1.0000   1.0000
     1.0000   1.0000   1.0000   1.0000   1.0000   1.0000   1.0000   1.0000
     1.0000   1.0000   1.0000   1.0000   1.0000   1.0000   1.0000   1.0000
     1.0000   1.0000   1.0000   1.0000   1.0000   1.0000   1.0000   1.0000
     1.0000   1.0000   1.0000   1.0000   1.0000   1.0000   1.0000   1.0000
     1.0000   1.0000   1.0000   1.0000   1.0000   1.0000   1.0000   1.0000
     1.0000   1.0000   1.0000   1.0000   1.0000   1.0000   1.0000   1.0000
     1.0000   1.0000   1.0000   1.0000   1.0000   1.0000   1.0000   1.0000
     1.0000   1.0000   1.0000   1.0000   1.0000   1.0000   1.0000   1.0000
     1.0000   1.0000   1.0000   1.0000   1.0000   1.0000   1.0000   1.0000
     1.0000   1.0000   1.0000   1.0000   1.0000   1.0000   1.0000   1.0000
     1.0000   1.0000   1.0000   1.0000   1.0000   1.0000   1.0000   1.0000
     1.0000   1.0000   1.0000   1.0000   1.0000   1.0000   1.0000   1.0000
     1.0000   1.0000   1.0000   1.0000   1.0000   1.0000   1.0000   1.0000
     1.0000   1.0000   1.0000   1.0000   1.0000   1.0000   1.0000   1.0000
     1.0000   1.0000   1.0000   1.0000   1.0000   1.0000   1.0000   1.0000
     1.0000   1.0000   1.0000   1.0000   0.9999   0.9999   0.9999   0.9999
     0.9999   0.9998   0.9998   0.9996   0.9994   0.9994   0.9990   0.9984
     0.9984   0.9945   0.9943   0.9941   0.9940   0.9923   0.9921   0.9870
     0.6347   0.6145   0.2179   0.1686   0.1674   0.1274   0.1261   0.1233
     0.0000   0.0000   0.0000   0.0000   0.0000   0.0000   0.0000   0.0000
     0.0000   0.0000   0.0000   0.0000   0.0000   0.0000   0.0000   0.0000
     0.0000   0.0000   0.0000   0.0000   0.0000   0.0000   0.0000   0.0000
     0.0000   0.0000   0.0000   0.0000   0.0000   0.0000   0.0000   0.0000
     0.0000   0.0000   0.0000   0.0000   0.0000   0.0000   0.0000   0.0000
     0.0000   0.0000   0.0000   0.0000   0.0000   0.0000   0.0000   0.0000

          k = 0.0000 0.1925 0.0000 ( 88230 PWs)   bands (ev):

   -95.5562 -95.5496 -95.5441 -95.5441 -95.5434 -95.5388 -95.5366 -95.5364
   -95.5239 -95.5193 -95.5188 -95.5180 -95.5152 -95.5150 -95.5126 -95.5124
   -95.5090 -95.4084 -95.1541 -95.1475 -95.1469 -95.1142 -95.1070 -95.1051
   -95.1041 -95.0955 -95.0938 -95.0922 -95.0902 -95.0896 -95.0859 -95.0812
   -95.0809 -94.9134 -94.9110 -94.9092 -49.8380 -49.8251 -49.8199 -49.8151
   -49.8064 -49.8020 -49.8002 -49.7968 -49.7951 -49.7820 -49.7799 -49.7788
   -49.7733 -49.7635 -49.7583 -49.7579 -49.7454 -49.7383 -49.7262 -49.7036
   -49.7030 -49.7023 -49.6969 -49.6923 -49.6772 -49.6771 -49.6706 -49.6418
   -49.6412 -49.6315 -49.6282 -49.6281 -49.6218 -49.6203 -49.6186 -49.6085
   -49.6067 -49.6055 -49.6040 -49.6028 -49.5972 -49.5952 -49.5926 -49.5778
   -49.5767 -49.5715 -49.5599 -49.5597 -49.5515 -49.5459 -49.5395 -49.5003
   -49.4944 -49.4808 -49.4739 -49.4713 -49.4595 -49.4429 -49.4378 -49.4352
   -49.4255 -49.4251 -49.4182 -49.4180 -49.4107 -49.4073 -49.3852 -49.3849
   -49.3651 -49.3643 -49.3607 -49.3221 -49.3179 -49.2886 -49.2688 -49.2642
   -49.2572 -49.2566 -49.2550 -49.2447 -49.2442 -49.2338 -49.1998 -49.1961
   -49.1928 -49.1475 -49.1430 -49.1168 -49.0960 -49.0916 -49.0639 -49.0524
   -49.0520 -49.0362 -49.0343 -49.0234 -49.0219 -49.0213 -49.0189 -49.0168
   -49.0140 -49.0130 -49.0090 -49.0019 -49.0014 -48.8309 -48.8257 -48.8235
   -15.0035  -6.1120  -4.8098  -4.1594  -3.8440  -3.8414  -3.7199  -3.6289
    -3.5403  -3.5277  -3.5168  -3.2532  -3.2020  -3.1184  -3.1013  -3.0806
    -3.0557  -2.7164  -2.6345  -2.6326  -2.6254  -2.5966  -2.5731  -2.5508
    -2.4855  -2.4754  -2.3838  -2.3680  -2.3513  -2.2808  -2.2765  -2.2625
    -2.2472  -2.2326  -2.2102  -2.1880  -2.0432  -2.0239  -1.9767  -1.9568
    -1.9217  -1.6573  -1.6541  -1.6267  -1.5826  -1.5698  -1.5295  -1.5167
    -1.3858  -1.3658  -1.3074  -1.2858  -1.2566  -1.2002  -1.1763  -0.9301
    -0.8270  -0.8257  -0.7982  -0.7976  -0.7760  -0.6945  -0.6938  -0.6756
    -0.6470  -0.6436  -0.6246  -0.5790  -0.5453  -0.5169  -0.4942  -0.4782
    -0.4159  -0.3895  -0.3762  -0.3275  -0.3218  -0.3201  -0.2764  -0.2080
    -0.2010  -0.1778  -0.1417  -0.0829  -0.0736  -0.0682  -0.0522  -0.0341
    -0.0158  -0.0141   0.0076   0.0316   0.0562   0.0616   0.0696   0.0703
     0.0914   0.1153   0.1278   0.1514   0.1691   0.2376   0.2479   0.2882
     0.3005   0.3213   0.3691   0.3723   0.3770   0.3822   0.3953   0.4529
     0.4592   0.4924   0.5305   0.6290   0.6678   0.8646   0.9124   0.9306
     0.9339   0.9523   0.9534   1.0045   1.0049   1.0896   1.1216   1.2429
     1.3058   1.3381   1.3631   1.3646   1.3721   1.3832   1.3972   1.4015
     1.4079   1.5111   1.5160   1.5732   1.5789   1.6418   1.6688   1.7888
     1.7947   1.7967   1.8236   1.8554   1.8827   1.9364   1.9365   1.9474
     2.0175   2.0246   2.0454   2.0487   2.0662   2.0691   2.0891   2.1534
     2.1737   2.2117   2.2204   2.3132   2.3446   2.3470   2.3842   2.4018
     2.4419   2.4450   2.4981   2.5069   2.5133   2.5287   2.5356   2.5424
     2.5649   2.5785   2.5954   2.6111   2.6178   2.6798   2.6903   2.8511
     2.8640   2.8669   2.8837   2.9020   2.9028   2.9251   2.9496   2.9554
     2.9620   2.9691   2.9798   2.9819   3.0782   3.1087   3.1088   3.1884
     3.4001   3.6928   3.7072   4.2269   4.2443   4.2860   4.3649   5.5518
     5.9035   5.9087   6.5520   6.5538   6.7444   6.7446   6.7956   7.7418
     7.7586   7.8051   7.8195   8.1585   8.5051   8.5061   8.6970   8.7256
     8.8194   8.9267   8.9531   9.2282   9.3657   9.3803   9.5856   9.6381
     9.8630  10.1317  10.2809  10.3819  10.4837  10.4979  10.6056  10.6715
    10.8036  10.8142  10.8441  10.8990  10.9073  11.0823  11.3034  11.3336

     occupation numbers 
     1.0000   1.0000   1.0000   1.0000   1.0000   1.0000   1.0000   1.0000
     1.0000   1.0000   1.0000   1.0000   1.0000   1.0000   1.0000   1.0000
     1.0000   1.0000   1.0000   1.0000   1.0000   1.0000   1.0000   1.0000
     1.0000   1.0000   1.0000   1.0000   1.0000   1.0000   1.0000   1.0000
     1.0000   1.0000   1.0000   1.0000   1.0000   1.0000   1.0000   1.0000
     1.0000   1.0000   1.0000   1.0000   1.0000   1.0000   1.0000   1.0000
     1.0000   1.0000   1.0000   1.0000   1.0000   1.0000   1.0000   1.0000
     1.0000   1.0000   1.0000   1.0000   1.0000   1.0000   1.0000   1.0000
     1.0000   1.0000   1.0000   1.0000   1.0000   1.0000   1.0000   1.0000
     1.0000   1.0000   1.0000   1.0000   1.0000   1.0000   1.0000   1.0000
     1.0000   1.0000   1.0000   1.0000   1.0000   1.0000   1.0000   1.0000
     1.0000   1.0000   1.0000   1.0000   1.0000   1.0000   1.0000   1.0000
     1.0000   1.0000   1.0000   1.0000   1.0000   1.0000   1.0000   1.0000
     1.0000   1.0000   1.0000   1.0000   1.0000   1.0000   1.0000   1.0000
     1.0000   1.0000   1.0000   1.0000   1.0000   1.0000   1.0000   1.0000
     1.0000   1.0000   1.0000   1.0000   1.0000   1.0000   1.0000   1.0000
     1.0000   1.0000   1.0000   1.0000   1.0000   1.0000   1.0000   1.0000
     1.0000   1.0000   1.0000   1.0000   1.0000   1.0000   1.0000   1.0000
     1.0000   1.0000   1.0000   1.0000   1.0000   1.0000   1.0000   1.0000
     1.0000   1.0000   1.0000   1.0000   1.0000   1.0000   1.0000   1.0000
     1.0000   1.0000   1.0000   1.0000   1.0000   1.0000   1.0000   1.0000
     1.0000   1.0000   1.0000   1.0000   1.0000   1.0000   1.0000   1.0000
     1.0000   1.0000   1.0000   1.0000   1.0000   1.0000   1.0000   1.0000
     1.0000   1.0000   1.0000   1.0000   1.0000   1.0000   1.0000   1.0000
     1.0000   1.0000   1.0000   1.0000   1.0000   1.0000   1.0000   1.0000
     1.0000   1.0000   1.0000   1.0000   1.0000   1.0000   1.0000   1.0000
     1.0000   1.0000   1.0000   1.0000   1.0000   1.0000   1.0000   1.0000
     1.0000   1.0000   1.0000   1.0000   1.0000   1.0000   1.0000   1.0000
     1.0000   1.0000   1.0000   1.0000   1.0000   1.0000   1.0000   1.0000
     1.0000   1.0000   1.0000   1.0000   1.0000   1.0000   1.0000   1.0000
     1.0000   1.0000   1.0000   1.0000   1.0000   1.0000   1.0000   1.0000
     1.0000   1.0000   1.0000   1.0000   1.0000   1.0000   1.0000   1.0000
     1.0000   1.0000   1.0000   1.0000   1.0000   1.0000   1.0000   1.0000
     1.0000   1.0000   1.0000   1.0000   1.0000   1.0000   1.0000   1.0000
     1.0000   1.0000   1.0000   1.0000   1.0000   1.0000   1.0000   1.0000
     1.0000   1.0000   1.0000   1.0000   1.0000   1.0000   1.0000   1.0000
     1.0000   1.0000   1.0000   1.0000   1.0000   1.0000   1.0000   1.0000
     1.0000   1.0000   1.0000   1.0000   1.0000   1.0000   1.0000   1.0000
     1.0000   1.0000   1.0000   1.0000   1.0000   1.0000   1.0000   1.0000
     0.9999   0.9999   0.9997   0.9997   0.9996   0.9995   0.9994   0.9993
     0.9990   0.9987   0.9981   0.9974   0.9971   0.9899   0.9876   0.7619
     0.7121   0.7002   0.6252   0.5362   0.5324   0.4214   0.3087   0.2845
     0.2583   0.2322   0.1962   0.1896   0.0330   0.0182   0.0182   0.0037
     0.0001   0.0000   0.0000   0.0000   0.0000   0.0000   0.0000   0.0000
     0.0000   0.0000   0.0000   0.0000   0.0000   0.0000   0.0000   0.0000
     0.0000   0.0000   0.0000   0.0000   0.0000   0.0000   0.0000   0.0000
     0.0000   0.0000   0.0000   0.0000   0.0000   0.0000   0.0000   0.0000
     0.0000   0.0000   0.0000   0.0000   0.0000   0.0000   0.0000   0.0000
     0.0000   0.0000   0.0000   0.0000   0.0000   0.0000   0.0000   0.0000

          k = 0.0000 0.3849 0.0000 ( 88170 PWs)   bands (ev):

   -95.5552 -95.5507 -95.5443 -95.5442 -95.5432 -95.5392 -95.5362 -95.5361
   -95.5239 -95.5196 -95.5191 -95.5179 -95.5153 -95.5150 -95.5122 -95.5115
   -95.5096 -95.4084 -95.1539 -95.1475 -95.1471 -95.1141 -95.1070 -95.1052
   -95.1028 -95.0978 -95.0941 -95.0921 -95.0899 -95.0890 -95.0853 -95.0814
   -95.0809 -94.9135 -94.9110 -94.9092 -49.8594 -49.8393 -49.8331 -49.8278
   -49.8141 -49.8132 -49.8090 -49.8082 -49.7990 -49.7906 -49.7902 -49.7835
   -49.7688 -49.7571 -49.7406 -49.7395 -49.7152 -49.7120 -49.6962 -49.6934
   -49.6886 -49.6856 -49.6855 -49.6835 -49.6709 -49.6706 -49.6525 -49.6473
   -49.6439 -49.6382 -49.6308 -49.6285 -49.6281 -49.6219 -49.6156 -49.6155
   -49.6084 -49.6073 -49.6062 -49.6030 -49.5959 -49.5956 -49.5879 -49.5872
   -49.5822 -49.5759 -49.5730 -49.5665 -49.5635 -49.5516 -49.5385 -49.5153
   -49.4976 -49.4917 -49.4803 -49.4797 -49.4656 -49.4618 -49.4415 -49.4410
   -49.4375 -49.4369 -49.4332 -49.4331 -49.3930 -49.3741 -49.3664 -49.3662
   -49.3328 -49.3325 -49.3184 -49.3150 -49.3118 -49.2951 -49.2755 -49.2752
   -49.2727 -49.2637 -49.2620 -49.2486 -49.2480 -49.2253 -49.2212 -49.1991
   -49.1833 -49.1503 -49.1378 -49.1209 -49.1111 -49.0947 -49.0630 -49.0529
   -49.0524 -49.0346 -49.0331 -49.0255 -49.0233 -49.0218 -49.0195 -49.0172
   -49.0130 -49.0118 -49.0077 -49.0024 -49.0017 -48.8310 -48.8257 -48.8234
   -15.0035  -5.8079  -4.7471  -4.5126  -3.8898  -3.8889  -3.5958  -3.4833
    -3.4191  -3.3493  -3.2853  -3.2481  -3.2473  -3.0209  -2.9886  -2.9367
    -2.9305  -2.8308  -2.6929  -2.6380  -2.6002  -2.5991  -2.5626  -2.5573
    -2.5374  -2.5285  -2.4833  -2.4527  -2.3739  -2.3499  -2.3346  -2.3210
    -2.1182  -2.1150  -2.0733  -2.0596  -2.0329  -2.0299  -1.8362  -1.8306
    -1.7537  -1.7347  -1.7030  -1.6349  -1.5862  -1.5857  -1.5602  -1.5320
    -1.3974  -1.3922  -1.3352  -1.3096  -1.2940  -1.2891  -1.2011  -1.1720
    -1.1450  -1.0361  -0.9551  -0.9511  -0.9317  -0.8159  -0.7824  -0.7516
    -0.7486  -0.7145  -0.7086  -0.6887  -0.6245  -0.4930  -0.4785  -0.4665
    -0.4571  -0.4273  -0.4023  -0.3940  -0.3600  -0.3283  -0.3264  -0.2605
    -0.2604  -0.2426  -0.2283  -0.2093  -0.1999  -0.1952  -0.1889  -0.1464
    -0.1357  -0.1034  -0.0741  -0.0503  -0.0424  -0.0127   0.0451   0.0687
     0.0693   0.1032   0.1223   0.1255   0.1474   0.1542   0.1984   0.2603
     0.2635   0.2802   0.2860   0.3178   0.3824   0.4629   0.4686   0.5242
     0.5330   0.5778   0.5891   0.6729   0.7044   0.8486   0.8705   0.8718
     0.8968   0.8981   0.9158   0.9252   0.9450   0.9460   1.0301   1.0421
     1.0715   1.0729   1.1078   1.1538   1.2175   1.2564   1.2781   1.3112
     1.4434   1.4570   1.4784   1.4880   1.4978   1.5129   1.6643   1.7309
     1.7384   1.7578   1.7581   1.7938   1.8046   1.8368   1.8762   1.8917
     1.9501   1.9676   2.0127   2.0766   2.0902   2.0930   2.1057   2.1127
     2.1359   2.1567   2.3104   2.3502   2.3693   2.3987   2.4120   2.4150
     2.4396   2.5109   2.5285   2.5761   2.6178   2.6207   2.6310   2.6383
     2.7387   2.7611   2.7678   2.8180   2.8252   2.8527   2.8633   2.8797
     2.9046   2.9435   3.0365   3.0746   3.0933   3.0995   3.1146   3.1150
     3.2880   3.2999   3.3356   3.7011   3.7143   3.7847   3.7890   3.8040
     4.0764   4.1066   4.2561   4.9881   5.0347   5.1150   5.1391   5.2098
     5.7756   5.7783   5.8074   5.8128   6.5243   6.5485   7.0002   7.1862
     7.2660   7.2719   7.7201   7.7442   8.1975   8.2113   8.5362   8.5437
     8.5818   9.0217   9.0765   9.1400   9.1594   9.4343   9.4397   9.5400
     9.5455   9.7606   9.9106  10.0171  10.1275  10.1764  10.2484  10.2661
    10.4415  10.4848  10.6170  10.7201  11.0339  11.1225  11.1734  11.1938

     occupation numbers 
     1.0000   1.0000   1.0000   1.0000   1.0000   1.0000   1.0000   1.0000
     1.0000   1.0000   1.0000   1.0000   1.0000   1.0000   1.0000   1.0000
     1.0000   1.0000   1.0000   1.0000   1.0000   1.0000   1.0000   1.0000
     1.0000   1.0000   1.0000   1.0000   1.0000   1.0000   1.0000   1.0000
     1.0000   1.0000   1.0000   1.0000   1.0000   1.0000   1.0000   1.0000
     1.0000   1.0000   1.0000   1.0000   1.0000   1.0000   1.0000   1.0000
     1.0000   1.0000   1.0000   1.0000   1.0000   1.0000   1.0000   1.0000
     1.0000   1.0000   1.0000   1.0000   1.0000   1.0000   1.0000   1.0000
     1.0000   1.0000   1.0000   1.0000   1.0000   1.0000   1.0000   1.0000
     1.0000   1.0000   1.0000   1.0000   1.0000   1.0000   1.0000   1.0000
     1.0000   1.0000   1.0000   1.0000   1.0000   1.0000   1.0000   1.0000
     1.0000   1.0000   1.0000   1.0000   1.0000   1.0000   1.0000   1.0000
     1.0000   1.0000   1.0000   1.0000   1.0000   1.0000   1.0000   1.0000
     1.0000   1.0000   1.0000   1.0000   1.0000   1.0000   1.0000   1.0000
     1.0000   1.0000   1.0000   1.0000   1.0000   1.0000   1.0000   1.0000
     1.0000   1.0000   1.0000   1.0000   1.0000   1.0000   1.0000   1.0000
     1.0000   1.0000   1.0000   1.0000   1.0000   1.0000   1.0000   1.0000
     1.0000   1.0000   1.0000   1.0000   1.0000   1.0000   1.0000   1.0000
     1.0000   1.0000   1.0000   1.0000   1.0000   1.0000   1.0000   1.0000
     1.0000   1.0000   1.0000   1.0000   1.0000   1.0000   1.0000   1.0000
     1.0000   1.0000   1.0000   1.0000   1.0000   1.0000   1.0000   1.0000
     1.0000   1.0000   1.0000   1.0000   1.0000   1.0000   1.0000   1.0000
     1.0000   1.0000   1.0000   1.0000   1.0000   1.0000   1.0000   1.0000
     1.0000   1.0000   1.0000   1.0000   1.0000   1.0000   1.0000   1.0000
     1.0000   1.0000   1.0000   1.0000   1.0000   1.0000   1.0000   1.0000
     1.0000   1.0000   1.0000   1.0000   1.0000   1.0000   1.0000   1.0000
     1.0000   1.0000   1.0000   1.0000   1.0000   1.0000   1.0000   1.0000
     1.0000   1.0000   1.0000   1.0000   1.0000   1.0000   1.0000   1.0000
     1.0000   1.0000   1.0000   1.0000   1.0000   1.0000   1.0000   1.0000
     1.0000   1.0000   1.0000   1.0000   1.0000   1.0000   1.0000   1.0000
     1.0000   1.0000   1.0000   1.0000   1.0000   1.0000   1.0000   1.0000
     1.0000   1.0000   1.0000   1.0000   1.0000   1.0000   1.0000   1.0000
     1.0000   1.0000   1.0000   1.0000   1.0000   1.0000   1.0000   1.0000
     1.0000   1.0000   1.0000   1.0000   1.0000   1.0000   1.0000   1.0000
     1.0000   1.0000   1.0000   1.0000   1.0000   1.0000   1.0000   1.0000
     1.0000   1.0000   1.0000   1.0000   1.0000   1.0000   1.0000   1.0000
     1.0000   1.0000   1.0000   1.0000   1.0000   1.0000   1.0000   1.0000
     1.0000   1.0000   1.0000   1.0000   1.0000   1.0000   1.0000   1.0000
     1.0000   1.0000   1.0000   1.0000   1.0000   1.0000   1.0000   0.9999
     0.9999   0.9997   0.9995   0.9987   0.9971   0.9969   0.9962   0.9956
     0.9680   0.9509   0.9443   0.8612   0.8431   0.7560   0.7149   0.6436
     0.5232   0.3355   0.0728   0.0353   0.0246   0.0218   0.0162   0.0161
     0.0005   0.0004   0.0002   0.0000   0.0000   0.0000   0.0000   0.0000
     0.0000   0.0000   0.0000   0.0000   0.0000   0.0000   0.0000   0.0000
     0.0000   0.0000   0.0000   0.0000   0.0000   0.0000   0.0000   0.0000
     0.0000   0.0000   0.0000   0.0000   0.0000   0.0000   0.0000   0.0000
     0.0000   0.0000   0.0000   0.0000   0.0000   0.0000   0.0000   0.0000
     0.0000   0.0000   0.0000   0.0000   0.0000   0.0000   0.0000   0.0000
     0.0000   0.0000   0.0000   0.0000   0.0000   0.0000   0.0000   0.0000

          k = 0.0000-0.5774 0.0000 ( 88178 PWs)   bands (ev):

   -95.5544 -95.5515 -95.5444 -95.5443 -95.5431 -95.5393 -95.5361 -95.5359
   -95.5239 -95.5197 -95.5192 -95.5179 -95.5153 -95.5151 -95.5121 -95.5108
   -95.5102 -95.4084 -95.1538 -95.1475 -95.1472 -95.1141 -95.1070 -95.1052
   -95.1014 -95.0995 -95.0943 -95.0923 -95.0896 -95.0888 -95.0851 -95.0815
   -95.0809 -94.9135 -94.9110 -94.9092 -49.8676 -49.8457 -49.8376 -49.8324
   -49.8189 -49.8162 -49.8135 -49.8124 -49.7966 -49.7942 -49.7922 -49.7903
   -49.7675 -49.7570 -49.7304 -49.7296 -49.6982 -49.6968 -49.6904 -49.6903
   -49.6879 -49.6811 -49.6782 -49.6744 -49.6697 -49.6600 -49.6554 -49.6460
   -49.6410 -49.6362 -49.6341 -49.6295 -49.6277 -49.6191 -49.6188 -49.6144
   -49.6096 -49.6087 -49.6045 -49.6020 -49.5974 -49.5952 -49.5917 -49.5905
   -49.5861 -49.5797 -49.5794 -49.5747 -49.5705 -49.5551 -49.5363 -49.5240
   -49.4994 -49.4974 -49.4837 -49.4804 -49.4730 -49.4627 -49.4436 -49.4434
   -49.4416 -49.4407 -49.4386 -49.4383 -49.3845 -49.3587 -49.3583 -49.3541
   -49.3225 -49.3172 -49.3033 -49.3031 -49.3004 -49.3000 -49.2988 -49.2713
   -49.2659 -49.2643 -49.2639 -49.2632 -49.2507 -49.2505 -49.2105 -49.2076
   -49.1777 -49.1469 -49.1339 -49.1241 -49.1234 -49.0964 -49.0625 -49.0535
   -49.0523 -49.0341 -49.0310 -49.0284 -49.0233 -49.0218 -49.0198 -49.0176
   -49.0123 -49.0113 -49.0073 -49.0026 -49.0018 -48.8310 -48.8257 -48.8233
   -15.0035  -5.3559  -5.3083  -4.1069  -4.0465  -3.8998  -3.8877  -3.4796
    -3.3194  -3.0423  -3.0136  -2.9784  -2.9663  -2.9493  -2.9390  -2.9305
    -2.9090  -2.8908  -2.8707  -2.8209  -2.7795  -2.7632  -2.7312  -2.7254
    -2.6269  -2.5388  -2.4042  -2.4024  -2.3659  -2.3634  -2.1408  -2.1372
    -2.1132  -2.0839  -2.0582  -2.0493  -1.9834  -1.9788  -1.8438  -1.8337
    -1.7613  -1.7489  -1.7448  -1.6664  -1.6601  -1.5335  -1.5322  -1.4981
    -1.4725  -1.4104  -1.3791  -1.2728  -1.2722  -1.2578  -1.1998  -1.1501
    -1.1414  -1.1147  -1.1105  -1.0054  -0.9920  -0.9320  -0.8912  -0.8664
    -0.8221  -0.8041  -0.6940  -0.6526  -0.6485  -0.6412  -0.6061  -0.5974
    -0.5923  -0.5835  -0.5452  -0.3752  -0.3536  -0.3321  -0.3298  -0.3269
    -0.3254  -0.2951  -0.2805  -0.2784  -0.2432  -0.2265  -0.1573  -0.1548
    -0.1118  -0.1064  -0.0946  -0.0640   0.0014   0.0460   0.0598   0.0687
     0.0700   0.1157   0.1358   0.1471   0.1537   0.1645   0.1681   0.1880
     0.2183   0.2505   0.2735   0.3969   0.4171   0.4239   0.5109   0.5934
     0.6466   0.6999   0.7194   0.7383   0.7468   0.8135   0.8323   0.8422
     0.8565   0.8618   0.8665   0.8882   0.9003   0.9333   0.9484   0.9812
     1.0333   1.0346   1.0567   1.0606   1.1153   1.1721   1.1994   1.2155
     1.2503   1.2755   1.4181   1.4385   1.5740   1.6256   1.6389   1.6454
     1.6457   1.6778   1.7752   1.8018   1.8759   1.8835   1.8962   1.9004
     1.9121   1.9320   2.0026   2.0155   2.0369   2.0374   2.0547   2.1386
     2.1583   2.2129   2.2506   2.2953   2.3771   2.4255   2.4258   2.4349
     2.5242   2.5402   2.6166   2.6178   2.6291   2.6355   2.6897   2.6923
     2.7105   2.7233   2.7326   2.7786   2.9002   2.9113   2.9117   2.9293
     2.9337   2.9406   2.9947   3.1638   3.1887   3.1938   3.2033   3.2065
     3.4124   3.4498   3.7133   3.7270   3.9131   4.3863   4.4352   4.7740
     4.7764   4.7794   4.7845   5.2502   5.2607   5.2732   5.2908   5.3128
     5.5914   5.7741   5.7800   5.8951   6.1661   6.1955   6.3297   6.3526
     6.3665   6.4089   8.2419   8.2451   8.2772   8.3003   8.5089   8.5383
     8.6307   8.7855   8.8126   8.8288   8.8573   8.8830   9.3241   9.3276
     9.3632   9.7504   9.7561   9.8205   9.8713  10.2398  10.3397  10.3816
    10.4341  10.6053  10.7832  10.8482  10.8820  10.8822  10.9907  10.9918

     occupation numbers 
     1.0000   1.0000   1.0000   1.0000   1.0000   1.0000   1.0000   1.0000
     1.0000   1.0000   1.0000   1.0000   1.0000   1.0000   1.0000   1.0000
     1.0000   1.0000   1.0000   1.0000   1.0000   1.0000   1.0000   1.0000
     1.0000   1.0000   1.0000   1.0000   1.0000   1.0000   1.0000   1.0000
     1.0000   1.0000   1.0000   1.0000   1.0000   1.0000   1.0000   1.0000
     1.0000   1.0000   1.0000   1.0000   1.0000   1.0000   1.0000   1.0000
     1.0000   1.0000   1.0000   1.0000   1.0000   1.0000   1.0000   1.0000
     1.0000   1.0000   1.0000   1.0000   1.0000   1.0000   1.0000   1.0000
     1.0000   1.0000   1.0000   1.0000   1.0000   1.0000   1.0000   1.0000
     1.0000   1.0000   1.0000   1.0000   1.0000   1.0000   1.0000   1.0000
     1.0000   1.0000   1.0000   1.0000   1.0000   1.0000   1.0000   1.0000
     1.0000   1.0000   1.0000   1.0000   1.0000   1.0000   1.0000   1.0000
     1.0000   1.0000   1.0000   1.0000   1.0000   1.0000   1.0000   1.0000
     1.0000   1.0000   1.0000   1.0000   1.0000   1.0000   1.0000   1.0000
     1.0000   1.0000   1.0000   1.0000   1.0000   1.0000   1.0000   1.0000
     1.0000   1.0000   1.0000   1.0000   1.0000   1.0000   1.0000   1.0000
     1.0000   1.0000   1.0000   1.0000   1.0000   1.0000   1.0000   1.0000
     1.0000   1.0000   1.0000   1.0000   1.0000   1.0000   1.0000   1.0000
     1.0000   1.0000   1.0000   1.0000   1.0000   1.0000   1.0000   1.0000
     1.0000   1.0000   1.0000   1.0000   1.0000   1.0000   1.0000   1.0000
     1.0000   1.0000   1.0000   1.0000   1.0000   1.0000   1.0000   1.0000
     1.0000   1.0000   1.0000   1.0000   1.0000   1.0000   1.0000   1.0000
     1.0000   1.0000   1.0000   1.0000   1.0000   1.0000   1.0000   1.0000
     1.0000   1.0000   1.0000   1.0000   1.0000   1.0000   1.0000   1.0000
     1.0000   1.0000   1.0000   1.0000   1.0000   1.0000   1.0000   1.0000
     1.0000   1.0000   1.0000   1.0000   1.0000   1.0000   1.0000   1.0000
     1.0000   1.0000   1.0000   1.0000   1.0000   1.0000   1.0000   1.0000
     1.0000   1.0000   1.0000   1.0000   1.0000   1.0000   1.0000   1.0000
     1.0000   1.0000   1.0000   1.0000   1.0000   1.0000   1.0000   1.0000
     1.0000   1.0000   1.0000   1.0000   1.0000   1.0000   1.0000   1.0000
     1.0000   1.0000   1.0000   1.0000   1.0000   1.0000   1.0000   1.0000
     1.0000   1.0000   1.0000   1.0000   1.0000   1.0000   1.0000   1.0000
     1.0000   1.0000   1.0000   1.0000   1.0000   1.0000   1.0000   1.0000
     1.0000   1.0000   1.0000   1.0000   1.0000   1.0000   1.0000   1.0000
     1.0000   1.0000   1.0000   1.0000   1.0000   1.0000   1.0000   1.0000
     1.0000   1.0000   1.0000   1.0000   1.0000   1.0000   1.0000   1.0000
     1.0000   1.0000   1.0000   1.0000   1.0000   1.0000   1.0000   1.0000
     1.0000   1.0000   1.0000   1.0000   1.0000   1.0000   1.0000   1.0000
     1.0000   1.0000   1.0000   1.0000   1.0000   0.9999   0.9999   0.9999
     0.9995   0.9994   0.9971   0.9971   0.9963   0.9958   0.9878   0.9871
     0.9816   0.9763   0.9717   0.9317   0.5453   0.4900   0.4877   0.4011
     0.3804   0.3483   0.1533   0.0061   0.0037   0.0034   0.0028   0.0026
     0.0000   0.0000   0.0000   0.0000   0.0000   0.0000   0.0000   0.0000
     0.0000   0.0000   0.0000   0.0000   0.0000   0.0000   0.0000   0.0000
     0.0000   0.0000   0.0000   0.0000   0.0000   0.0000   0.0000   0.0000
     0.0000   0.0000   0.0000   0.0000   0.0000   0.0000   0.0000   0.0000
     0.0000   0.0000   0.0000   0.0000   0.0000   0.0000   0.0000   0.0000
     0.0000   0.0000   0.0000   0.0000   0.0000   0.0000   0.0000   0.0000
     0.0000   0.0000   0.0000   0.0000   0.0000   0.0000   0.0000   0.0000

          k = 0.1667-0.0962 0.0000 ( 88230 PWs)   bands (ev):

   -95.5562 -95.5495 -95.5443 -95.5439 -95.5434 -95.5388 -95.5369 -95.5361
   -95.5239 -95.5192 -95.5189 -95.5179 -95.5151 -95.5151 -95.5126 -95.5124
   -95.5090 -95.4084 -95.1541 -95.1476 -95.1468 -95.1142 -95.1070 -95.1051
   -95.1041 -95.0955 -95.0939 -95.0921 -95.0901 -95.0897 -95.0859 -95.0812
   -95.0809 -94.9134 -94.9110 -94.9093 -49.8371 -49.8247 -49.8201 -49.8161
   -49.8065 -49.8021 -49.7997 -49.7971 -49.7949 -49.7823 -49.7802 -49.7786
   -49.7735 -49.7638 -49.7585 -49.7577 -49.7450 -49.7387 -49.7260 -49.7035
   -49.7032 -49.7021 -49.6974 -49.6921 -49.6773 -49.6772 -49.6701 -49.6416
   -49.6411 -49.6313 -49.6284 -49.6279 -49.6222 -49.6200 -49.6189 -49.6081
   -49.6067 -49.6055 -49.6038 -49.6027 -49.5975 -49.5948 -49.5933 -49.5775
   -49.5767 -49.5719 -49.5597 -49.5587 -49.5525 -49.5452 -49.5402 -49.4998
   -49.4950 -49.4808 -49.4736 -49.4712 -49.4596 -49.4426 -49.4384 -49.4352
   -49.4256 -49.4251 -49.4183 -49.4180 -49.4107 -49.4070 -49.3853 -49.3850
   -49.3651 -49.3643 -49.3605 -49.3212 -49.3187 -49.2884 -49.2683 -49.2649
   -49.2572 -49.2565 -49.2551 -49.2446 -49.2440 -49.2340 -49.1995 -49.1961
   -49.1930 -49.1474 -49.1430 -49.1169 -49.0960 -49.0915 -49.0639 -49.0528
   -49.0516 -49.0362 -49.0343 -49.0235 -49.0217 -49.0214 -49.0190 -49.0167
   -49.0139 -49.0130 -49.0089 -49.0018 -49.0015 -48.8309 -48.8257 -48.8235
   -15.0035  -6.1121  -4.8098  -4.1604  -3.8431  -3.8409  -3.7199  -3.6290
    -3.5408  -3.5271  -3.5168  -3.2527  -3.2015  -3.1192  -3.1015  -3.0811
    -3.0560  -2.7158  -2.6353  -2.6324  -2.6254  -2.5970  -2.5727  -2.5507
    -2.4853  -2.4749  -2.3842  -2.3693  -2.3510  -2.2806  -2.2760  -2.2629
    -2.2468  -2.2338  -2.2097  -2.1874  -2.0434  -2.0238  -1.9756  -1.9578
    -1.9208  -1.6574  -1.6539  -1.6267  -1.5824  -1.5697  -1.5292  -1.5171
    -1.3855  -1.3655  -1.3076  -1.2861  -1.2565  -1.1999  -1.1767  -0.9285
    -0.8271  -0.8246  -0.7972  -0.7956  -0.7754  -0.6978  -0.6937  -0.6747
    -0.6487  -0.6438  -0.6252  -0.5783  -0.5450  -0.5166  -0.4935  -0.4761
    -0.4161  -0.3919  -0.3784  -0.3297  -0.3230  -0.3198  -0.2771  -0.2059
    -0.1977  -0.1764  -0.1440  -0.0831  -0.0730  -0.0688  -0.0531  -0.0336
    -0.0148  -0.0138   0.0077   0.0316   0.0548   0.0616   0.0694   0.0705
     0.0903   0.1147   0.1292   0.1538   0.1688   0.2365   0.2465   0.2884
     0.3004   0.3211   0.3689   0.3711   0.3769   0.3820   0.3946   0.4530
     0.4592   0.4922   0.5306   0.6303   0.6694   0.8652   0.9131   0.9309
     0.9339   0.9508   0.9534   1.0038   1.0048   1.0891   1.1215   1.2421
     1.3044   1.3376   1.3637   1.3667   1.3722   1.3799   1.3965   1.4008
     1.4077   1.5116   1.5179   1.5723   1.5788   1.6418   1.6688   1.7882
     1.7952   1.7965   1.8241   1.8567   1.8829   1.9364   1.9371   1.9473
     2.0173   2.0240   2.0455   2.0486   2.0666   2.0693   2.0896   2.1528
     2.1738   2.2120   2.2212   2.3136   2.3448   2.3464   2.3838   2.4003
     2.4419   2.4448   2.4979   2.5051   2.5137   2.5288   2.5356   2.5429
     2.5642   2.5783   2.5956   2.6115   2.6184   2.6782   2.6886   2.8518
     2.8648   2.8672   2.8863   2.9014   2.9019   2.9257   2.9508   2.9559
     2.9619   2.9702   2.9805   2.9834   3.0785   3.1082   3.1091   3.1879
     3.3980   3.6946   3.7096   4.2263   4.2444   4.2850   4.3637   5.5497
     5.9055   5.9099   6.5520   6.5548   6.7441   6.7446   6.7940   7.7417
     7.7587   7.8044   7.8206   8.1542   8.5040   8.5074   8.6986   8.7288
     8.8194   8.9271   8.9536   9.2250   9.3676   9.3835   9.5855   9.6380
     9.8630  10.1307  10.2821  10.3821  10.4832  10.4971  10.6039  10.6709
    10.8024  10.8143  10.8437  10.8975  10.9062  11.0797  11.3041  11.3333

     occupation numbers 
     1.0000   1.0000   1.0000   1.0000   1.0000   1.0000   1.0000   1.0000
     1.0000   1.0000   1.0000   1.0000   1.0000   1.0000   1.0000   1.0000
     1.0000   1.0000   1.0000   1.0000   1.0000   1.0000   1.0000   1.0000
     1.0000   1.0000   1.0000   1.0000   1.0000   1.0000   1.0000   1.0000
     1.0000   1.0000   1.0000   1.0000   1.0000   1.0000   1.0000   1.0000
     1.0000   1.0000   1.0000   1.0000   1.0000   1.0000   1.0000   1.0000
     1.0000   1.0000   1.0000   1.0000   1.0000   1.0000   1.0000   1.0000
     1.0000   1.0000   1.0000   1.0000   1.0000   1.0000   1.0000   1.0000
     1.0000   1.0000   1.0000   1.0000   1.0000   1.0000   1.0000   1.0000
     1.0000   1.0000   1.0000   1.0000   1.0000   1.0000   1.0000   1.0000
     1.0000   1.0000   1.0000   1.0000   1.0000   1.0000   1.0000   1.0000
     1.0000   1.0000   1.0000   1.0000   1.0000   1.0000   1.0000   1.0000
     1.0000   1.0000   1.0000   1.0000   1.0000   1.0000   1.0000   1.0000
     1.0000   1.0000   1.0000   1.0000   1.0000   1.0000   1.0000   1.0000
     1.0000   1.0000   1.0000   1.0000   1.0000   1.0000   1.0000   1.0000
     1.0000   1.0000   1.0000   1.0000   1.0000   1.0000   1.0000   1.0000
     1.0000   1.0000   1.0000   1.0000   1.0000   1.0000   1.0000   1.0000
     1.0000   1.0000   1.0000   1.0000   1.0000   1.0000   1.0000   1.0000
     1.0000   1.0000   1.0000   1.0000   1.0000   1.0000   1.0000   1.0000
     1.0000   1.0000   1.0000   1.0000   1.0000   1.0000   1.0000   1.0000
     1.0000   1.0000   1.0000   1.0000   1.0000   1.0000   1.0000   1.0000
     1.0000   1.0000   1.0000   1.0000   1.0000   1.0000   1.0000   1.0000
     1.0000   1.0000   1.0000   1.0000   1.0000   1.0000   1.0000   1.0000
     1.0000   1.0000   1.0000   1.0000   1.0000   1.0000   1.0000   1.0000
     1.0000   1.0000   1.0000   1.0000   1.0000   1.0000   1.0000   1.0000
     1.0000   1.0000   1.0000   1.0000   1.0000   1.0000   1.0000   1.0000
     1.0000   1.0000   1.0000   1.0000   1.0000   1.0000   1.0000   1.0000
     1.0000   1.0000   1.0000   1.0000   1.0000   1.0000   1.0000   1.0000
     1.0000   1.0000   1.0000   1.0000   1.0000   1.0000   1.0000   1.0000
     1.0000   1.0000   1.0000   1.0000   1.0000   1.0000   1.0000   1.0000
     1.0000   1.0000   1.0000   1.0000   1.0000   1.0000   1.0000   1.0000
     1.0000   1.0000   1.0000   1.0000   1.0000   1.0000   1.0000   1.0000
     1.0000   1.0000   1.0000   1.0000   1.0000   1.0000   1.0000   1.0000
     1.0000   1.0000   1.0000   1.0000   1.0000   1.0000   1.0000   1.0000
     1.0000   1.0000   1.0000   1.0000   1.0000   1.0000   1.0000   1.0000
     1.0000   1.0000   1.0000   1.0000   1.0000   1.0000   1.0000   1.0000
     1.0000   1.0000   1.0000   1.0000   1.0000   1.0000   1.0000   1.0000
     1.0000   1.0000   1.0000   1.0000   1.0000   1.0000   1.0000   1.0000
     1.0000   1.0000   1.0000   1.0000   1.0000   1.0000   1.0000   1.0000
     0.9999   0.9999   0.9997   0.9997   0.9996   0.9995   0.9994   0.9993
     0.9990   0.9987   0.9981   0.9974   0.9970   0.9903   0.9880   0.7593
     0.7089   0.6990   0.6127   0.5393   0.5370   0.4186   0.3037   0.2826
     0.2589   0.2284   0.1939   0.1851   0.0328   0.0184   0.0180   0.0038
     0.0001   0.0000   0.0000   0.0000   0.0000   0.0000   0.0000   0.0000
     0.0000   0.0000   0.0000   0.0000   0.0000   0.0000   0.0000   0.0000
     0.0000   0.0000   0.0000   0.0000   0.0000   0.0000   0.0000   0.0000
     0.0000   0.0000   0.0000   0.0000   0.0000   0.0000   0.0000   0.0000
     0.0000   0.0000   0.0000   0.0000   0.0000   0.0000   0.0000   0.0000
     0.0000   0.0000   0.0000   0.0000   0.0000   0.0000   0.0000   0.0000

          k = 0.1667 0.0962 0.0000 ( 88230 PWs)   bands (ev):

   -95.5562 -95.5495 -95.5443 -95.5439 -95.5434 -95.5388 -95.5369 -95.5361
   -95.5239 -95.5192 -95.5190 -95.5179 -95.5151 -95.5151 -95.5125 -95.5124
   -95.5090 -95.4084 -95.1541 -95.1476 -95.1468 -95.1142 -95.1070 -95.1051
   -95.1041 -95.0955 -95.0939 -95.0921 -95.0901 -95.0897 -95.0859 -95.0812
   -95.0809 -94.9134 -94.9110 -94.9093 -49.8371 -49.8247 -49.8201 -49.8161
   -49.8065 -49.8022 -49.7996 -49.7971 -49.7949 -49.7823 -49.7803 -49.7785
   -49.7735 -49.7638 -49.7585 -49.7577 -49.7450 -49.7387 -49.7260 -49.7035
   -49.7032 -49.7021 -49.6974 -49.6921 -49.6773 -49.6772 -49.6701 -49.6416
   -49.6411 -49.6313 -49.6284 -49.6279 -49.6222 -49.6200 -49.6189 -49.6081
   -49.6067 -49.6055 -49.6038 -49.6026 -49.5975 -49.5948 -49.5933 -49.5775
   -49.5767 -49.5719 -49.5597 -49.5587 -49.5525 -49.5452 -49.5402 -49.4998
   -49.4950 -49.4808 -49.4736 -49.4713 -49.4596 -49.4426 -49.4384 -49.4352
   -49.4256 -49.4251 -49.4183 -49.4180 -49.4107 -49.4070 -49.3853 -49.3850
   -49.3651 -49.3643 -49.3605 -49.3212 -49.3187 -49.2884 -49.2683 -49.2649
   -49.2573 -49.2565 -49.2551 -49.2446 -49.2440 -49.2340 -49.1995 -49.1961
   -49.1930 -49.1474 -49.1430 -49.1169 -49.0960 -49.0915 -49.0639 -49.0528
   -49.0516 -49.0362 -49.0343 -49.0235 -49.0217 -49.0214 -49.0190 -49.0167
   -49.0139 -49.0130 -49.0089 -49.0018 -49.0015 -48.8309 -48.8257 -48.8235
   -15.0035  -6.1121  -4.8098  -4.1605  -3.8431  -3.8409  -3.7199  -3.6290
    -3.5409  -3.5271  -3.5168  -3.2527  -3.2015  -3.1192  -3.1015  -3.0811
    -3.0560  -2.7158  -2.6353  -2.6324  -2.6254  -2.5971  -2.5727  -2.5506
    -2.4853  -2.4749  -2.3842  -2.3693  -2.3510  -2.2806  -2.2760  -2.2629
    -2.2468  -2.2338  -2.2097  -2.1874  -2.0435  -2.0238  -1.9756  -1.9578
    -1.9208  -1.6574  -1.6539  -1.6267  -1.5824  -1.5697  -1.5293  -1.5171
    -1.3855  -1.3655  -1.3076  -1.2861  -1.2565  -1.1999  -1.1767  -0.9285
    -0.8271  -0.8246  -0.7971  -0.7955  -0.7754  -0.6978  -0.6938  -0.6747
    -0.6487  -0.6438  -0.6252  -0.5783  -0.5450  -0.5165  -0.4935  -0.4760
    -0.4161  -0.3919  -0.3785  -0.3297  -0.3230  -0.3198  -0.2771  -0.2058
    -0.1977  -0.1764  -0.1440  -0.0831  -0.0729  -0.0688  -0.0531  -0.0336
    -0.0147  -0.0138   0.0078   0.0316   0.0547   0.0617   0.0691   0.0707
     0.0902   0.1147   0.1293   0.1538   0.1688   0.2365   0.2465   0.2884
     0.3004   0.3211   0.3689   0.3710   0.3769   0.3820   0.3946   0.4530
     0.4592   0.4922   0.5305   0.6304   0.6694   0.8652   0.9131   0.9309
     0.9339   0.9508   0.9533   1.0038   1.0048   1.0890   1.1215   1.2421
     1.3043   1.3376   1.3637   1.3668   1.3722   1.3798   1.3965   1.4008
     1.4077   1.5117   1.5180   1.5722   1.5788   1.6418   1.6688   1.7882
     1.7952   1.7965   1.8241   1.8568   1.8829   1.9364   1.9371   1.9473
     2.0173   2.0240   2.0454   2.0486   2.0666   2.0693   2.0896   2.1528
     2.1738   2.2120   2.2212   2.3136   2.3448   2.3463   2.3838   2.4003
     2.4419   2.4448   2.4979   2.5051   2.5137   2.5288   2.5356   2.5429
     2.5642   2.5783   2.5956   2.6115   2.6184   2.6781   2.6885   2.8518
     2.8648   2.8672   2.8864   2.9014   2.9019   2.9257   2.9508   2.9559
     2.9619   2.9702   2.9805   2.9834   3.0785   3.1082   3.1091   3.1879
     3.3979   3.6946   3.7097   4.2263   4.2444   4.2850   4.3637   5.5496
     5.9056   5.9099   6.5520   6.5548   6.7441   6.7446   6.7940   7.7417
     7.7587   7.8043   7.8206   8.1541   8.5041   8.5073   8.6986   8.7288
     8.8194   8.9271   8.9536   9.2249   9.3676   9.3835   9.5855   9.6380
     9.8630  10.1307  10.2821  10.3821  10.4832  10.4971  10.6039  10.6708
    10.8024  10.8143  10.8438  10.8975  10.9061  11.0796  11.3041  11.3333

     occupation numbers 
     1.0000   1.0000   1.0000   1.0000   1.0000   1.0000   1.0000   1.0000
     1.0000   1.0000   1.0000   1.0000   1.0000   1.0000   1.0000   1.0000
     1.0000   1.0000   1.0000   1.0000   1.0000   1.0000   1.0000   1.0000
     1.0000   1.0000   1.0000   1.0000   1.0000   1.0000   1.0000   1.0000
     1.0000   1.0000   1.0000   1.0000   1.0000   1.0000   1.0000   1.0000
     1.0000   1.0000   1.0000   1.0000   1.0000   1.0000   1.0000   1.0000
     1.0000   1.0000   1.0000   1.0000   1.0000   1.0000   1.0000   1.0000
     1.0000   1.0000   1.0000   1.0000   1.0000   1.0000   1.0000   1.0000
     1.0000   1.0000   1.0000   1.0000   1.0000   1.0000   1.0000   1.0000
     1.0000   1.0000   1.0000   1.0000   1.0000   1.0000   1.0000   1.0000
     1.0000   1.0000   1.0000   1.0000   1.0000   1.0000   1.0000   1.0000
     1.0000   1.0000   1.0000   1.0000   1.0000   1.0000   1.0000   1.0000
     1.0000   1.0000   1.0000   1.0000   1.0000   1.0000   1.0000   1.0000
     1.0000   1.0000   1.0000   1.0000   1.0000   1.0000   1.0000   1.0000
     1.0000   1.0000   1.0000   1.0000   1.0000   1.0000   1.0000   1.0000
     1.0000   1.0000   1.0000   1.0000   1.0000   1.0000   1.0000   1.0000
     1.0000   1.0000   1.0000   1.0000   1.0000   1.0000   1.0000   1.0000
     1.0000   1.0000   1.0000   1.0000   1.0000   1.0000   1.0000   1.0000
     1.0000   1.0000   1.0000   1.0000   1.0000   1.0000   1.0000   1.0000
     1.0000   1.0000   1.0000   1.0000   1.0000   1.0000   1.0000   1.0000
     1.0000   1.0000   1.0000   1.0000   1.0000   1.0000   1.0000   1.0000
     1.0000   1.0000   1.0000   1.0000   1.0000   1.0000   1.0000   1.0000
     1.0000   1.0000   1.0000   1.0000   1.0000   1.0000   1.0000   1.0000
     1.0000   1.0000   1.0000   1.0000   1.0000   1.0000   1.0000   1.0000
     1.0000   1.0000   1.0000   1.0000   1.0000   1.0000   1.0000   1.0000
     1.0000   1.0000   1.0000   1.0000   1.0000   1.0000   1.0000   1.0000
     1.0000   1.0000   1.0000   1.0000   1.0000   1.0000   1.0000   1.0000
     1.0000   1.0000   1.0000   1.0000   1.0000   1.0000   1.0000   1.0000
     1.0000   1.0000   1.0000   1.0000   1.0000   1.0000   1.0000   1.0000
     1.0000   1.0000   1.0000   1.0000   1.0000   1.0000   1.0000   1.0000
     1.0000   1.0000   1.0000   1.0000   1.0000   1.0000   1.0000   1.0000
     1.0000   1.0000   1.0000   1.0000   1.0000   1.0000   1.0000   1.0000
     1.0000   1.0000   1.0000   1.0000   1.0000   1.0000   1.0000   1.0000
     1.0000   1.0000   1.0000   1.0000   1.0000   1.0000   1.0000   1.0000
     1.0000   1.0000   1.0000   1.0000   1.0000   1.0000   1.0000   1.0000
     1.0000   1.0000   1.0000   1.0000   1.0000   1.0000   1.0000   1.0000
     1.0000   1.0000   1.0000   1.0000   1.0000   1.0000   1.0000   1.0000
     1.0000   1.0000   1.0000   1.0000   1.0000   1.0000   1.0000   1.0000
     1.0000   1.0000   1.0000   1.0000   1.0000   1.0000   1.0000   1.0000
     0.9999   0.9999   0.9997   0.9997   0.9996   0.9995   0.9994   0.9993
     0.9990   0.9987   0.9981   0.9974   0.9970   0.9903   0.9881   0.7593
     0.7088   0.6990   0.6125   0.5393   0.5371   0.4186   0.3036   0.2826
     0.2589   0.2283   0.1939   0.1850   0.0328   0.0184   0.0180   0.0038
     0.0001   0.0000   0.0000   0.0000   0.0000   0.0000   0.0000   0.0000
     0.0000   0.0000   0.0000   0.0000   0.0000   0.0000   0.0000   0.0000
     0.0000   0.0000   0.0000   0.0000   0.0000   0.0000   0.0000   0.0000
     0.0000   0.0000   0.0000   0.0000   0.0000   0.0000   0.0000   0.0000
     0.0000   0.0000   0.0000   0.0000   0.0000   0.0000   0.0000   0.0000
     0.0000   0.0000   0.0000   0.0000   0.0000   0.0000   0.0000   0.0000

          k = 0.1667 0.2887 0.0000 ( 88188 PWs)   bands (ev):

   -95.5555 -95.5503 -95.5445 -95.5440 -95.5432 -95.5391 -95.5365 -95.5359
   -95.5239 -95.5195 -95.5191 -95.5178 -95.5154 -95.5149 -95.5121 -95.5119
   -95.5094 -95.4084 -95.1539 -95.1476 -95.1470 -95.1141 -95.1070 -95.1051
   -95.1032 -95.0970 -95.0946 -95.0914 -95.0902 -95.0892 -95.0854 -95.0814
   -95.0809 -94.9135 -94.9110 -94.9092 -49.8500 -49.8437 -49.8317 -49.8231
   -49.8183 -49.8109 -49.8032 -49.8004 -49.7941 -49.7875 -49.7840 -49.7793
   -49.7764 -49.7675 -49.7567 -49.7280 -49.7229 -49.7169 -49.7028 -49.6996
   -49.6952 -49.6911 -49.6886 -49.6825 -49.6731 -49.6633 -49.6586 -49.6463
   -49.6416 -49.6359 -49.6335 -49.6307 -49.6286 -49.6221 -49.6181 -49.6145
   -49.6102 -49.6071 -49.6032 -49.5998 -49.5956 -49.5911 -49.5893 -49.5846
   -49.5823 -49.5772 -49.5730 -49.5616 -49.5553 -49.5503 -49.5423 -49.5097
   -49.4978 -49.4870 -49.4821 -49.4741 -49.4687 -49.4550 -49.4527 -49.4395
   -49.4363 -49.4320 -49.4245 -49.4070 -49.4059 -49.4037 -49.3787 -49.3448
   -49.3401 -49.3385 -49.3368 -49.3199 -49.3129 -49.2927 -49.2734 -49.2659
   -49.2649 -49.2640 -49.2638 -49.2614 -49.2316 -49.2309 -49.2167 -49.1974
   -49.1861 -49.1511 -49.1385 -49.1204 -49.1053 -49.0947 -49.0633 -49.0531
   -49.0520 -49.0350 -49.0336 -49.0241 -49.0234 -49.0216 -49.0206 -49.0157
   -49.0138 -49.0122 -49.0079 -49.0022 -49.0016 -48.8310 -48.8257 -48.8234
   -15.0035  -5.9076  -4.6128  -4.3938  -4.3487  -3.5203  -3.4704  -3.4447
    -3.4306  -3.4279  -3.4142  -3.3533  -3.2787  -3.1832  -3.1680  -2.8914
    -2.8737  -2.7437  -2.7323  -2.5955  -2.5826  -2.5615  -2.5514  -2.5448
    -2.5207  -2.4692  -2.4531  -2.4207  -2.3719  -2.3616  -2.3266  -2.2689
    -2.2501  -2.2279  -2.1895  -2.1172  -2.0405  -1.9080  -1.8631  -1.8051
    -1.7860  -1.7329  -1.6838  -1.6527  -1.6382  -1.5956  -1.5551  -1.4676
    -1.4340  -1.3439  -1.3283  -1.3188  -1.2528  -1.2412  -1.2065  -1.1328
    -1.0864  -0.9226  -0.8877  -0.8601  -0.8491  -0.8379  -0.7820  -0.7557
    -0.7427  -0.7298  -0.6582  -0.6477  -0.5680  -0.5559  -0.5442  -0.5287
    -0.5212  -0.4075  -0.3830  -0.3533  -0.3389  -0.3169  -0.2727  -0.2267
    -0.2183  -0.1971  -0.1871  -0.1833  -0.1709  -0.1394  -0.1320  -0.1179
    -0.0580  -0.0525   0.0132   0.0270   0.0459   0.0613   0.0680   0.0688
     0.0836   0.1106   0.1151   0.1588   0.1744   0.1808   0.1931   0.2150
     0.2364   0.2514   0.2603   0.3223   0.3347   0.3482   0.3785   0.4689
     0.4980   0.5131   0.5277   0.5823   0.5904   0.7479   0.8279   0.8469
     0.8571   0.9057   0.9256   0.9691   0.9958   1.0121   1.0280   1.0369
     1.0551   1.1517   1.1640   1.2507   1.3311   1.3890   1.3939   1.4326
     1.4553   1.4940   1.5195   1.5371   1.5476   1.6720   1.7105   1.7134
     1.7327   1.7588   1.7680   1.8172   1.8260   1.8537   1.8615   1.8952
     1.9170   1.9586   1.9695   1.9811   1.9982   2.0052   2.0463   2.0937
     2.1178   2.1528   2.3110   2.3569   2.3755   2.4507   2.4753   2.4985
     2.5121   2.5794   2.5989   2.6040   2.6132   2.6302   2.6620   2.6683
     2.7032   2.7158   2.7185   2.8268   2.8392   2.8472   2.8640   2.8881
     2.8940   2.9043   2.9157   2.9643   3.0743   3.0888   3.0959   3.1539
     3.1706   3.1896   3.2214   3.3098   3.3285   3.5528   3.5578   3.6404
     3.9715   3.9810   4.2729   4.2972   4.9210   4.9840   5.0007   5.3374
     5.3436   5.7758   6.4492   6.4691   6.5802   6.7675   6.9401   7.2099
     7.2388   7.6466   7.7675   7.7833   7.8274   7.9594   8.7892   8.8061
     8.8947   8.9525   8.9579   9.1760   9.2288   9.3732   9.4541   9.5960
     9.6193   9.6421   9.9600  10.0517  10.0603  10.3940  10.4209  10.4893
    10.5066  10.5367  10.5602  10.9223  11.0450  11.0555  11.0916  11.1266

     occupation numbers 
     1.0000   1.0000   1.0000   1.0000   1.0000   1.0000   1.0000   1.0000
     1.0000   1.0000   1.0000   1.0000   1.0000   1.0000   1.0000   1.0000
     1.0000   1.0000   1.0000   1.0000   1.0000   1.0000   1.0000   1.0000
     1.0000   1.0000   1.0000   1.0000   1.0000   1.0000   1.0000   1.0000
     1.0000   1.0000   1.0000   1.0000   1.0000   1.0000   1.0000   1.0000
     1.0000   1.0000   1.0000   1.0000   1.0000   1.0000   1.0000   1.0000
     1.0000   1.0000   1.0000   1.0000   1.0000   1.0000   1.0000   1.0000
     1.0000   1.0000   1.0000   1.0000   1.0000   1.0000   1.0000   1.0000
     1.0000   1.0000   1.0000   1.0000   1.0000   1.0000   1.0000   1.0000
     1.0000   1.0000   1.0000   1.0000   1.0000   1.0000   1.0000   1.0000
     1.0000   1.0000   1.0000   1.0000   1.0000   1.0000   1.0000   1.0000
     1.0000   1.0000   1.0000   1.0000   1.0000   1.0000   1.0000   1.0000
     1.0000   1.0000   1.0000   1.0000   1.0000   1.0000   1.0000   1.0000
     1.0000   1.0000   1.0000   1.0000   1.0000   1.0000   1.0000   1.0000
     1.0000   1.0000   1.0000   1.0000   1.0000   1.0000   1.0000   1.0000
     1.0000   1.0000   1.0000   1.0000   1.0000   1.0000   1.0000   1.0000
     1.0000   1.0000   1.0000   1.0000   1.0000   1.0000   1.0000   1.0000
     1.0000   1.0000   1.0000   1.0000   1.0000   1.0000   1.0000   1.0000
     1.0000   1.0000   1.0000   1.0000   1.0000   1.0000   1.0000   1.0000
     1.0000   1.0000   1.0000   1.0000   1.0000   1.0000   1.0000   1.0000
     1.0000   1.0000   1.0000   1.0000   1.0000   1.0000   1.0000   1.0000
     1.0000   1.0000   1.0000   1.0000   1.0000   1.0000   1.0000   1.0000
     1.0000   1.0000   1.0000   1.0000   1.0000   1.0000   1.0000   1.0000
     1.0000   1.0000   1.0000   1.0000   1.0000   1.0000   1.0000   1.0000
     1.0000   1.0000   1.0000   1.0000   1.0000   1.0000   1.0000   1.0000
     1.0000   1.0000   1.0000   1.0000   1.0000   1.0000   1.0000   1.0000
     1.0000   1.0000   1.0000   1.0000   1.0000   1.0000   1.0000   1.0000
     1.0000   1.0000   1.0000   1.0000   1.0000   1.0000   1.0000   1.0000
     1.0000   1.0000   1.0000   1.0000   1.0000   1.0000   1.0000   1.0000
     1.0000   1.0000   1.0000   1.0000   1.0000   1.0000   1.0000   1.0000
     1.0000   1.0000   1.0000   1.0000   1.0000   1.0000   1.0000   1.0000
     1.0000   1.0000   1.0000   1.0000   1.0000   1.0000   1.0000   1.0000
     1.0000   1.0000   1.0000   1.0000   1.0000   1.0000   1.0000   1.0000
     1.0000   1.0000   1.0000   1.0000   1.0000   1.0000   1.0000   1.0000
     1.0000   1.0000   1.0000   1.0000   1.0000   1.0000   1.0000   1.0000
     1.0000   1.0000   1.0000   1.0000   1.0000   1.0000   1.0000   1.0000
     1.0000   1.0000   1.0000   1.0000   1.0000   1.0000   1.0000   1.0000
     1.0000   1.0000   1.0000   1.0000   1.0000   1.0000   1.0000   1.0000
     1.0000   1.0000   1.0000   1.0000   1.0000   0.9999   0.9998   0.9997
     0.9996   0.9986   0.9980   0.9978   0.9973   0.9962   0.9929   0.9920
     0.9840   0.9796   0.9784   0.8387   0.8025   0.7758   0.7121   0.6041
     0.5756   0.5249   0.4677   0.2498   0.0356   0.0269   0.0234   0.0075
     0.0053   0.0037   0.0019   0.0003   0.0002   0.0000   0.0000   0.0000
     0.0000   0.0000   0.0000   0.0000   0.0000   0.0000   0.0000   0.0000
     0.0000   0.0000   0.0000   0.0000   0.0000   0.0000   0.0000   0.0000
     0.0000   0.0000   0.0000   0.0000   0.0000   0.0000   0.0000   0.0000
     0.0000   0.0000   0.0000   0.0000   0.0000   0.0000   0.0000   0.0000
     0.0000   0.0000   0.0000   0.0000   0.0000   0.0000   0.0000   0.0000
     0.0000   0.0000   0.0000   0.0000   0.0000   0.0000   0.0000   0.0000

          k = 0.1667-0.6736 0.0000 ( 88140 PWs)   bands (ev):

   -95.5545 -95.5514 -95.5449 -95.5440 -95.5430 -95.5393 -95.5363 -95.5357
   -95.5238 -95.5196 -95.5193 -95.5178 -95.5157 -95.5148 -95.5118 -95.5112
   -95.5100 -95.4084 -95.1538 -95.1476 -95.1471 -95.1141 -95.1070 -95.1052
   -95.1016 -95.0990 -95.0953 -95.0911 -95.0897 -95.0890 -95.0851 -95.0816
   -95.0808 -94.9135 -94.9110 -94.9092 -49.8634 -49.8496 -49.8433 -49.8333
   -49.8237 -49.8176 -49.8098 -49.8016 -49.7956 -49.7905 -49.7879 -49.7841
   -49.7735 -49.7608 -49.7570 -49.7091 -49.7024 -49.6990 -49.6960 -49.6892
   -49.6862 -49.6808 -49.6749 -49.6677 -49.6620 -49.6593 -49.6530 -49.6479
   -49.6423 -49.6383 -49.6344 -49.6297 -49.6254 -49.6236 -49.6211 -49.6186
   -49.6146 -49.6083 -49.6044 -49.6033 -49.5985 -49.5938 -49.5896 -49.5871
   -49.5841 -49.5828 -49.5803 -49.5747 -49.5637 -49.5552 -49.5425 -49.5180
   -49.5020 -49.4949 -49.4861 -49.4783 -49.4721 -49.4684 -49.4567 -49.4506
   -49.4430 -49.4288 -49.4260 -49.4197 -49.3965 -49.3914 -49.3519 -49.3242
   -49.3238 -49.3167 -49.3114 -49.3090 -49.2964 -49.2913 -49.2882 -49.2832
   -49.2768 -49.2704 -49.2691 -49.2622 -49.2487 -49.2324 -49.2179 -49.2059
   -49.1751 -49.1511 -49.1364 -49.1256 -49.1152 -49.0988 -49.0625 -49.0536
   -49.0522 -49.0341 -49.0314 -49.0273 -49.0234 -49.0220 -49.0218 -49.0153
   -49.0127 -49.0117 -49.0073 -49.0027 -49.0017 -48.8310 -48.8257 -48.8234
   -15.0035  -5.5165  -4.9773  -4.4809  -4.2361  -3.7607  -3.4090  -3.3587
    -3.3476  -3.2429  -3.2049  -3.1439  -3.0908  -3.0290  -3.0176  -2.9011
    -2.8270  -2.8202  -2.7524  -2.7136  -2.6811  -2.6688  -2.6470  -2.6110
    -2.5563  -2.5196  -2.4600  -2.4439  -2.3847  -2.3423  -2.2911  -2.2282
    -2.2081  -2.1868  -2.1378  -2.1202  -2.0193  -1.9772  -1.8988  -1.8541
    -1.7172  -1.6604  -1.6416  -1.5743  -1.5564  -1.5465  -1.5309  -1.4521
    -1.4396  -1.3954  -1.3569  -1.3011  -1.2400  -1.2092  -1.1885  -1.1564
    -1.1366  -1.1110  -1.0609  -1.0333  -0.9937  -0.9464  -0.8874  -0.8640
    -0.8583  -0.8091  -0.7810  -0.6779  -0.6467  -0.6211  -0.5657  -0.5491
    -0.5423  -0.5171  -0.4858  -0.4695  -0.4336  -0.4075  -0.3750  -0.3581
    -0.2882  -0.2666  -0.2477  -0.2243  -0.2201  -0.1848  -0.1045  -0.0811
    -0.0617  -0.0502  -0.0308   0.0260   0.0327   0.0448   0.0585   0.0684
     0.0694   0.0828   0.0914   0.1072   0.1212   0.1424   0.1807   0.1892
     0.2070   0.2207   0.2548   0.2918   0.3191   0.3428   0.3813   0.4348
     0.4686   0.4906   0.5808   0.5973   0.6315   0.7291   0.8008   0.8296
     0.8598   0.8877   0.9109   0.9446   0.9682   0.9749   1.0353   1.0612
     1.0748   1.0953   1.1211   1.1603   1.1986   1.2079   1.2690   1.3078
     1.3467   1.4650   1.4862   1.5031   1.5330   1.5807   1.6196   1.6286
     1.6430   1.6708   1.6980   1.7100   1.7466   1.8144   1.8445   1.8754
     1.8876   1.8986   1.9197   1.9419   1.9557   2.0718   2.1051   2.1633
     2.2300   2.2495   2.3319   2.3611   2.3783   2.4396   2.4485   2.4734
     2.5636   2.6048   2.6351   2.6755   2.6907   2.7011   2.7050   2.7175
     2.7885   2.8138   2.8179   2.8568   2.8658   2.8902   2.9384   2.9498
     3.0161   3.0273   3.1019   3.1135   3.1504   3.1735   3.1931   3.2028
     3.2555   3.2797   3.3295   3.9274   4.1943   4.2127   4.2671   4.3339
     4.6197   4.7804   4.8408   5.1412   5.1884   5.2255   5.2667   5.3597
     5.6180   5.7468   5.8362   6.0670   6.3572   6.4337   6.4873   6.6206
     6.8088   7.0997   7.2813   7.5258   7.5851   7.6146   8.3427   8.5936
     8.6155   8.6752   8.8612   9.1016   9.1930   9.2180   9.4412   9.4807
     9.5867   9.7158   9.8296   9.9409  10.0712  10.0792  10.1736  10.4274
    10.5297  10.8198  10.8351  10.9223  10.9399  10.9926  11.1120  11.1317

     occupation numbers 
     1.0000   1.0000   1.0000   1.0000   1.0000   1.0000   1.0000   1.0000
     1.0000   1.0000   1.0000   1.0000   1.0000   1.0000   1.0000   1.0000
     1.0000   1.0000   1.0000   1.0000   1.0000   1.0000   1.0000   1.0000
     1.0000   1.0000   1.0000   1.0000   1.0000   1.0000   1.0000   1.0000
     1.0000   1.0000   1.0000   1.0000   1.0000   1.0000   1.0000   1.0000
     1.0000   1.0000   1.0000   1.0000   1.0000   1.0000   1.0000   1.0000
     1.0000   1.0000   1.0000   1.0000   1.0000   1.0000   1.0000   1.0000
     1.0000   1.0000   1.0000   1.0000   1.0000   1.0000   1.0000   1.0000
     1.0000   1.0000   1.0000   1.0000   1.0000   1.0000   1.0000   1.0000
     1.0000   1.0000   1.0000   1.0000   1.0000   1.0000   1.0000   1.0000
     1.0000   1.0000   1.0000   1.0000   1.0000   1.0000   1.0000   1.0000
     1.0000   1.0000   1.0000   1.0000   1.0000   1.0000   1.0000   1.0000
     1.0000   1.0000   1.0000   1.0000   1.0000   1.0000   1.0000   1.0000
     1.0000   1.0000   1.0000   1.0000   1.0000   1.0000   1.0000   1.0000
     1.0000   1.0000   1.0000   1.0000   1.0000   1.0000   1.0000   1.0000
     1.0000   1.0000   1.0000   1.0000   1.0000   1.0000   1.0000   1.0000
     1.0000   1.0000   1.0000   1.0000   1.0000   1.0000   1.0000   1.0000
     1.0000   1.0000   1.0000   1.0000   1.0000   1.0000   1.0000   1.0000
     1.0000   1.0000   1.0000   1.0000   1.0000   1.0000   1.0000   1.0000
     1.0000   1.0000   1.0000   1.0000   1.0000   1.0000   1.0000   1.0000
     1.0000   1.0000   1.0000   1.0000   1.0000   1.0000   1.0000   1.0000
     1.0000   1.0000   1.0000   1.0000   1.0000   1.0000   1.0000   1.0000
     1.0000   1.0000   1.0000   1.0000   1.0000   1.0000   1.0000   1.0000
     1.0000   1.0000   1.0000   1.0000   1.0000   1.0000   1.0000   1.0000
     1.0000   1.0000   1.0000   1.0000   1.0000   1.0000   1.0000   1.0000
     1.0000   1.0000   1.0000   1.0000   1.0000   1.0000   1.0000   1.0000
     1.0000   1.0000   1.0000   1.0000   1.0000   1.0000   1.0000   1.0000
     1.0000   1.0000   1.0000   1.0000   1.0000   1.0000   1.0000   1.0000
     1.0000   1.0000   1.0000   1.0000   1.0000   1.0000   1.0000   1.0000
     1.0000   1.0000   1.0000   1.0000   1.0000   1.0000   1.0000   1.0000
     1.0000   1.0000   1.0000   1.0000   1.0000   1.0000   1.0000   1.0000
     1.0000   1.0000   1.0000   1.0000   1.0000   1.0000   1.0000   1.0000
     1.0000   1.0000   1.0000   1.0000   1.0000   1.0000   1.0000   1.0000
     1.0000   1.0000   1.0000   1.0000   1.0000   1.0000   1.0000   1.0000
     1.0000   1.0000   1.0000   1.0000   1.0000   1.0000   1.0000   1.0000
     1.0000   1.0000   1.0000   1.0000   1.0000   1.0000   1.0000   1.0000
     1.0000   1.0000   1.0000   1.0000   1.0000   1.0000   1.0000   1.0000
     1.0000   1.0000   1.0000   1.0000   1.0000   1.0000   1.0000   1.0000
     1.0000   1.0000   1.0000   1.0000   1.0000   0.9999   0.9999   0.9998
     0.9990   0.9977   0.9959   0.9908   0.9875   0.9847   0.9835   0.9789
     0.9180   0.8709   0.8614   0.7407   0.7045   0.5944   0.3585   0.3077
     0.1057   0.0863   0.0208   0.0165   0.0080   0.0050   0.0034   0.0028
     0.0010   0.0006   0.0002   0.0000   0.0000   0.0000   0.0000   0.0000
     0.0000   0.0000   0.0000   0.0000   0.0000   0.0000   0.0000   0.0000
     0.0000   0.0000   0.0000   0.0000   0.0000   0.0000   0.0000   0.0000
     0.0000   0.0000   0.0000   0.0000   0.0000   0.0000   0.0000   0.0000
     0.0000   0.0000   0.0000   0.0000   0.0000   0.0000   0.0000   0.0000
     0.0000   0.0000   0.0000   0.0000   0.0000   0.0000   0.0000   0.0000
     0.0000   0.0000   0.0000   0.0000   0.0000   0.0000   0.0000   0.0000

          k = 0.1667-0.4811 0.0000 ( 88140 PWs)   bands (ev):

   -95.5545 -95.5514 -95.5449 -95.5440 -95.5430 -95.5393 -95.5363 -95.5357
   -95.5238 -95.5196 -95.5192 -95.5178 -95.5157 -95.5148 -95.5118 -95.5111
   -95.5100 -95.4084 -95.1538 -95.1476 -95.1471 -95.1141 -95.1070 -95.1052
   -95.1016 -95.0990 -95.0953 -95.0911 -95.0897 -95.0890 -95.0851 -95.0816
   -95.0808 -94.9135 -94.9110 -94.9092 -49.8634 -49.8496 -49.8432 -49.8333
   -49.8237 -49.8176 -49.8098 -49.8016 -49.7956 -49.7905 -49.7879 -49.7841
   -49.7735 -49.7608 -49.7570 -49.7091 -49.7024 -49.6990 -49.6960 -49.6892
   -49.6862 -49.6808 -49.6749 -49.6677 -49.6620 -49.6593 -49.6530 -49.6479
   -49.6423 -49.6383 -49.6344 -49.6297 -49.6254 -49.6236 -49.6211 -49.6186
   -49.6146 -49.6083 -49.6044 -49.6033 -49.5985 -49.5938 -49.5896 -49.5871
   -49.5841 -49.5828 -49.5803 -49.5747 -49.5637 -49.5552 -49.5425 -49.5180
   -49.5020 -49.4949 -49.4861 -49.4783 -49.4721 -49.4684 -49.4567 -49.4506
   -49.4430 -49.4288 -49.4260 -49.4197 -49.3965 -49.3914 -49.3519 -49.3242
   -49.3238 -49.3167 -49.3114 -49.3090 -49.2964 -49.2913 -49.2882 -49.2832
   -49.2768 -49.2704 -49.2691 -49.2622 -49.2487 -49.2324 -49.2179 -49.2059
   -49.1751 -49.1511 -49.1364 -49.1256 -49.1152 -49.0988 -49.0625 -49.0536
   -49.0522 -49.0341 -49.0314 -49.0273 -49.0234 -49.0220 -49.0218 -49.0153
   -49.0127 -49.0117 -49.0073 -49.0027 -49.0017 -48.8310 -48.8257 -48.8234
   -15.0035  -5.5165  -4.9773  -4.4809  -4.2361  -3.7607  -3.4090  -3.3587
    -3.3476  -3.2429  -3.2049  -3.1439  -3.0908  -3.0290  -3.0176  -2.9011
    -2.8270  -2.8202  -2.7524  -2.7136  -2.6811  -2.6688  -2.6471  -2.6110
    -2.5563  -2.5197  -2.4600  -2.4440  -2.3846  -2.3423  -2.2911  -2.2282
    -2.2081  -2.1868  -2.1378  -2.1202  -2.0193  -1.9772  -1.8988  -1.8541
    -1.7172  -1.6604  -1.6416  -1.5743  -1.5564  -1.5465  -1.5309  -1.4521
    -1.4396  -1.3954  -1.3569  -1.3011  -1.2400  -1.2092  -1.1885  -1.1564
    -1.1366  -1.1110  -1.0608  -1.0333  -0.9937  -0.9464  -0.8874  -0.8640
    -0.8583  -0.8091  -0.7810  -0.6779  -0.6467  -0.6211  -0.5657  -0.5491
    -0.5423  -0.5171  -0.4858  -0.4696  -0.4336  -0.4075  -0.3750  -0.3581
    -0.2882  -0.2666  -0.2478  -0.2243  -0.2201  -0.1848  -0.1045  -0.0811
    -0.0616  -0.0502  -0.0308   0.0260   0.0327   0.0448   0.0586   0.0683
     0.0695   0.0827   0.0915   0.1072   0.1212   0.1425   0.1807   0.1892
     0.2070   0.2207   0.2548   0.2919   0.3190   0.3428   0.3813   0.4348
     0.4686   0.4906   0.5808   0.5973   0.6315   0.7292   0.8008   0.8296
     0.8598   0.8877   0.9109   0.9447   0.9682   0.9749   1.0353   1.0612
     1.0748   1.0953   1.1211   1.1603   1.1986   1.2079   1.2690   1.3078
     1.3467   1.4650   1.4863   1.5031   1.5330   1.5808   1.6196   1.6286
     1.6431   1.6708   1.6979   1.7100   1.7466   1.8144   1.8445   1.8754
     1.8876   1.8985   1.9197   1.9419   1.9557   2.0719   2.1051   2.1633
     2.2300   2.2495   2.3319   2.3611   2.3783   2.4396   2.4485   2.4734
     2.5636   2.6048   2.6351   2.6754   2.6907   2.7011   2.7050   2.7175
     2.7885   2.8139   2.8179   2.8568   2.8658   2.8902   2.9384   2.9499
     3.0161   3.0272   3.1019   3.1136   3.1504   3.1735   3.1931   3.2028
     3.2555   3.2796   3.3295   3.9274   4.1943   4.2127   4.2671   4.3339
     4.6197   4.7804   4.8408   5.1412   5.1883   5.2255   5.2667   5.3597
     5.6180   5.7468   5.8362   6.0670   6.3573   6.4337   6.4873   6.6206
     6.8087   7.0997   7.2813   7.5258   7.5850   7.6146   8.3427   8.5936
     8.6155   8.6752   8.8612   9.1016   9.1930   9.2180   9.4412   9.4807
     9.5867   9.7158   9.8295   9.9409  10.0712  10.0792  10.1736  10.4274
    10.5297  10.8199  10.8351  10.9223  10.9399  10.9926  11.1119  11.1317

     occupation numbers 
     1.0000   1.0000   1.0000   1.0000   1.0000   1.0000   1.0000   1.0000
     1.0000   1.0000   1.0000   1.0000   1.0000   1.0000   1.0000   1.0000
     1.0000   1.0000   1.0000   1.0000   1.0000   1.0000   1.0000   1.0000
     1.0000   1.0000   1.0000   1.0000   1.0000   1.0000   1.0000   1.0000
     1.0000   1.0000   1.0000   1.0000   1.0000   1.0000   1.0000   1.0000
     1.0000   1.0000   1.0000   1.0000   1.0000   1.0000   1.0000   1.0000
     1.0000   1.0000   1.0000   1.0000   1.0000   1.0000   1.0000   1.0000
     1.0000   1.0000   1.0000   1.0000   1.0000   1.0000   1.0000   1.0000
     1.0000   1.0000   1.0000   1.0000   1.0000   1.0000   1.0000   1.0000
     1.0000   1.0000   1.0000   1.0000   1.0000   1.0000   1.0000   1.0000
     1.0000   1.0000   1.0000   1.0000   1.0000   1.0000   1.0000   1.0000
     1.0000   1.0000   1.0000   1.0000   1.0000   1.0000   1.0000   1.0000
     1.0000   1.0000   1.0000   1.0000   1.0000   1.0000   1.0000   1.0000
     1.0000   1.0000   1.0000   1.0000   1.0000   1.0000   1.0000   1.0000
     1.0000   1.0000   1.0000   1.0000   1.0000   1.0000   1.0000   1.0000
     1.0000   1.0000   1.0000   1.0000   1.0000   1.0000   1.0000   1.0000
     1.0000   1.0000   1.0000   1.0000   1.0000   1.0000   1.0000   1.0000
     1.0000   1.0000   1.0000   1.0000   1.0000   1.0000   1.0000   1.0000
     1.0000   1.0000   1.0000   1.0000   1.0000   1.0000   1.0000   1.0000
     1.0000   1.0000   1.0000   1.0000   1.0000   1.0000   1.0000   1.0000
     1.0000   1.0000   1.0000   1.0000   1.0000   1.0000   1.0000   1.0000
     1.0000   1.0000   1.0000   1.0000   1.0000   1.0000   1.0000   1.0000
     1.0000   1.0000   1.0000   1.0000   1.0000   1.0000   1.0000   1.0000
     1.0000   1.0000   1.0000   1.0000   1.0000   1.0000   1.0000   1.0000
     1.0000   1.0000   1.0000   1.0000   1.0000   1.0000   1.0000   1.0000
     1.0000   1.0000   1.0000   1.0000   1.0000   1.0000   1.0000   1.0000
     1.0000   1.0000   1.0000   1.0000   1.0000   1.0000   1.0000   1.0000
     1.0000   1.0000   1.0000   1.0000   1.0000   1.0000   1.0000   1.0000
     1.0000   1.0000   1.0000   1.0000   1.0000   1.0000   1.0000   1.0000
     1.0000   1.0000   1.0000   1.0000   1.0000   1.0000   1.0000   1.0000
     1.0000   1.0000   1.0000   1.0000   1.0000   1.0000   1.0000   1.0000
     1.0000   1.0000   1.0000   1.0000   1.0000   1.0000   1.0000   1.0000
     1.0000   1.0000   1.0000   1.0000   1.0000   1.0000   1.0000   1.0000
     1.0000   1.0000   1.0000   1.0000   1.0000   1.0000   1.0000   1.0000
     1.0000   1.0000   1.0000   1.0000   1.0000   1.0000   1.0000   1.0000
     1.0000   1.0000   1.0000   1.0000   1.0000   1.0000   1.0000   1.0000
     1.0000   1.0000   1.0000   1.0000   1.0000   1.0000   1.0000   1.0000
     1.0000   1.0000   1.0000   1.0000   1.0000   1.0000   1.0000   1.0000
     1.0000   1.0000   1.0000   1.0000   1.0000   0.9999   0.9999   0.9998
     0.9990   0.9977   0.9959   0.9908   0.9875   0.9847   0.9835   0.9789
     0.9180   0.8709   0.8614   0.7407   0.7045   0.5945   0.3584   0.3075
     0.1057   0.0863   0.0208   0.0165   0.0080   0.0050   0.0034   0.0028
     0.0010   0.0006   0.0002   0.0000   0.0000   0.0000   0.0000   0.0000
     0.0000   0.0000   0.0000   0.0000   0.0000   0.0000   0.0000   0.0000
     0.0000   0.0000   0.0000   0.0000   0.0000   0.0000   0.0000   0.0000
     0.0000   0.0000   0.0000   0.0000   0.0000   0.0000   0.0000   0.0000
     0.0000   0.0000   0.0000   0.0000   0.0000   0.0000   0.0000   0.0000
     0.0000   0.0000   0.0000   0.0000   0.0000   0.0000   0.0000   0.0000
     0.0000   0.0000   0.0000   0.0000   0.0000   0.0000   0.0000   0.0000

          k = 0.1667-0.2887 0.0000 ( 88188 PWs)   bands (ev):

   -95.5555 -95.5503 -95.5445 -95.5440 -95.5432 -95.5391 -95.5365 -95.5359
   -95.5239 -95.5195 -95.5191 -95.5178 -95.5154 -95.5150 -95.5121 -95.5119
   -95.5094 -95.4084 -95.1539 -95.1476 -95.1470 -95.1141 -95.1070 -95.1051
   -95.1032 -95.0970 -95.0946 -95.0914 -95.0902 -95.0892 -95.0854 -95.0814
   -95.0809 -94.9135 -94.9110 -94.9092 -49.8500 -49.8437 -49.8317 -49.8231
   -49.8182 -49.8109 -49.8032 -49.8004 -49.7941 -49.7875 -49.7839 -49.7793
   -49.7764 -49.7675 -49.7567 -49.7280 -49.7229 -49.7169 -49.7028 -49.6996
   -49.6952 -49.6911 -49.6886 -49.6825 -49.6731 -49.6633 -49.6586 -49.6463
   -49.6416 -49.6359 -49.6335 -49.6307 -49.6286 -49.6221 -49.6181 -49.6145
   -49.6102 -49.6071 -49.6032 -49.5998 -49.5956 -49.5911 -49.5893 -49.5846
   -49.5823 -49.5772 -49.5730 -49.5616 -49.5553 -49.5504 -49.5423 -49.5097
   -49.4977 -49.4870 -49.4821 -49.4741 -49.4687 -49.4550 -49.4527 -49.4395
   -49.4363 -49.4320 -49.4245 -49.4070 -49.4059 -49.4037 -49.3787 -49.3448
   -49.3401 -49.3385 -49.3368 -49.3199 -49.3129 -49.2927 -49.2734 -49.2659
   -49.2649 -49.2640 -49.2638 -49.2614 -49.2316 -49.2309 -49.2167 -49.1973
   -49.1861 -49.1511 -49.1385 -49.1204 -49.1053 -49.0947 -49.0633 -49.0531
   -49.0520 -49.0350 -49.0336 -49.0241 -49.0234 -49.0216 -49.0206 -49.0157
   -49.0138 -49.0122 -49.0079 -49.0022 -49.0016 -48.8310 -48.8257 -48.8234
   -15.0035  -5.9076  -4.6128  -4.3938  -4.3487  -3.5203  -3.4704  -3.4447
    -3.4306  -3.4279  -3.4142  -3.3533  -3.2787  -3.1832  -3.1680  -2.8914
    -2.8737  -2.7437  -2.7323  -2.5955  -2.5826  -2.5615  -2.5514  -2.5449
    -2.5207  -2.4692  -2.4531  -2.4207  -2.3719  -2.3616  -2.3266  -2.2689
    -2.2501  -2.2279  -2.1895  -2.1172  -2.0404  -1.9080  -1.8631  -1.8051
    -1.7860  -1.7329  -1.6839  -1.6527  -1.6382  -1.5956  -1.5551  -1.4676
    -1.4340  -1.3439  -1.3283  -1.3188  -1.2528  -1.2412  -1.2065  -1.1328
    -1.0864  -0.9227  -0.8877  -0.8601  -0.8492  -0.8379  -0.7820  -0.7557
    -0.7427  -0.7297  -0.6581  -0.6477  -0.5679  -0.5559  -0.5441  -0.5287
    -0.5211  -0.4075  -0.3830  -0.3533  -0.3389  -0.3169  -0.2727  -0.2267
    -0.2183  -0.1971  -0.1871  -0.1833  -0.1709  -0.1394  -0.1320  -0.1178
    -0.0580  -0.0525   0.0131   0.0270   0.0459   0.0613   0.0680   0.0688
     0.0837   0.1106   0.1151   0.1588   0.1744   0.1809   0.1931   0.2150
     0.2364   0.2514   0.2603   0.3223   0.3347   0.3481   0.3785   0.4689
     0.4980   0.5131   0.5277   0.5823   0.5904   0.7479   0.8278   0.8469
     0.8570   0.9058   0.9256   0.9691   0.9958   1.0121   1.0280   1.0369
     1.0551   1.1517   1.1640   1.2506   1.3312   1.3890   1.3939   1.4326
     1.4553   1.4940   1.5195   1.5371   1.5477   1.6720   1.7105   1.7134
     1.7326   1.7588   1.7680   1.8172   1.8260   1.8537   1.8615   1.8952
     1.9170   1.9586   1.9695   1.9811   1.9982   2.0052   2.0463   2.0937
     2.1178   2.1529   2.3110   2.3569   2.3755   2.4507   2.4753   2.4985
     2.5120   2.5795   2.5989   2.6040   2.6132   2.6302   2.6620   2.6683
     2.7032   2.7158   2.7185   2.8268   2.8392   2.8472   2.8640   2.8882
     2.8940   2.9043   2.9157   2.9643   3.0743   3.0887   3.0959   3.1538
     3.1705   3.1896   3.2214   3.3098   3.3285   3.5528   3.5578   3.6404
     3.9715   3.9810   4.2729   4.2972   4.9210   4.9840   5.0007   5.3374
     5.3436   5.7758   6.4492   6.4691   6.5802   6.7675   6.9401   7.2099
     7.2388   7.6466   7.7675   7.7833   7.8274   7.9595   8.7892   8.8061
     8.8946   8.9525   8.9579   9.1760   9.2288   9.3731   9.4540   9.5960
     9.6193   9.6421   9.9600  10.0517  10.0603  10.3939  10.4210  10.4893
    10.5066  10.5367  10.5602  10.9223  11.0450  11.0556  11.0915  11.1267

     occupation numbers 
     1.0000   1.0000   1.0000   1.0000   1.0000   1.0000   1.0000   1.0000
     1.0000   1.0000   1.0000   1.0000   1.0000   1.0000   1.0000   1.0000
     1.0000   1.0000   1.0000   1.0000   1.0000   1.0000   1.0000   1.0000
     1.0000   1.0000   1.0000   1.0000   1.0000   1.0000   1.0000   1.0000
     1.0000   1.0000   1.0000   1.0000   1.0000   1.0000   1.0000   1.0000
     1.0000   1.0000   1.0000   1.0000   1.0000   1.0000   1.0000   1.0000
     1.0000   1.0000   1.0000   1.0000   1.0000   1.0000   1.0000   1.0000
     1.0000   1.0000   1.0000   1.0000   1.0000   1.0000   1.0000   1.0000
     1.0000   1.0000   1.0000   1.0000   1.0000   1.0000   1.0000   1.0000
     1.0000   1.0000   1.0000   1.0000   1.0000   1.0000   1.0000   1.0000
     1.0000   1.0000   1.0000   1.0000   1.0000   1.0000   1.0000   1.0000
     1.0000   1.0000   1.0000   1.0000   1.0000   1.0000   1.0000   1.0000
     1.0000   1.0000   1.0000   1.0000   1.0000   1.0000   1.0000   1.0000
     1.0000   1.0000   1.0000   1.0000   1.0000   1.0000   1.0000   1.0000
     1.0000   1.0000   1.0000   1.0000   1.0000   1.0000   1.0000   1.0000
     1.0000   1.0000   1.0000   1.0000   1.0000   1.0000   1.0000   1.0000
     1.0000   1.0000   1.0000   1.0000   1.0000   1.0000   1.0000   1.0000
     1.0000   1.0000   1.0000   1.0000   1.0000   1.0000   1.0000   1.0000
     1.0000   1.0000   1.0000   1.0000   1.0000   1.0000   1.0000   1.0000
     1.0000   1.0000   1.0000   1.0000   1.0000   1.0000   1.0000   1.0000
     1.0000   1.0000   1.0000   1.0000   1.0000   1.0000   1.0000   1.0000
     1.0000   1.0000   1.0000   1.0000   1.0000   1.0000   1.0000   1.0000
     1.0000   1.0000   1.0000   1.0000   1.0000   1.0000   1.0000   1.0000
     1.0000   1.0000   1.0000   1.0000   1.0000   1.0000   1.0000   1.0000
     1.0000   1.0000   1.0000   1.0000   1.0000   1.0000   1.0000   1.0000
     1.0000   1.0000   1.0000   1.0000   1.0000   1.0000   1.0000   1.0000
     1.0000   1.0000   1.0000   1.0000   1.0000   1.0000   1.0000   1.0000
     1.0000   1.0000   1.0000   1.0000   1.0000   1.0000   1.0000   1.0000
     1.0000   1.0000   1.0000   1.0000   1.0000   1.0000   1.0000   1.0000
     1.0000   1.0000   1.0000   1.0000   1.0000   1.0000   1.0000   1.0000
     1.0000   1.0000   1.0000   1.0000   1.0000   1.0000   1.0000   1.0000
     1.0000   1.0000   1.0000   1.0000   1.0000   1.0000   1.0000   1.0000
     1.0000   1.0000   1.0000   1.0000   1.0000   1.0000   1.0000   1.0000
     1.0000   1.0000   1.0000   1.0000   1.0000   1.0000   1.0000   1.0000
     1.0000   1.0000   1.0000   1.0000   1.0000   1.0000   1.0000   1.0000
     1.0000   1.0000   1.0000   1.0000   1.0000   1.0000   1.0000   1.0000
     1.0000   1.0000   1.0000   1.0000   1.0000   1.0000   1.0000   1.0000
     1.0000   1.0000   1.0000   1.0000   1.0000   1.0000   1.0000   1.0000
     1.0000   1.0000   1.0000   1.0000   1.0000   0.9999   0.9998   0.9997
     0.9996   0.9986   0.9980   0.9978   0.9973   0.9962   0.9929   0.9920
     0.9840   0.9796   0.9784   0.8387   0.8025   0.7759   0.7120   0.6041
     0.5756   0.5250   0.4677   0.2498   0.0356   0.0269   0.0234   0.0075
     0.0054   0.0037   0.0019   0.0003   0.0002   0.0000   0.0000   0.0000
     0.0000   0.0000   0.0000   0.0000   0.0000   0.0000   0.0000   0.0000
     0.0000   0.0000   0.0000   0.0000   0.0000   0.0000   0.0000   0.0000
     0.0000   0.0000   0.0000   0.0000   0.0000   0.0000   0.0000   0.0000
     0.0000   0.0000   0.0000   0.0000   0.0000   0.0000   0.0000   0.0000
     0.0000   0.0000   0.0000   0.0000   0.0000   0.0000   0.0000   0.0000
     0.0000   0.0000   0.0000   0.0000   0.0000   0.0000   0.0000   0.0000

          k = 0.3333-0.1925 0.0000 ( 88170 PWs)   bands (ev):

   -95.5552 -95.5506 -95.5446 -95.5440 -95.5432 -95.5392 -95.5367 -95.5356
   -95.5238 -95.5195 -95.5192 -95.5178 -95.5153 -95.5152 -95.5121 -95.5116
   -95.5096 -95.4084 -95.1539 -95.1477 -95.1469 -95.1141 -95.1071 -95.1051
   -95.1028 -95.0978 -95.0942 -95.0920 -95.0898 -95.0891 -95.0853 -95.0813
   -95.0810 -94.9135 -94.9109 -94.9092 -49.8581 -49.8392 -49.8335 -49.8286
   -49.8147 -49.8126 -49.8091 -49.8078 -49.7989 -49.7907 -49.7901 -49.7834
   -49.7693 -49.7574 -49.7412 -49.7400 -49.7152 -49.7125 -49.6964 -49.6940
   -49.6883 -49.6856 -49.6854 -49.6832 -49.6708 -49.6704 -49.6519 -49.6468
   -49.6432 -49.6380 -49.6306 -49.6290 -49.6284 -49.6215 -49.6158 -49.6150
   -49.6085 -49.6072 -49.6059 -49.6028 -49.5961 -49.5949 -49.5880 -49.5872
   -49.5832 -49.5768 -49.5725 -49.5657 -49.5626 -49.5525 -49.5394 -49.5148
   -49.4981 -49.4914 -49.4802 -49.4797 -49.4654 -49.4619 -49.4422 -49.4410
   -49.4376 -49.4369 -49.4334 -49.4331 -49.3931 -49.3738 -49.3666 -49.3664
   -49.3328 -49.3324 -49.3175 -49.3156 -49.3116 -49.2946 -49.2755 -49.2751
   -49.2725 -49.2646 -49.2623 -49.2484 -49.2478 -49.2251 -49.2214 -49.1994
   -49.1831 -49.1503 -49.1375 -49.1214 -49.1113 -49.0945 -49.0630 -49.0537
   -49.0516 -49.0346 -49.0331 -49.0254 -49.0235 -49.0216 -49.0196 -49.0171
   -49.0128 -49.0120 -49.0077 -49.0022 -49.0018 -48.8310 -48.8256 -48.8235
   -15.0035  -5.8080  -4.7477  -4.5127  -3.8893  -3.8885  -3.5960  -3.4848
    -3.4192  -3.3497  -3.2850  -3.2478  -3.2458  -3.0215  -2.9895  -2.9376
    -2.9308  -2.8305  -2.6938  -2.6381  -2.6004  -2.5984  -2.5630  -2.5571
    -2.5369  -2.5283  -2.4840  -2.4536  -2.3730  -2.3497  -2.3344  -2.3203
    -2.1184  -2.1143  -2.0732  -2.0593  -2.0327  -2.0295  -1.8353  -1.8295
    -1.7536  -1.7345  -1.7025  -1.6331  -1.5867  -1.5859  -1.5611  -1.5322
    -1.3973  -1.3925  -1.3354  -1.3097  -1.2934  -1.2888  -1.2015  -1.1716
    -1.1438  -1.0358  -0.9523  -0.9487  -0.9288  -0.8155  -0.7826  -0.7538
    -0.7500  -0.7145  -0.7091  -0.6894  -0.6218  -0.4969  -0.4824  -0.4676
    -0.4584  -0.4268  -0.4033  -0.3943  -0.3590  -0.3264  -0.3248  -0.2611
    -0.2595  -0.2418  -0.2288  -0.2086  -0.2006  -0.1946  -0.1892  -0.1466
    -0.1357  -0.1027  -0.0740  -0.0488  -0.0439  -0.0114   0.0451   0.0686
     0.0694   0.1011   0.1217   0.1250   0.1467   0.1529   0.1984   0.2597
     0.2622   0.2799   0.2844   0.3168   0.3823   0.4627   0.4687   0.5251
     0.5333   0.5785   0.5902   0.6724   0.7044   0.8480   0.8711   0.8735
     0.8963   0.8976   0.9157   0.9249   0.9453   0.9472   1.0291   1.0402
     1.0693   1.0729   1.1063   1.1535   1.2212   1.2556   1.2754   1.3105
     1.4432   1.4559   1.4773   1.4876   1.4979   1.5121   1.6664   1.7315
     1.7401   1.7583   1.7598   1.7921   1.8057   1.8362   1.8769   1.8924
     1.9504   1.9682   2.0124   2.0770   2.0904   2.0930   2.1050   2.1131
     2.1357   2.1574   2.3103   2.3503   2.3684   2.3976   2.4111   2.4140
     2.4392   2.5105   2.5284   2.5763   2.6172   2.6205   2.6306   2.6379
     2.7388   2.7590   2.7659   2.8172   2.8248   2.8530   2.8630   2.8812
     2.9073   2.9456   3.0349   3.0749   3.0946   3.1011   3.1160   3.1179
     3.2880   3.2986   3.3355   3.7032   3.7169   3.7842   3.7886   3.8037
     4.0766   4.1062   4.2587   4.9862   5.0354   5.1141   5.1388   5.2081
     5.7759   5.7785   5.8095   5.8139   6.5243   6.5483   7.0025   7.1830
     7.2654   7.2725   7.7186   7.7437   8.1972   8.2125   8.5319   8.5452
     8.5847   9.0218   9.0757   9.1415   9.1600   9.4351   9.4413   9.5384
     9.5454   9.7613   9.9052  10.0173  10.1296  10.1775  10.2493  10.2668
    10.4398  10.4839  10.6170  10.7207  11.0341  11.1214  11.1735  11.1933

     occupation numbers 
     1.0000   1.0000   1.0000   1.0000   1.0000   1.0000   1.0000   1.0000
     1.0000   1.0000   1.0000   1.0000   1.0000   1.0000   1.0000   1.0000
     1.0000   1.0000   1.0000   1.0000   1.0000   1.0000   1.0000   1.0000
     1.0000   1.0000   1.0000   1.0000   1.0000   1.0000   1.0000   1.0000
     1.0000   1.0000   1.0000   1.0000   1.0000   1.0000   1.0000   1.0000
     1.0000   1.0000   1.0000   1.0000   1.0000   1.0000   1.0000   1.0000
     1.0000   1.0000   1.0000   1.0000   1.0000   1.0000   1.0000   1.0000
     1.0000   1.0000   1.0000   1.0000   1.0000   1.0000   1.0000   1.0000
     1.0000   1.0000   1.0000   1.0000   1.0000   1.0000   1.0000   1.0000
     1.0000   1.0000   1.0000   1.0000   1.0000   1.0000   1.0000   1.0000
     1.0000   1.0000   1.0000   1.0000   1.0000   1.0000   1.0000   1.0000
     1.0000   1.0000   1.0000   1.0000   1.0000   1.0000   1.0000   1.0000
     1.0000   1.0000   1.0000   1.0000   1.0000   1.0000   1.0000   1.0000
     1.0000   1.0000   1.0000   1.0000   1.0000   1.0000   1.0000   1.0000
     1.0000   1.0000   1.0000   1.0000   1.0000   1.0000   1.0000   1.0000
     1.0000   1.0000   1.0000   1.0000   1.0000   1.0000   1.0000   1.0000
     1.0000   1.0000   1.0000   1.0000   1.0000   1.0000   1.0000   1.0000
     1.0000   1.0000   1.0000   1.0000   1.0000   1.0000   1.0000   1.0000
     1.0000   1.0000   1.0000   1.0000   1.0000   1.0000   1.0000   1.0000
     1.0000   1.0000   1.0000   1.0000   1.0000   1.0000   1.0000   1.0000
     1.0000   1.0000   1.0000   1.0000   1.0000   1.0000   1.0000   1.0000
     1.0000   1.0000   1.0000   1.0000   1.0000   1.0000   1.0000   1.0000
     1.0000   1.0000   1.0000   1.0000   1.0000   1.0000   1.0000   1.0000
     1.0000   1.0000   1.0000   1.0000   1.0000   1.0000   1.0000   1.0000
     1.0000   1.0000   1.0000   1.0000   1.0000   1.0000   1.0000   1.0000
     1.0000   1.0000   1.0000   1.0000   1.0000   1.0000   1.0000   1.0000
     1.0000   1.0000   1.0000   1.0000   1.0000   1.0000   1.0000   1.0000
     1.0000   1.0000   1.0000   1.0000   1.0000   1.0000   1.0000   1.0000
     1.0000   1.0000   1.0000   1.0000   1.0000   1.0000   1.0000   1.0000
     1.0000   1.0000   1.0000   1.0000   1.0000   1.0000   1.0000   1.0000
     1.0000   1.0000   1.0000   1.0000   1.0000   1.0000   1.0000   1.0000
     1.0000   1.0000   1.0000   1.0000   1.0000   1.0000   1.0000   1.0000
     1.0000   1.0000   1.0000   1.0000   1.0000   1.0000   1.0000   1.0000
     1.0000   1.0000   1.0000   1.0000   1.0000   1.0000   1.0000   1.0000
     1.0000   1.0000   1.0000   1.0000   1.0000   1.0000   1.0000   1.0000
     1.0000   1.0000   1.0000   1.0000   1.0000   1.0000   1.0000   1.0000
     1.0000   1.0000   1.0000   1.0000   1.0000   1.0000   1.0000   1.0000
     1.0000   1.0000   1.0000   1.0000   1.0000   1.0000   1.0000   1.0000
     1.0000   1.0000   1.0000   1.0000   1.0000   1.0000   1.0000   1.0000
     0.9999   0.9997   0.9995   0.9987   0.9971   0.9969   0.9962   0.9956
     0.9680   0.9528   0.9463   0.8632   0.8441   0.7552   0.7161   0.6368
     0.5099   0.3262   0.0750   0.0352   0.0240   0.0211   0.0158   0.0152
     0.0005   0.0004   0.0002   0.0000   0.0000   0.0000   0.0000   0.0000
     0.0000   0.0000   0.0000   0.0000   0.0000   0.0000   0.0000   0.0000
     0.0000   0.0000   0.0000   0.0000   0.0000   0.0000   0.0000   0.0000
     0.0000   0.0000   0.0000   0.0000   0.0000   0.0000   0.0000   0.0000
     0.0000   0.0000   0.0000   0.0000   0.0000   0.0000   0.0000   0.0000
     0.0000   0.0000   0.0000   0.0000   0.0000   0.0000   0.0000   0.0000
     0.0000   0.0000   0.0000   0.0000   0.0000   0.0000   0.0000   0.0000

          k = 0.3333 0.0000 0.0000 ( 88188 PWs)   bands (ev):

   -95.5555 -95.5502 -95.5446 -95.5439 -95.5432 -95.5391 -95.5368 -95.5357
   -95.5238 -95.5194 -95.5192 -95.5177 -95.5155 -95.5150 -95.5121 -95.5119
   -95.5094 -95.4084 -95.1539 -95.1477 -95.1468 -95.1141 -95.1071 -95.1051
   -95.1032 -95.0970 -95.0947 -95.0913 -95.0902 -95.0893 -95.0854 -95.0813
   -95.0810 -94.9135 -94.9109 -94.9092 -49.8492 -49.8431 -49.8322 -49.8231
   -49.8189 -49.8109 -49.8030 -49.8000 -49.7946 -49.7875 -49.7843 -49.7798
   -49.7763 -49.7676 -49.7571 -49.7288 -49.7223 -49.7167 -49.7029 -49.6998
   -49.6954 -49.6912 -49.6886 -49.6825 -49.6731 -49.6630 -49.6583 -49.6460
   -49.6414 -49.6361 -49.6334 -49.6305 -49.6284 -49.6222 -49.6180 -49.6145
   -49.6101 -49.6069 -49.6030 -49.5997 -49.5957 -49.5911 -49.5897 -49.5843
   -49.5829 -49.5776 -49.5721 -49.5612 -49.5557 -49.5505 -49.5429 -49.5092
   -49.4983 -49.4866 -49.4820 -49.4741 -49.4689 -49.4548 -49.4526 -49.4395
   -49.4365 -49.4320 -49.4242 -49.4072 -49.4063 -49.4040 -49.3782 -49.3450
   -49.3399 -49.3384 -49.3367 -49.3195 -49.3131 -49.2923 -49.2736 -49.2660
   -49.2648 -49.2644 -49.2638 -49.2612 -49.2316 -49.2310 -49.2165 -49.1976
   -49.1860 -49.1509 -49.1386 -49.1207 -49.1052 -49.0946 -49.0633 -49.0535
   -49.0516 -49.0350 -49.0336 -49.0241 -49.0234 -49.0216 -49.0206 -49.0155
   -49.0139 -49.0122 -49.0079 -49.0022 -49.0017 -48.8310 -48.8256 -48.8235
   -15.0035  -5.9076  -4.6128  -4.3938  -4.3493  -3.5205  -3.4689  -3.4447
    -3.4309  -3.4280  -3.4141  -3.3530  -3.2786  -3.1830  -3.1680  -2.8929
    -2.8753  -2.7431  -2.7319  -2.5971  -2.5832  -2.5611  -2.5511  -2.5449
    -2.5212  -2.4682  -2.4524  -2.4202  -2.3716  -2.3605  -2.3264  -2.2684
    -2.2504  -2.2281  -2.1904  -2.1167  -2.0427  -1.9069  -1.8629  -1.8050
    -1.7846  -1.7328  -1.6834  -1.6527  -1.6374  -1.5960  -1.5557  -1.4672
    -1.4339  -1.3433  -1.3285  -1.3184  -1.2519  -1.2415  -1.2068  -1.1324
    -1.0864  -0.9212  -0.8868  -0.8590  -0.8470  -0.8364  -0.7817  -0.7572
    -0.7416  -0.7298  -0.6582  -0.6476  -0.5703  -0.5563  -0.5457  -0.5294
    -0.5225  -0.4053  -0.3821  -0.3529  -0.3395  -0.3185  -0.2719  -0.2283
    -0.2185  -0.1974  -0.1876  -0.1825  -0.1720  -0.1386  -0.1337  -0.1184
    -0.0582  -0.0526   0.0139   0.0275   0.0463   0.0618   0.0680   0.0688
     0.0834   0.1105   0.1152   0.1586   0.1750   0.1798   0.1922   0.2146
     0.2366   0.2507   0.2604   0.3226   0.3335   0.3490   0.3784   0.4690
     0.4978   0.5128   0.5281   0.5818   0.5899   0.7478   0.8287   0.8454
     0.8574   0.9041   0.9261   0.9694   0.9962   1.0118   1.0272   1.0371
     1.0546   1.1514   1.1628   1.2545   1.3276   1.3889   1.3942   1.4317
     1.4546   1.4942   1.5193   1.5368   1.5473   1.6722   1.7102   1.7132
     1.7331   1.7583   1.7681   1.8179   1.8266   1.8548   1.8627   1.8955
     1.9170   1.9598   1.9701   1.9813   1.9988   2.0067   2.0461   2.0931
     2.1188   2.1507   2.3103   2.3556   2.3748   2.4505   2.4748   2.4989
     2.5126   2.5793   2.5985   2.6032   2.6135   2.6314   2.6624   2.6683
     2.7021   2.7149   2.7175   2.8270   2.8381   2.8488   2.8631   2.8881
     2.8933   2.9045   2.9159   2.9639   3.0744   3.0904   3.0964   3.1556
     3.1723   3.1896   3.2209   3.3109   3.3290   3.5525   3.5574   3.6394
     3.9725   3.9822   4.2742   4.2982   4.9196   4.9835   5.0002   5.3374
     5.3431   5.7760   6.4513   6.4704   6.5805   6.7671   6.9392   7.2098
     7.2382   7.6467   7.7659   7.7823   7.8265   7.9575   8.7887   8.8052
     8.8992   8.9510   8.9577   9.1762   9.2290   9.3771   9.4583   9.5963
     9.6189   9.6420   9.9601  10.0519  10.0606  10.3986  10.4198  10.4889
    10.5051  10.5366  10.5569  10.9224  11.0451  11.0528  11.0910  11.1233

     occupation numbers 
     1.0000   1.0000   1.0000   1.0000   1.0000   1.0000   1.0000   1.0000
     1.0000   1.0000   1.0000   1.0000   1.0000   1.0000   1.0000   1.0000
     1.0000   1.0000   1.0000   1.0000   1.0000   1.0000   1.0000   1.0000
     1.0000   1.0000   1.0000   1.0000   1.0000   1.0000   1.0000   1.0000
     1.0000   1.0000   1.0000   1.0000   1.0000   1.0000   1.0000   1.0000
     1.0000   1.0000   1.0000   1.0000   1.0000   1.0000   1.0000   1.0000
     1.0000   1.0000   1.0000   1.0000   1.0000   1.0000   1.0000   1.0000
     1.0000   1.0000   1.0000   1.0000   1.0000   1.0000   1.0000   1.0000
     1.0000   1.0000   1.0000   1.0000   1.0000   1.0000   1.0000   1.0000
     1.0000   1.0000   1.0000   1.0000   1.0000   1.0000   1.0000   1.0000
     1.0000   1.0000   1.0000   1.0000   1.0000   1.0000   1.0000   1.0000
     1.0000   1.0000   1.0000   1.0000   1.0000   1.0000   1.0000   1.0000
     1.0000   1.0000   1.0000   1.0000   1.0000   1.0000   1.0000   1.0000
     1.0000   1.0000   1.0000   1.0000   1.0000   1.0000   1.0000   1.0000
     1.0000   1.0000   1.0000   1.0000   1.0000   1.0000   1.0000   1.0000
     1.0000   1.0000   1.0000   1.0000   1.0000   1.0000   1.0000   1.0000
     1.0000   1.0000   1.0000   1.0000   1.0000   1.0000   1.0000   1.0000
     1.0000   1.0000   1.0000   1.0000   1.0000   1.0000   1.0000   1.0000
     1.0000   1.0000   1.0000   1.0000   1.0000   1.0000   1.0000   1.0000
     1.0000   1.0000   1.0000   1.0000   1.0000   1.0000   1.0000   1.0000
     1.0000   1.0000   1.0000   1.0000   1.0000   1.0000   1.0000   1.0000
     1.0000   1.0000   1.0000   1.0000   1.0000   1.0000   1.0000   1.0000
     1.0000   1.0000   1.0000   1.0000   1.0000   1.0000   1.0000   1.0000
     1.0000   1.0000   1.0000   1.0000   1.0000   1.0000   1.0000   1.0000
     1.0000   1.0000   1.0000   1.0000   1.0000   1.0000   1.0000   1.0000
     1.0000   1.0000   1.0000   1.0000   1.0000   1.0000   1.0000   1.0000
     1.0000   1.0000   1.0000   1.0000   1.0000   1.0000   1.0000   1.0000
     1.0000   1.0000   1.0000   1.0000   1.0000   1.0000   1.0000   1.0000
     1.0000   1.0000   1.0000   1.0000   1.0000   1.0000   1.0000   1.0000
     1.0000   1.0000   1.0000   1.0000   1.0000   1.0000   1.0000   1.0000
     1.0000   1.0000   1.0000   1.0000   1.0000   1.0000   1.0000   1.0000
     1.0000   1.0000   1.0000   1.0000   1.0000   1.0000   1.0000   1.0000
     1.0000   1.0000   1.0000   1.0000   1.0000   1.0000   1.0000   1.0000
     1.0000   1.0000   1.0000   1.0000   1.0000   1.0000   1.0000   1.0000
     1.0000   1.0000   1.0000   1.0000   1.0000   1.0000   1.0000   1.0000
     1.0000   1.0000   1.0000   1.0000   1.0000   1.0000   1.0000   1.0000
     1.0000   1.0000   1.0000   1.0000   1.0000   1.0000   1.0000   1.0000
     1.0000   1.0000   1.0000   1.0000   1.0000   1.0000   1.0000   1.0000
     1.0000   1.0000   1.0000   1.0000   1.0000   0.9999   0.9998   0.9997
     0.9996   0.9986   0.9980   0.9978   0.9973   0.9962   0.9929   0.9920
     0.9844   0.9799   0.9789   0.8382   0.8059   0.7703   0.7156   0.6045
     0.5791   0.5241   0.4669   0.2513   0.0355   0.0260   0.0232   0.0072
     0.0052   0.0037   0.0020   0.0003   0.0002   0.0000   0.0000   0.0000
     0.0000   0.0000   0.0000   0.0000   0.0000   0.0000   0.0000   0.0000
     0.0000   0.0000   0.0000   0.0000   0.0000   0.0000   0.0000   0.0000
     0.0000   0.0000   0.0000   0.0000   0.0000   0.0000   0.0000   0.0000
     0.0000   0.0000   0.0000   0.0000   0.0000   0.0000   0.0000   0.0000
     0.0000   0.0000   0.0000   0.0000   0.0000   0.0000   0.0000   0.0000
     0.0000   0.0000   0.0000   0.0000   0.0000   0.0000   0.0000   0.0000

          k = 0.3333 0.1925 0.0000 ( 88170 PWs)   bands (ev):

   -95.5552 -95.5506 -95.5446 -95.5440 -95.5432 -95.5392 -95.5367 -95.5356
   -95.5238 -95.5195 -95.5192 -95.5178 -95.5153 -95.5152 -95.5121 -95.5116
   -95.5096 -95.4084 -95.1539 -95.1477 -95.1469 -95.1141 -95.1071 -95.1051
   -95.1028 -95.0978 -95.0942 -95.0920 -95.0898 -95.0891 -95.0853 -95.0813
   -95.0810 -94.9135 -94.9109 -94.9092 -49.8581 -49.8392 -49.8335 -49.8286
   -49.8147 -49.8126 -49.8091 -49.8078 -49.7989 -49.7907 -49.7902 -49.7834
   -49.7693 -49.7575 -49.7412 -49.7400 -49.7152 -49.7125 -49.6964 -49.6940
   -49.6883 -49.6856 -49.6854 -49.6832 -49.6708 -49.6704 -49.6519 -49.6467
   -49.6432 -49.6380 -49.6306 -49.6290 -49.6284 -49.6215 -49.6158 -49.6150
   -49.6085 -49.6072 -49.6059 -49.6028 -49.5961 -49.5949 -49.5880 -49.5872
   -49.5832 -49.5768 -49.5724 -49.5657 -49.5626 -49.5525 -49.5394 -49.5148
   -49.4981 -49.4914 -49.4802 -49.4797 -49.4654 -49.4619 -49.4422 -49.4410
   -49.4376 -49.4369 -49.4334 -49.4331 -49.3931 -49.3738 -49.3666 -49.3664
   -49.3328 -49.3324 -49.3175 -49.3156 -49.3116 -49.2946 -49.2755 -49.2751
   -49.2725 -49.2646 -49.2623 -49.2484 -49.2478 -49.2251 -49.2214 -49.1994
   -49.1831 -49.1503 -49.1375 -49.1214 -49.1113 -49.0945 -49.0630 -49.0537
   -49.0516 -49.0346 -49.0331 -49.0254 -49.0235 -49.0216 -49.0196 -49.0171
   -49.0129 -49.0120 -49.0077 -49.0022 -49.0018 -48.8310 -48.8256 -48.8235
   -15.0035  -5.8080  -4.7477  -4.5127  -3.8893  -3.8885  -3.5960  -3.4849
    -3.4192  -3.3497  -3.2850  -3.2477  -3.2458  -3.0215  -2.9895  -2.9376
    -2.9308  -2.8305  -2.6939  -2.6381  -2.6004  -2.5984  -2.5630  -2.5571
    -2.5369  -2.5283  -2.4840  -2.4536  -2.3730  -2.3497  -2.3344  -2.3202
    -2.1184  -2.1143  -2.0732  -2.0593  -2.0327  -2.0295  -1.8353  -1.8295
    -1.7536  -1.7345  -1.7025  -1.6330  -1.5867  -1.5859  -1.5611  -1.5322
    -1.3973  -1.3925  -1.3354  -1.3097  -1.2934  -1.2888  -1.2015  -1.1716
    -1.1438  -1.0358  -0.9522  -0.9486  -0.9288  -0.8155  -0.7826  -0.7538
    -0.7500  -0.7145  -0.7092  -0.6895  -0.6217  -0.4970  -0.4825  -0.4676
    -0.4584  -0.4268  -0.4033  -0.3943  -0.3590  -0.3264  -0.3248  -0.2611
    -0.2595  -0.2418  -0.2288  -0.2086  -0.2006  -0.1946  -0.1892  -0.1466
    -0.1357  -0.1027  -0.0740  -0.0488  -0.0439  -0.0114   0.0451   0.0684
     0.0696   0.1011   0.1217   0.1250   0.1467   0.1529   0.1984   0.2597
     0.2622   0.2799   0.2844   0.3168   0.3823   0.4626   0.4688   0.5251
     0.5333   0.5785   0.5902   0.6723   0.7044   0.8479   0.8711   0.8735
     0.8963   0.8976   0.9157   0.9249   0.9453   0.9472   1.0291   1.0402
     1.0692   1.0729   1.1063   1.1535   1.2212   1.2555   1.2753   1.3105
     1.4432   1.4559   1.4773   1.4876   1.4979   1.5121   1.6665   1.7315
     1.7401   1.7583   1.7598   1.7920   1.8057   1.8362   1.8769   1.8924
     1.9504   1.9683   2.0124   2.0770   2.0905   2.0929   2.1050   2.1131
     2.1357   2.1574   2.3103   2.3503   2.3684   2.3976   2.4110   2.4140
     2.4391   2.5105   2.5284   2.5763   2.6172   2.6205   2.6306   2.6379
     2.7388   2.7590   2.7658   2.8172   2.8248   2.8529   2.8630   2.8812
     2.9073   2.9456   3.0349   3.0749   3.0946   3.1011   3.1160   3.1179
     3.2880   3.2986   3.3355   3.7032   3.7169   3.7842   3.7886   3.8037
     4.0766   4.1062   4.2588   4.9862   5.0354   5.1141   5.1388   5.2081
     5.7759   5.7786   5.8096   5.8140   6.5243   6.5483   7.0026   7.1829
     7.2654   7.2725   7.7186   7.7437   8.1972   8.2125   8.5318   8.5452
     8.5847   9.0218   9.0756   9.1415   9.1600   9.4351   9.4414   9.5383
     9.5454   9.7613   9.9051  10.0173  10.1296  10.1776  10.2493  10.2669
    10.4398  10.4839  10.6170  10.7206  11.0341  11.1214  11.1735  11.1933

     occupation numbers 
     1.0000   1.0000   1.0000   1.0000   1.0000   1.0000   1.0000   1.0000
     1.0000   1.0000   1.0000   1.0000   1.0000   1.0000   1.0000   1.0000
     1.0000   1.0000   1.0000   1.0000   1.0000   1.0000   1.0000   1.0000
     1.0000   1.0000   1.0000   1.0000   1.0000   1.0000   1.0000   1.0000
     1.0000   1.0000   1.0000   1.0000   1.0000   1.0000   1.0000   1.0000
     1.0000   1.0000   1.0000   1.0000   1.0000   1.0000   1.0000   1.0000
     1.0000   1.0000   1.0000   1.0000   1.0000   1.0000   1.0000   1.0000
     1.0000   1.0000   1.0000   1.0000   1.0000   1.0000   1.0000   1.0000
     1.0000   1.0000   1.0000   1.0000   1.0000   1.0000   1.0000   1.0000
     1.0000   1.0000   1.0000   1.0000   1.0000   1.0000   1.0000   1.0000
     1.0000   1.0000   1.0000   1.0000   1.0000   1.0000   1.0000   1.0000
     1.0000   1.0000   1.0000   1.0000   1.0000   1.0000   1.0000   1.0000
     1.0000   1.0000   1.0000   1.0000   1.0000   1.0000   1.0000   1.0000
     1.0000   1.0000   1.0000   1.0000   1.0000   1.0000   1.0000   1.0000
     1.0000   1.0000   1.0000   1.0000   1.0000   1.0000   1.0000   1.0000
     1.0000   1.0000   1.0000   1.0000   1.0000   1.0000   1.0000   1.0000
     1.0000   1.0000   1.0000   1.0000   1.0000   1.0000   1.0000   1.0000
     1.0000   1.0000   1.0000   1.0000   1.0000   1.0000   1.0000   1.0000
     1.0000   1.0000   1.0000   1.0000   1.0000   1.0000   1.0000   1.0000
     1.0000   1.0000   1.0000   1.0000   1.0000   1.0000   1.0000   1.0000
     1.0000   1.0000   1.0000   1.0000   1.0000   1.0000   1.0000   1.0000
     1.0000   1.0000   1.0000   1.0000   1.0000   1.0000   1.0000   1.0000
     1.0000   1.0000   1.0000   1.0000   1.0000   1.0000   1.0000   1.0000
     1.0000   1.0000   1.0000   1.0000   1.0000   1.0000   1.0000   1.0000
     1.0000   1.0000   1.0000   1.0000   1.0000   1.0000   1.0000   1.0000
     1.0000   1.0000   1.0000   1.0000   1.0000   1.0000   1.0000   1.0000
     1.0000   1.0000   1.0000   1.0000   1.0000   1.0000   1.0000   1.0000
     1.0000   1.0000   1.0000   1.0000   1.0000   1.0000   1.0000   1.0000
     1.0000   1.0000   1.0000   1.0000   1.0000   1.0000   1.0000   1.0000
     1.0000   1.0000   1.0000   1.0000   1.0000   1.0000   1.0000   1.0000
     1.0000   1.0000   1.0000   1.0000   1.0000   1.0000   1.0000   1.0000
     1.0000   1.0000   1.0000   1.0000   1.0000   1.0000   1.0000   1.0000
     1.0000   1.0000   1.0000   1.0000   1.0000   1.0000   1.0000   1.0000
     1.0000   1.0000   1.0000   1.0000   1.0000   1.0000   1.0000   1.0000
     1.0000   1.0000   1.0000   1.0000   1.0000   1.0000   1.0000   1.0000
     1.0000   1.0000   1.0000   1.0000   1.0000   1.0000   1.0000   1.0000
     1.0000   1.0000   1.0000   1.0000   1.0000   1.0000   1.0000   1.0000
     1.0000   1.0000   1.0000   1.0000   1.0000   1.0000   1.0000   1.0000
     1.0000   1.0000   1.0000   1.0000   1.0000   1.0000   1.0000   1.0000
     0.9999   0.9997   0.9995   0.9987   0.9971   0.9969   0.9962   0.9956
     0.9680   0.9529   0.9463   0.8632   0.8442   0.7552   0.7161   0.6367
     0.5097   0.3260   0.0751   0.0352   0.0240   0.0211   0.0157   0.0152
     0.0005   0.0004   0.0002   0.0000   0.0000   0.0000   0.0000   0.0000
     0.0000   0.0000   0.0000   0.0000   0.0000   0.0000   0.0000   0.0000
     0.0000   0.0000   0.0000   0.0000   0.0000   0.0000   0.0000   0.0000
     0.0000   0.0000   0.0000   0.0000   0.0000   0.0000   0.0000   0.0000
     0.0000   0.0000   0.0000   0.0000   0.0000   0.0000   0.0000   0.0000
     0.0000   0.0000   0.0000   0.0000   0.0000   0.0000   0.0000   0.0000
     0.0000   0.0000   0.0000   0.0000   0.0000   0.0000   0.0000   0.0000

          k = 0.3333-0.7698 0.0000 ( 88140 PWs)   bands (ev):

   -95.5545 -95.5513 -95.5449 -95.5439 -95.5430 -95.5393 -95.5365 -95.5355
   -95.5238 -95.5196 -95.5194 -95.5178 -95.5157 -95.5149 -95.5117 -95.5112
   -95.5101 -95.4084 -95.1538 -95.1478 -95.1469 -95.1141 -95.1070 -95.1051
   -95.1017 -95.0989 -95.0954 -95.0911 -95.0897 -95.0891 -95.0851 -95.0815
   -95.0809 -94.9135 -94.9109 -94.9092 -49.8621 -49.8506 -49.8433 -49.8335
   -49.8236 -49.8174 -49.8101 -49.8015 -49.7956 -49.7903 -49.7879 -49.7840
   -49.7739 -49.7611 -49.7575 -49.7094 -49.7026 -49.6994 -49.6963 -49.6895
   -49.6866 -49.6806 -49.6748 -49.6675 -49.6616 -49.6586 -49.6529 -49.6477
   -49.6425 -49.6383 -49.6343 -49.6294 -49.6256 -49.6233 -49.6212 -49.6182
   -49.6145 -49.6082 -49.6044 -49.6032 -49.5985 -49.5941 -49.5892 -49.5867
   -49.5842 -49.5833 -49.5804 -49.5750 -49.5629 -49.5556 -49.5431 -49.5177
   -49.5023 -49.4947 -49.4861 -49.4782 -49.4723 -49.4682 -49.4569 -49.4506
   -49.4431 -49.4292 -49.4261 -49.4196 -49.3965 -49.3916 -49.3518 -49.3243
   -49.3240 -49.3166 -49.3110 -49.3090 -49.2959 -49.2910 -49.2883 -49.2830
   -49.2771 -49.2703 -49.2693 -49.2626 -49.2486 -49.2322 -49.2181 -49.2060
   -49.1748 -49.1512 -49.1359 -49.1261 -49.1155 -49.0986 -49.0625 -49.0540
   -49.0518 -49.0341 -49.0314 -49.0272 -49.0235 -49.0221 -49.0216 -49.0153
   -49.0126 -49.0118 -49.0073 -49.0026 -49.0017 -48.8311 -48.8256 -48.8234
   -15.0035  -5.5166  -4.9777  -4.4804  -4.2362  -3.7608  -3.4105  -3.3586
    -3.3475  -3.2425  -3.2036  -3.1440  -3.0914  -3.0298  -3.0172  -2.9009
    -2.8270  -2.8202  -2.7529  -2.7145  -2.6807  -2.6688  -2.6469  -2.6118
    -2.5565  -2.5206  -2.4597  -2.4442  -2.3839  -2.3420  -2.2909  -2.2269
    -2.2072  -2.1862  -2.1369  -2.1196  -2.0190  -1.9783  -1.8988  -1.8530
    -1.7171  -1.6602  -1.6417  -1.5752  -1.5570  -1.5471  -1.5316  -1.4522
    -1.4370  -1.3953  -1.3576  -1.3013  -1.2402  -1.2084  -1.1880  -1.1556
    -1.1361  -1.1087  -1.0596  -1.0336  -0.9919  -0.9469  -0.8882  -0.8645
    -0.8593  -0.8091  -0.7812  -0.6787  -0.6428  -0.6215  -0.5680  -0.5525
    -0.5455  -0.5175  -0.4853  -0.4692  -0.4337  -0.4065  -0.3737  -0.3577
    -0.2876  -0.2659  -0.2483  -0.2248  -0.2191  -0.1834  -0.1057  -0.0812
    -0.0606  -0.0499  -0.0308   0.0265   0.0328   0.0446   0.0594   0.0684
     0.0693   0.0814   0.0905   0.1055   0.1206   0.1419   0.1787   0.1880
     0.2048   0.2243   0.2538   0.2918   0.3197   0.3431   0.3809   0.4350
     0.4685   0.4904   0.5795   0.5967   0.6314   0.7315   0.8016   0.8304
     0.8617   0.8863   0.9086   0.9444   0.9675   0.9742   1.0349   1.0618
     1.0757   1.0952   1.1221   1.1601   1.1969   1.2058   1.2681   1.3083
     1.3464   1.4644   1.4882   1.5029   1.5327   1.5826   1.6192   1.6288
     1.6448   1.6703   1.6980   1.7098   1.7473   1.8147   1.8452   1.8746
     1.8873   1.8986   1.9195   1.9419   1.9555   2.0723   2.1039   2.1633
     2.2300   2.2490   2.3313   2.3618   2.3793   2.4389   2.4481   2.4733
     2.5633   2.6048   2.6356   2.6746   2.6897   2.7004   2.7036   2.7154
     2.7899   2.8156   2.8179   2.8573   2.8649   2.8894   2.9389   2.9503
     3.0159   3.0260   3.1049   3.1157   3.1503   3.1736   3.1936   3.2034
     3.2549   3.2792   3.3317   3.9273   4.1942   4.2127   4.2657   4.3357
     4.6200   4.7784   4.8407   5.1402   5.1905   5.2261   5.2670   5.3596
     5.6207   5.7467   5.8352   6.0654   6.3578   6.4352   6.4872   6.6242
     6.8058   7.0997   7.2802   7.5251   7.5821   7.6165   8.3431   8.5948
     8.6135   8.6759   8.8603   9.1024   9.1934   9.2181   9.4427   9.4740
     9.5873   9.7157   9.8310   9.9400  10.0720  10.0841  10.1737  10.4277
    10.5303  10.8202  10.8352  10.9218  10.9360  10.9904  11.1113  11.1310

     occupation numbers 
     1.0000   1.0000   1.0000   1.0000   1.0000   1.0000   1.0000   1.0000
     1.0000   1.0000   1.0000   1.0000   1.0000   1.0000   1.0000   1.0000
     1.0000   1.0000   1.0000   1.0000   1.0000   1.0000   1.0000   1.0000
     1.0000   1.0000   1.0000   1.0000   1.0000   1.0000   1.0000   1.0000
     1.0000   1.0000   1.0000   1.0000   1.0000   1.0000   1.0000   1.0000
     1.0000   1.0000   1.0000   1.0000   1.0000   1.0000   1.0000   1.0000
     1.0000   1.0000   1.0000   1.0000   1.0000   1.0000   1.0000   1.0000
     1.0000   1.0000   1.0000   1.0000   1.0000   1.0000   1.0000   1.0000
     1.0000   1.0000   1.0000   1.0000   1.0000   1.0000   1.0000   1.0000
     1.0000   1.0000   1.0000   1.0000   1.0000   1.0000   1.0000   1.0000
     1.0000   1.0000   1.0000   1.0000   1.0000   1.0000   1.0000   1.0000
     1.0000   1.0000   1.0000   1.0000   1.0000   1.0000   1.0000   1.0000
     1.0000   1.0000   1.0000   1.0000   1.0000   1.0000   1.0000   1.0000
     1.0000   1.0000   1.0000   1.0000   1.0000   1.0000   1.0000   1.0000
     1.0000   1.0000   1.0000   1.0000   1.0000   1.0000   1.0000   1.0000
     1.0000   1.0000   1.0000   1.0000   1.0000   1.0000   1.0000   1.0000
     1.0000   1.0000   1.0000   1.0000   1.0000   1.0000   1.0000   1.0000
     1.0000   1.0000   1.0000   1.0000   1.0000   1.0000   1.0000   1.0000
     1.0000   1.0000   1.0000   1.0000   1.0000   1.0000   1.0000   1.0000
     1.0000   1.0000   1.0000   1.0000   1.0000   1.0000   1.0000   1.0000
     1.0000   1.0000   1.0000   1.0000   1.0000   1.0000   1.0000   1.0000
     1.0000   1.0000   1.0000   1.0000   1.0000   1.0000   1.0000   1.0000
     1.0000   1.0000   1.0000   1.0000   1.0000   1.0000   1.0000   1.0000
     1.0000   1.0000   1.0000   1.0000   1.0000   1.0000   1.0000   1.0000
     1.0000   1.0000   1.0000   1.0000   1.0000   1.0000   1.0000   1.0000
     1.0000   1.0000   1.0000   1.0000   1.0000   1.0000   1.0000   1.0000
     1.0000   1.0000   1.0000   1.0000   1.0000   1.0000   1.0000   1.0000
     1.0000   1.0000   1.0000   1.0000   1.0000   1.0000   1.0000   1.0000
     1.0000   1.0000   1.0000   1.0000   1.0000   1.0000   1.0000   1.0000
     1.0000   1.0000   1.0000   1.0000   1.0000   1.0000   1.0000   1.0000
     1.0000   1.0000   1.0000   1.0000   1.0000   1.0000   1.0000   1.0000
     1.0000   1.0000   1.0000   1.0000   1.0000   1.0000   1.0000   1.0000
     1.0000   1.0000   1.0000   1.0000   1.0000   1.0000   1.0000   1.0000
     1.0000   1.0000   1.0000   1.0000   1.0000   1.0000   1.0000   1.0000
     1.0000   1.0000   1.0000   1.0000   1.0000   1.0000   1.0000   1.0000
     1.0000   1.0000   1.0000   1.0000   1.0000   1.0000   1.0000   1.0000
     1.0000   1.0000   1.0000   1.0000   1.0000   1.0000   1.0000   1.0000
     1.0000   1.0000   1.0000   1.0000   1.0000   1.0000   1.0000   1.0000
     1.0000   1.0000   1.0000   1.0000   1.0000   0.9999   0.9999   0.9998
     0.9990   0.9977   0.9958   0.9909   0.9878   0.9849   0.9839   0.9797
     0.9158   0.8670   0.8616   0.7388   0.7086   0.5979   0.3561   0.3057
     0.1060   0.0883   0.0196   0.0159   0.0080   0.0050   0.0034   0.0028
     0.0010   0.0006   0.0002   0.0000   0.0000   0.0000   0.0000   0.0000
     0.0000   0.0000   0.0000   0.0000   0.0000   0.0000   0.0000   0.0000
     0.0000   0.0000   0.0000   0.0000   0.0000   0.0000   0.0000   0.0000
     0.0000   0.0000   0.0000   0.0000   0.0000   0.0000   0.0000   0.0000
     0.0000   0.0000   0.0000   0.0000   0.0000   0.0000   0.0000   0.0000
     0.0000   0.0000   0.0000   0.0000   0.0000   0.0000   0.0000   0.0000
     0.0000   0.0000   0.0000   0.0000   0.0000   0.0000   0.0000   0.0000

          k = 0.3333-0.5774 0.0000 ( 88062 PWs)   bands (ev):

   -95.5540 -95.5517 -95.5452 -95.5438 -95.5430 -95.5394 -95.5364 -95.5354
   -95.5238 -95.5196 -95.5194 -95.5177 -95.5159 -95.5147 -95.5113 -95.5111
   -95.5104 -95.4084 -95.1537 -95.1478 -95.1470 -95.1141 -95.1070 -95.1051
   -95.1005 -95.0998 -95.0962 -95.0899 -95.0897 -95.0896 -95.0850 -95.0816
   -95.0808 -94.9135 -94.9109 -94.9092 -49.8610 -49.8548 -49.8527 -49.8314
   -49.8302 -49.8254 -49.8058 -49.7972 -49.7897 -49.7887 -49.7866 -49.7849
   -49.7744 -49.7689 -49.7625 -49.7054 -49.7031 -49.7020 -49.6859 -49.6810
   -49.6769 -49.6691 -49.6663 -49.6646 -49.6606 -49.6569 -49.6502 -49.6448
   -49.6441 -49.6380 -49.6340 -49.6332 -49.6309 -49.6245 -49.6185 -49.6177
   -49.6161 -49.6100 -49.6086 -49.6019 -49.6015 -49.5994 -49.5912 -49.5903
   -49.5891 -49.5830 -49.5773 -49.5761 -49.5611 -49.5596 -49.5484 -49.5121
   -49.5095 -49.4925 -49.4919 -49.4784 -49.4765 -49.4651 -49.4633 -49.4622
   -49.4441 -49.4138 -49.4117 -49.4113 -49.4106 -49.4093 -49.3383 -49.3309
   -49.3060 -49.2966 -49.2952 -49.2946 -49.2944 -49.2873 -49.2854 -49.2852
   -49.2837 -49.2835 -49.2815 -49.2813 -49.2614 -49.2192 -49.2170 -49.2168
   -49.1676 -49.1486 -49.1470 -49.1241 -49.1124 -49.1043 -49.0623 -49.0541
   -49.0519 -49.0339 -49.0292 -49.0288 -49.0238 -49.0235 -49.0217 -49.0132
   -49.0130 -49.0123 -49.0072 -49.0029 -49.0016 -48.8311 -48.8256 -48.8234
   -15.0035  -5.0856  -5.0723  -5.0091  -3.8592  -3.8446  -3.7450  -3.2189
    -3.1994  -3.1960  -3.0756  -3.0736  -3.0468  -2.9246  -2.8937  -2.8520
    -2.7742  -2.7525  -2.7446  -2.7352  -2.7343  -2.7160  -2.7047  -2.6878
    -2.6048  -2.5770  -2.5560  -2.5137  -2.3468  -2.3396  -2.3210  -2.2636
    -2.2563  -2.2346  -2.2055  -2.1652  -2.1598  -1.7917  -1.7861  -1.7514
    -1.7362  -1.6831  -1.6734  -1.6705  -1.6444  -1.6390  -1.3141  -1.3108
    -1.2998  -1.2970  -1.2827  -1.2672  -1.2193  -1.2106  -1.2025  -1.1724
    -1.1335  -1.1068  -1.0776  -1.0761  -1.0412  -1.0208  -1.0000  -0.9981
    -0.8257  -0.7871  -0.7631  -0.7395  -0.7224  -0.6910  -0.5941  -0.5859
    -0.5830  -0.5742  -0.5613  -0.4715  -0.3793  -0.3697  -0.3464  -0.3238
    -0.3113  -0.2561  -0.2533  -0.2464  -0.2252  -0.2212  -0.2111  -0.2018
    -0.1804  -0.0995  -0.0830  -0.0359  -0.0231  -0.0192   0.0479   0.0693
     0.0703   0.1208   0.1462   0.1629   0.1658   0.1700   0.1853   0.1974
     0.2019   0.2034   0.2373   0.2469   0.2722   0.3435   0.3567   0.3873
     0.3894   0.4013   0.4134   0.7565   0.7817   0.7991   0.8115   0.8295
     0.8313   0.8412   0.8547   0.8926   0.9087   0.9130   0.9191   1.0665
     1.0774   1.0897   1.1190   1.1477   1.1499   1.1823   1.2755   1.2798
     1.3903   1.4002   1.4088   1.5801   1.5896   1.5937   1.6432   1.6595
     1.6809   1.6899   1.7147   1.7166   1.7408   1.7479   1.7491   1.8308
     1.8614   1.8872   1.9948   2.0156   2.0571   2.0846   2.0878   2.0968
     2.1092   2.1214   2.1315   2.5041   2.5171   2.5220   2.5329   2.5479
     2.5602   2.6431   2.6524   2.6551   2.7173   2.7463   2.7488   2.8212
     2.8247   2.8255   2.9016   2.9041   2.9163   2.9196   2.9347   2.9388
     3.0255   3.0343   3.0408   3.0999   3.1022   3.1148   3.1427   3.1535
     3.1745   3.9662   3.9677   3.9798   4.2350   4.2469   4.2591   4.6882
     4.6944   4.7401   5.2456   5.2541   5.2632   5.2803   5.2970   5.3175
     6.0490   6.0552   6.0594   6.4449   6.4629   6.4707   6.5459   6.5675
     6.5970   6.6628   6.6800   6.7021   7.2673   7.2959   7.2981   8.6194
     8.6238   8.6491   8.8004   8.8516   8.8763   9.5067   9.5241   9.5372
     9.5646   9.5850   9.6146  10.2756  10.3735  10.3772  10.3982  10.5124
    10.5241  10.7957  10.8258  10.8493  11.0982  11.1407  11.2195  11.2208

     occupation numbers 
     1.0000   1.0000   1.0000   1.0000   1.0000   1.0000   1.0000   1.0000
     1.0000   1.0000   1.0000   1.0000   1.0000   1.0000   1.0000   1.0000
     1.0000   1.0000   1.0000   1.0000   1.0000   1.0000   1.0000   1.0000
     1.0000   1.0000   1.0000   1.0000   1.0000   1.0000   1.0000   1.0000
     1.0000   1.0000   1.0000   1.0000   1.0000   1.0000   1.0000   1.0000
     1.0000   1.0000   1.0000   1.0000   1.0000   1.0000   1.0000   1.0000
     1.0000   1.0000   1.0000   1.0000   1.0000   1.0000   1.0000   1.0000
     1.0000   1.0000   1.0000   1.0000   1.0000   1.0000   1.0000   1.0000
     1.0000   1.0000   1.0000   1.0000   1.0000   1.0000   1.0000   1.0000
     1.0000   1.0000   1.0000   1.0000   1.0000   1.0000   1.0000   1.0000
     1.0000   1.0000   1.0000   1.0000   1.0000   1.0000   1.0000   1.0000
     1.0000   1.0000   1.0000   1.0000   1.0000   1.0000   1.0000   1.0000
     1.0000   1.0000   1.0000   1.0000   1.0000   1.0000   1.0000   1.0000
     1.0000   1.0000   1.0000   1.0000   1.0000   1.0000   1.0000   1.0000
     1.0000   1.0000   1.0000   1.0000   1.0000   1.0000   1.0000   1.0000
     1.0000   1.0000   1.0000   1.0000   1.0000   1.0000   1.0000   1.0000
     1.0000   1.0000   1.0000   1.0000   1.0000   1.0000   1.0000   1.0000
     1.0000   1.0000   1.0000   1.0000   1.0000   1.0000   1.0000   1.0000
     1.0000   1.0000   1.0000   1.0000   1.0000   1.0000   1.0000   1.0000
     1.0000   1.0000   1.0000   1.0000   1.0000   1.0000   1.0000   1.0000
     1.0000   1.0000   1.0000   1.0000   1.0000   1.0000   1.0000   1.0000
     1.0000   1.0000   1.0000   1.0000   1.0000   1.0000   1.0000   1.0000
     1.0000   1.0000   1.0000   1.0000   1.0000   1.0000   1.0000   1.0000
     1.0000   1.0000   1.0000   1.0000   1.0000   1.0000   1.0000   1.0000
     1.0000   1.0000   1.0000   1.0000   1.0000   1.0000   1.0000   1.0000
     1.0000   1.0000   1.0000   1.0000   1.0000   1.0000   1.0000   1.0000
     1.0000   1.0000   1.0000   1.0000   1.0000   1.0000   1.0000   1.0000
     1.0000   1.0000   1.0000   1.0000   1.0000   1.0000   1.0000   1.0000
     1.0000   1.0000   1.0000   1.0000   1.0000   1.0000   1.0000   1.0000
     1.0000   1.0000   1.0000   1.0000   1.0000   1.0000   1.0000   1.0000
     1.0000   1.0000   1.0000   1.0000   1.0000   1.0000   1.0000   1.0000
     1.0000   1.0000   1.0000   1.0000   1.0000   1.0000   1.0000   1.0000
     1.0000   1.0000   1.0000   1.0000   1.0000   1.0000   1.0000   1.0000
     1.0000   1.0000   1.0000   1.0000   1.0000   1.0000   1.0000   1.0000
     1.0000   1.0000   1.0000   1.0000   1.0000   1.0000   1.0000   1.0000
     1.0000   1.0000   1.0000   1.0000   1.0000   1.0000   1.0000   1.0000
     1.0000   1.0000   1.0000   1.0000   1.0000   1.0000   1.0000   1.0000
     1.0000   1.0000   1.0000   1.0000   1.0000   1.0000   1.0000   1.0000
     1.0000   1.0000   1.0000   0.9997   0.9996   0.9996   0.9995   0.9993
     0.9991   0.9951   0.9942   0.9938   0.9790   0.9630   0.9612   0.8535
     0.8445   0.8423   0.5383   0.5260   0.4649   0.4484   0.3755   0.3565
     0.0892   0.0758   0.0671   0.0216   0.0207   0.0161   0.0093   0.0075
     0.0049   0.0000   0.0000   0.0000   0.0000   0.0000   0.0000   0.0000
     0.0000   0.0000   0.0000   0.0000   0.0000   0.0000   0.0000   0.0000
     0.0000   0.0000   0.0000   0.0000   0.0000   0.0000   0.0000   0.0000
     0.0000   0.0000   0.0000   0.0000   0.0000   0.0000   0.0000   0.0000
     0.0000   0.0000   0.0000   0.0000   0.0000   0.0000   0.0000   0.0000
     0.0000   0.0000   0.0000   0.0000   0.0000   0.0000   0.0000   0.0000
     0.0000   0.0000   0.0000   0.0000   0.0000   0.0000   0.0000   0.0000

          k = 0.3333-0.3849 0.0000 ( 88140 PWs)   bands (ev):

   -95.5545 -95.5513 -95.5449 -95.5439 -95.5430 -95.5393 -95.5365 -95.5355
   -95.5238 -95.5196 -95.5193 -95.5178 -95.5157 -95.5149 -95.5117 -95.5112
   -95.5101 -95.4084 -95.1538 -95.1478 -95.1470 -95.1141 -95.1070 -95.1051
   -95.1017 -95.0989 -95.0954 -95.0911 -95.0897 -95.0891 -95.0851 -95.0815
   -95.0809 -94.9135 -94.9109 -94.9092 -49.8621 -49.8506 -49.8433 -49.8335
   -49.8236 -49.8174 -49.8101 -49.8015 -49.7956 -49.7903 -49.7879 -49.7840
   -49.7739 -49.7611 -49.7575 -49.7094 -49.7026 -49.6994 -49.6962 -49.6895
   -49.6866 -49.6806 -49.6748 -49.6675 -49.6616 -49.6586 -49.6529 -49.6477
   -49.6425 -49.6383 -49.6343 -49.6294 -49.6256 -49.6233 -49.6212 -49.6182
   -49.6145 -49.6082 -49.6044 -49.6032 -49.5985 -49.5941 -49.5892 -49.5867
   -49.5843 -49.5833 -49.5804 -49.5750 -49.5629 -49.5556 -49.5431 -49.5177
   -49.5023 -49.4946 -49.4861 -49.4782 -49.4723 -49.4682 -49.4569 -49.4506
   -49.4431 -49.4292 -49.4261 -49.4196 -49.3965 -49.3916 -49.3518 -49.3243
   -49.3240 -49.3166 -49.3110 -49.3090 -49.2959 -49.2910 -49.2883 -49.2830
   -49.2771 -49.2703 -49.2693 -49.2626 -49.2486 -49.2322 -49.2181 -49.2060
   -49.1748 -49.1512 -49.1359 -49.1261 -49.1155 -49.0986 -49.0625 -49.0540
   -49.0518 -49.0341 -49.0314 -49.0272 -49.0235 -49.0221 -49.0216 -49.0153
   -49.0126 -49.0118 -49.0073 -49.0026 -49.0017 -48.8311 -48.8256 -48.8234
   -15.0035  -5.5166  -4.9777  -4.4804  -4.2362  -3.7608  -3.4105  -3.3586
    -3.3475  -3.2426  -3.2036  -3.1440  -3.0914  -3.0298  -3.0172  -2.9009
    -2.8270  -2.8202  -2.7529  -2.7145  -2.6807  -2.6688  -2.6469  -2.6118
    -2.5565  -2.5206  -2.4597  -2.4442  -2.3839  -2.3420  -2.2910  -2.2270
    -2.2073  -2.1862  -2.1369  -2.1196  -2.0190  -1.9783  -1.8988  -1.8530
    -1.7171  -1.6602  -1.6417  -1.5752  -1.5570  -1.5471  -1.5316  -1.4522
    -1.4371  -1.3953  -1.3576  -1.3013  -1.2402  -1.2084  -1.1880  -1.1556
    -1.1361  -1.1088  -1.0596  -1.0336  -0.9920  -0.9469  -0.8882  -0.8645
    -0.8593  -0.8091  -0.7812  -0.6787  -0.6428  -0.6214  -0.5679  -0.5525
    -0.5455  -0.5175  -0.4853  -0.4693  -0.4337  -0.4065  -0.3737  -0.3577
    -0.2876  -0.2660  -0.2484  -0.2248  -0.2191  -0.1834  -0.1057  -0.0811
    -0.0606  -0.0499  -0.0308   0.0265   0.0328   0.0446   0.0594   0.0683
     0.0694   0.0814   0.0906   0.1056   0.1206   0.1419   0.1787   0.1880
     0.2048   0.2242   0.2538   0.2918   0.3197   0.3431   0.3809   0.4350
     0.4685   0.4904   0.5795   0.5967   0.6314   0.7314   0.8016   0.8304
     0.8617   0.8863   0.9087   0.9444   0.9675   0.9742   1.0348   1.0617
     1.0757   1.0952   1.1221   1.1601   1.1969   1.2058   1.2681   1.3083
     1.3464   1.4644   1.4882   1.5029   1.5328   1.5825   1.6192   1.6288
     1.6448   1.6703   1.6980   1.7098   1.7473   1.8146   1.8451   1.8747
     1.8873   1.8986   1.9195   1.9419   1.9555   2.0723   2.1040   2.1632
     2.2300   2.2490   2.3313   2.3618   2.3792   2.4389   2.4481   2.4733
     2.5633   2.6048   2.6356   2.6746   2.6898   2.7005   2.7036   2.7154
     2.7899   2.8156   2.8179   2.8573   2.8648   2.8894   2.9389   2.9503
     3.0159   3.0260   3.1049   3.1157   3.1503   3.1736   3.1936   3.2033
     3.2549   3.2792   3.3317   3.9273   4.1942   4.2127   4.2657   4.3357
     4.6200   4.7784   4.8407   5.1402   5.1905   5.2261   5.2670   5.3596
     5.6206   5.7466   5.8353   6.0655   6.3579   6.4352   6.4872   6.6241
     6.8058   7.0997   7.2802   7.5252   7.5821   7.6165   8.3431   8.5949
     8.6136   8.6759   8.8603   9.1024   9.1934   9.2181   9.4427   9.4741
     9.5873   9.7157   9.8309   9.9400  10.0720  10.0841  10.1737  10.4277
    10.5303  10.8202  10.8351  10.9218  10.9361  10.9903  11.1100  11.1292

     occupation numbers 
     1.0000   1.0000   1.0000   1.0000   1.0000   1.0000   1.0000   1.0000
     1.0000   1.0000   1.0000   1.0000   1.0000   1.0000   1.0000   1.0000
     1.0000   1.0000   1.0000   1.0000   1.0000   1.0000   1.0000   1.0000
     1.0000   1.0000   1.0000   1.0000   1.0000   1.0000   1.0000   1.0000
     1.0000   1.0000   1.0000   1.0000   1.0000   1.0000   1.0000   1.0000
     1.0000   1.0000   1.0000   1.0000   1.0000   1.0000   1.0000   1.0000
     1.0000   1.0000   1.0000   1.0000   1.0000   1.0000   1.0000   1.0000
     1.0000   1.0000   1.0000   1.0000   1.0000   1.0000   1.0000   1.0000
     1.0000   1.0000   1.0000   1.0000   1.0000   1.0000   1.0000   1.0000
     1.0000   1.0000   1.0000   1.0000   1.0000   1.0000   1.0000   1.0000
     1.0000   1.0000   1.0000   1.0000   1.0000   1.0000   1.0000   1.0000
     1.0000   1.0000   1.0000   1.0000   1.0000   1.0000   1.0000   1.0000
     1.0000   1.0000   1.0000   1.0000   1.0000   1.0000   1.0000   1.0000
     1.0000   1.0000   1.0000   1.0000   1.0000   1.0000   1.0000   1.0000
     1.0000   1.0000   1.0000   1.0000   1.0000   1.0000   1.0000   1.0000
     1.0000   1.0000   1.0000   1.0000   1.0000   1.0000   1.0000   1.0000
     1.0000   1.0000   1.0000   1.0000   1.0000   1.0000   1.0000   1.0000
     1.0000   1.0000   1.0000   1.0000   1.0000   1.0000   1.0000   1.0000
     1.0000   1.0000   1.0000   1.0000   1.0000   1.0000   1.0000   1.0000
     1.0000   1.0000   1.0000   1.0000   1.0000   1.0000   1.0000   1.0000
     1.0000   1.0000   1.0000   1.0000   1.0000   1.0000   1.0000   1.0000
     1.0000   1.0000   1.0000   1.0000   1.0000   1.0000   1.0000   1.0000
     1.0000   1.0000   1.0000   1.0000   1.0000   1.0000   1.0000   1.0000
     1.0000   1.0000   1.0000   1.0000   1.0000   1.0000   1.0000   1.0000
     1.0000   1.0000   1.0000   1.0000   1.0000   1.0000   1.0000   1.0000
     1.0000   1.0000   1.0000   1.0000   1.0000   1.0000   1.0000   1.0000
     1.0000   1.0000   1.0000   1.0000   1.0000   1.0000   1.0000   1.0000
     1.0000   1.0000   1.0000   1.0000   1.0000   1.0000   1.0000   1.0000
     1.0000   1.0000   1.0000   1.0000   1.0000   1.0000   1.0000   1.0000
     1.0000   1.0000   1.0000   1.0000   1.0000   1.0000   1.0000   1.0000
     1.0000   1.0000   1.0000   1.0000   1.0000   1.0000   1.0000   1.0000
     1.0000   1.0000   1.0000   1.0000   1.0000   1.0000   1.0000   1.0000
     1.0000   1.0000   1.0000   1.0000   1.0000   1.0000   1.0000   1.0000
     1.0000   1.0000   1.0000   1.0000   1.0000   1.0000   1.0000   1.0000
     1.0000   1.0000   1.0000   1.0000   1.0000   1.0000   1.0000   1.0000
     1.0000   1.0000   1.0000   1.0000   1.0000   1.0000   1.0000   1.0000
     1.0000   1.0000   1.0000   1.0000   1.0000   1.0000   1.0000   1.0000
     1.0000   1.0000   1.0000   1.0000   1.0000   1.0000   1.0000   1.0000
     1.0000   1.0000   1.0000   1.0000   1.0000   0.9999   0.9999   0.9998
     0.9990   0.9977   0.9958   0.9909   0.9878   0.9849   0.9839   0.9797
     0.9158   0.8670   0.8616   0.7387   0.7086   0.5980   0.3560   0.3057
     0.1060   0.0883   0.0196   0.0159   0.0080   0.0050   0.0034   0.0028
     0.0010   0.0006   0.0002   0.0000   0.0000   0.0000   0.0000   0.0000
     0.0000   0.0000   0.0000   0.0000   0.0000   0.0000   0.0000   0.0000
     0.0000   0.0000   0.0000   0.0000   0.0000   0.0000   0.0000   0.0000
     0.0000   0.0000   0.0000   0.0000   0.0000   0.0000   0.0000   0.0000
     0.0000   0.0000   0.0000   0.0000   0.0000   0.0000   0.0000   0.0000
     0.0000   0.0000   0.0000   0.0000   0.0000   0.0000   0.0000   0.0000
     0.0000   0.0000   0.0000   0.0000   0.0000   0.0000   0.0000   0.0000

          k =-0.5000 0.2887 0.0000 ( 88178 PWs)   bands (ev):

   -95.5545 -95.5514 -95.5447 -95.5441 -95.5431 -95.5394 -95.5366 -95.5354
   -95.5238 -95.5196 -95.5193 -95.5178 -95.5153 -95.5152 -95.5120 -95.5108
   -95.5102 -95.4084 -95.1538 -95.1478 -95.1469 -95.1141 -95.1071 -95.1051
   -95.1015 -95.0994 -95.0944 -95.0922 -95.0895 -95.0889 -95.0851 -95.0814
   -95.0810 -94.9135 -94.9109 -94.9092 -49.8662 -49.8455 -49.8380 -49.8331
   -49.8195 -49.8155 -49.8137 -49.8119 -49.7964 -49.7943 -49.7927 -49.7897
   -49.7680 -49.7574 -49.7312 -49.7305 -49.6987 -49.6977 -49.6912 -49.6902
   -49.6878 -49.6807 -49.6785 -49.6739 -49.6693 -49.6593 -49.6551 -49.6453
   -49.6402 -49.6353 -49.6346 -49.6292 -49.6276 -49.6191 -49.6183 -49.6144
   -49.6101 -49.6086 -49.6047 -49.6017 -49.5973 -49.5944 -49.5925 -49.5901
   -49.5857 -49.5805 -49.5790 -49.5757 -49.5693 -49.5559 -49.5372 -49.5234
   -49.4999 -49.4970 -49.4836 -49.4804 -49.4728 -49.4628 -49.4439 -49.4436
   -49.4417 -49.4407 -49.4388 -49.4383 -49.3846 -49.3589 -49.3586 -49.3538
   -49.3228 -49.3162 -49.3033 -49.3030 -49.3004 -49.2999 -49.2981 -49.2714
   -49.2658 -49.2645 -49.2642 -49.2636 -49.2504 -49.2502 -49.2108 -49.2078
   -49.1773 -49.1468 -49.1329 -49.1254 -49.1237 -49.0961 -49.0625 -49.0542
   -49.0516 -49.0341 -49.0311 -49.0283 -49.0236 -49.0216 -49.0199 -49.0175
   -49.0122 -49.0114 -49.0073 -49.0024 -49.0020 -48.8311 -48.8256 -48.8234
   -15.0035  -5.3564  -5.3082  -4.1071  -4.0465  -3.8999  -3.8868  -3.4812
    -3.3192  -3.0433  -3.0138  -2.9785  -2.9672  -2.9502  -2.9384  -2.9296
    -2.9083  -2.8907  -2.8707  -2.8211  -2.7809  -2.7631  -2.7318  -2.7263
    -2.6270  -2.5389  -2.4037  -2.4015  -2.3654  -2.3630  -2.1398  -2.1356
    -2.1123  -2.0826  -2.0580  -2.0483  -1.9832  -1.9775  -1.8433  -1.8335
    -1.7612  -1.7495  -1.7449  -1.6681  -1.6620  -1.5338  -1.5327  -1.4982
    -1.4727  -1.4102  -1.3783  -1.2731  -1.2698  -1.2546  -1.1988  -1.1489
    -1.1396  -1.1131  -1.1087  -1.0054  -0.9913  -0.9323  -0.8917  -0.8673
    -0.8224  -0.8045  -0.6907  -0.6549  -0.6504  -0.6434  -0.6087  -0.5982
    -0.5931  -0.5838  -0.5456  -0.3742  -0.3533  -0.3315  -0.3300  -0.3260
    -0.3252  -0.2942  -0.2812  -0.2779  -0.2442  -0.2294  -0.1562  -0.1546
    -0.1119  -0.1052  -0.0923  -0.0622  -0.0005   0.0460   0.0586   0.0688
     0.0699   0.1146   0.1346   0.1454   0.1518   0.1624   0.1684   0.1850
     0.2159   0.2552   0.2772   0.3975   0.4140   0.4206   0.5102   0.5938
     0.6462   0.6996   0.7191   0.7396   0.7460   0.8141   0.8311   0.8432
     0.8583   0.8641   0.8664   0.8896   0.9031   0.9327   0.9484   0.9816
     1.0311   1.0319   1.0556   1.0594   1.1136   1.1713   1.1993   1.2138
     1.2495   1.2754   1.4167   1.4365   1.5769   1.6276   1.6397   1.6450
     1.6466   1.6776   1.7730   1.8009   1.8769   1.8843   1.8975   1.9022
     1.9138   1.9330   2.0028   2.0153   2.0366   2.0370   2.0561   2.1389
     2.1592   2.2108   2.2496   2.2945   2.3764   2.4246   2.4252   2.4341
     2.5238   2.5404   2.6162   2.6172   2.6286   2.6350   2.6884   2.6914
     2.7083   2.7212   2.7330   2.7789   2.9015   2.9106   2.9130   2.9293
     2.9351   2.9420   2.9965   3.1637   3.1903   3.1957   3.2049   3.2081
     3.4124   3.4496   3.7154   3.7296   3.9104   4.3847   4.4341   4.7733
     4.7767   4.7793   4.7847   5.2505   5.2609   5.2733   5.2905   5.3133
     5.5990   5.7769   5.7812   5.8961   6.1638   6.1930   6.3289   6.3517
     6.3654   6.4088   8.2419   8.2434   8.2758   8.3003   8.5102   8.5411
     8.6265   8.7846   8.8139   8.8295   8.8582   8.8848   9.3178   9.3271
     9.3630   9.7510   9.7571   9.8216   9.8718  10.2400  10.3403  10.3797
    10.4331  10.6014  10.7859  10.8512  10.8824  10.8868  10.9908  10.9923

     occupation numbers 
     1.0000   1.0000   1.0000   1.0000   1.0000   1.0000   1.0000   1.0000
     1.0000   1.0000   1.0000   1.0000   1.0000   1.0000   1.0000   1.0000
     1.0000   1.0000   1.0000   1.0000   1.0000   1.0000   1.0000   1.0000
     1.0000   1.0000   1.0000   1.0000   1.0000   1.0000   1.0000   1.0000
     1.0000   1.0000   1.0000   1.0000   1.0000   1.0000   1.0000   1.0000
     1.0000   1.0000   1.0000   1.0000   1.0000   1.0000   1.0000   1.0000
     1.0000   1.0000   1.0000   1.0000   1.0000   1.0000   1.0000   1.0000
     1.0000   1.0000   1.0000   1.0000   1.0000   1.0000   1.0000   1.0000
     1.0000   1.0000   1.0000   1.0000   1.0000   1.0000   1.0000   1.0000
     1.0000   1.0000   1.0000   1.0000   1.0000   1.0000   1.0000   1.0000
     1.0000   1.0000   1.0000   1.0000   1.0000   1.0000   1.0000   1.0000
     1.0000   1.0000   1.0000   1.0000   1.0000   1.0000   1.0000   1.0000
     1.0000   1.0000   1.0000   1.0000   1.0000   1.0000   1.0000   1.0000
     1.0000   1.0000   1.0000   1.0000   1.0000   1.0000   1.0000   1.0000
     1.0000   1.0000   1.0000   1.0000   1.0000   1.0000   1.0000   1.0000
     1.0000   1.0000   1.0000   1.0000   1.0000   1.0000   1.0000   1.0000
     1.0000   1.0000   1.0000   1.0000   1.0000   1.0000   1.0000   1.0000
     1.0000   1.0000   1.0000   1.0000   1.0000   1.0000   1.0000   1.0000
     1.0000   1.0000   1.0000   1.0000   1.0000   1.0000   1.0000   1.0000
     1.0000   1.0000   1.0000   1.0000   1.0000   1.0000   1.0000   1.0000
     1.0000   1.0000   1.0000   1.0000   1.0000   1.0000   1.0000   1.0000
     1.0000   1.0000   1.0000   1.0000   1.0000   1.0000   1.0000   1.0000
     1.0000   1.0000   1.0000   1.0000   1.0000   1.0000   1.0000   1.0000
     1.0000   1.0000   1.0000   1.0000   1.0000   1.0000   1.0000   1.0000
     1.0000   1.0000   1.0000   1.0000   1.0000   1.0000   1.0000   1.0000
     1.0000   1.0000   1.0000   1.0000   1.0000   1.0000   1.0000   1.0000
     1.0000   1.0000   1.0000   1.0000   1.0000   1.0000   1.0000   1.0000
     1.0000   1.0000   1.0000   1.0000   1.0000   1.0000   1.0000   1.0000
     1.0000   1.0000   1.0000   1.0000   1.0000   1.0000   1.0000   1.0000
     1.0000   1.0000   1.0000   1.0000   1.0000   1.0000   1.0000   1.0000
     1.0000   1.0000   1.0000   1.0000   1.0000   1.0000   1.0000   1.0000
     1.0000   1.0000   1.0000   1.0000   1.0000   1.0000   1.0000   1.0000
     1.0000   1.0000   1.0000   1.0000   1.0000   1.0000   1.0000   1.0000
     1.0000   1.0000   1.0000   1.0000   1.0000   1.0000   1.0000   1.0000
     1.0000   1.0000   1.0000   1.0000   1.0000   1.0000   1.0000   1.0000
     1.0000   1.0000   1.0000   1.0000   1.0000   1.0000   1.0000   1.0000
     1.0000   1.0000   1.0000   1.0000   1.0000   1.0000   1.0000   1.0000
     1.0000   1.0000   1.0000   1.0000   1.0000   1.0000   1.0000   1.0000
     1.0000   1.0000   1.0000   1.0000   1.0000   0.9999   0.9999   0.9999
     0.9996   0.9994   0.9972   0.9971   0.9964   0.9959   0.9881   0.9874
     0.9824   0.9773   0.9714   0.9314   0.5387   0.4932   0.4814   0.4013
     0.3737   0.3422   0.1489   0.0061   0.0036   0.0032   0.0027   0.0025
     0.0000   0.0000   0.0000   0.0000   0.0000   0.0000   0.0000   0.0000
     0.0000   0.0000   0.0000   0.0000   0.0000   0.0000   0.0000   0.0000
     0.0000   0.0000   0.0000   0.0000   0.0000   0.0000   0.0000   0.0000
     0.0000   0.0000   0.0000   0.0000   0.0000   0.0000   0.0000   0.0000
     0.0000   0.0000   0.0000   0.0000   0.0000   0.0000   0.0000   0.0000
     0.0000   0.0000   0.0000   0.0000   0.0000   0.0000   0.0000   0.0000
     0.0000   0.0000   0.0000   0.0000   0.0000   0.0000   0.0000   0.0000

          k =-0.5000 0.4811 0.0000 ( 88140 PWs)   bands (ev):

   -95.5545 -95.5513 -95.5449 -95.5439 -95.5430 -95.5393 -95.5366 -95.5354
   -95.5238 -95.5196 -95.5194 -95.5177 -95.5157 -95.5149 -95.5118 -95.5111
   -95.5101 -95.4084 -95.1538 -95.1478 -95.1469 -95.1141 -95.1071 -95.1051
   -95.1017 -95.0989 -95.0954 -95.0911 -95.0897 -95.0891 -95.0851 -95.0815
   -95.0809 -94.9135 -94.9109 -94.9092 -49.8620 -49.8496 -49.8440 -49.8336
   -49.8235 -49.8175 -49.8101 -49.8014 -49.7957 -49.7904 -49.7877 -49.7840
   -49.7742 -49.7614 -49.7575 -49.7103 -49.7028 -49.6990 -49.6959 -49.6890
   -49.6862 -49.6807 -49.6748 -49.6676 -49.6618 -49.6590 -49.6529 -49.6479
   -49.6423 -49.6382 -49.6340 -49.6291 -49.6257 -49.6233 -49.6211 -49.6182
   -49.6144 -49.6087 -49.6042 -49.6031 -49.5987 -49.5936 -49.5896 -49.5869
   -49.5838 -49.5834 -49.5803 -49.5747 -49.5632 -49.5559 -49.5432 -49.5175
   -49.5026 -49.4945 -49.4861 -49.4783 -49.4723 -49.4682 -49.4567 -49.4508
   -49.4431 -49.4291 -49.4259 -49.4199 -49.3968 -49.3917 -49.3517 -49.3242
   -49.3239 -49.3169 -49.3106 -49.3088 -49.2960 -49.2911 -49.2881 -49.2833
   -49.2773 -49.2702 -49.2693 -49.2628 -49.2484 -49.2322 -49.2180 -49.2062
   -49.1747 -49.1509 -49.1362 -49.1263 -49.1153 -49.0986 -49.0625 -49.0541
   -49.0517 -49.0341 -49.0315 -49.0272 -49.0236 -49.0221 -49.0215 -49.0152
   -49.0127 -49.0118 -49.0073 -49.0026 -49.0018 -48.8311 -48.8256 -48.8234
   -15.0035  -5.5167  -4.9775  -4.4807  -4.2363  -3.7607  -3.4105  -3.3582
    -3.3473  -3.2426  -3.2048  -3.1442  -3.0917  -3.0292  -3.0163  -2.9002
    -2.8276  -2.8206  -2.7530  -2.7151  -2.6821  -2.6688  -2.6466  -2.6117
    -2.5562  -2.5188  -2.4597  -2.4440  -2.3843  -2.3421  -2.2903  -2.2278
    -2.2074  -2.1861  -2.1374  -2.1205  -2.0189  -1.9771  -1.8987  -1.8531
    -1.7171  -1.6601  -1.6418  -1.5747  -1.5568  -1.5466  -1.5313  -1.4516
    -1.4372  -1.3954  -1.3576  -1.3020  -1.2397  -1.2080  -1.1882  -1.1565
    -1.1357  -1.1088  -1.0597  -1.0330  -0.9915  -0.9454  -0.8876  -0.8642
    -0.8583  -0.8097  -0.7797  -0.6782  -0.6443  -0.6221  -0.5680  -0.5526
    -0.5457  -0.5181  -0.4867  -0.4690  -0.4329  -0.4071  -0.3752  -0.3580
    -0.2877  -0.2659  -0.2471  -0.2251  -0.2188  -0.1833  -0.1058  -0.0825
    -0.0619  -0.0505  -0.0309   0.0265   0.0327   0.0448   0.0579   0.0684
     0.0693   0.0818   0.0896   0.1057   0.1205   0.1417   0.1800   0.1895
     0.2061   0.2251   0.2548   0.2910   0.3197   0.3423   0.3813   0.4346
     0.4683   0.4904   0.5787   0.5965   0.6312   0.7302   0.8014   0.8297
     0.8624   0.8869   0.9088   0.9435   0.9668   0.9742   1.0365   1.0627
     1.0756   1.0955   1.1217   1.1599   1.1967   1.2064   1.2680   1.3079
     1.3461   1.4646   1.4871   1.5029   1.5330   1.5814   1.6191   1.6285
     1.6428   1.6716   1.6988   1.7099   1.7466   1.8154   1.8458   1.8743
     1.8882   1.8990   1.9203   1.9423   1.9558   2.0717   2.1039   2.1650
     2.2292   2.2485   2.3312   2.3609   2.3783   2.4396   2.4481   2.4738
     2.5637   2.6042   2.6354   2.6756   2.6891   2.7005   2.7039   2.7164
     2.7879   2.8145   2.8180   2.8572   2.8653   2.8905   2.9377   2.9489
     3.0157   3.0283   3.1025   3.1139   3.1503   3.1735   3.1960   3.2056
     3.2551   3.2805   3.3317   3.9272   4.1934   4.2120   4.2656   4.3356
     4.6194   4.7794   4.8410   5.1419   5.1910   5.2261   5.2675   5.3601
     5.6205   5.7470   5.8341   6.0665   6.3565   6.4355   6.4866   6.6236
     6.8067   7.0981   7.2818   7.5227   7.5841   7.6159   8.3422   8.5929
     8.6124   8.6775   8.8605   9.1019   9.1925   9.2183   9.4441   9.4745
     9.5871   9.7179   9.8367   9.9403  10.0738  10.0800  10.1739  10.4300
    10.5301  10.8186  10.8346  10.9217  10.9360  10.9894  11.1093  11.1302

     occupation numbers 
     1.0000   1.0000   1.0000   1.0000   1.0000   1.0000   1.0000   1.0000
     1.0000   1.0000   1.0000   1.0000   1.0000   1.0000   1.0000   1.0000
     1.0000   1.0000   1.0000   1.0000   1.0000   1.0000   1.0000   1.0000
     1.0000   1.0000   1.0000   1.0000   1.0000   1.0000   1.0000   1.0000
     1.0000   1.0000   1.0000   1.0000   1.0000   1.0000   1.0000   1.0000
     1.0000   1.0000   1.0000   1.0000   1.0000   1.0000   1.0000   1.0000
     1.0000   1.0000   1.0000   1.0000   1.0000   1.0000   1.0000   1.0000
     1.0000   1.0000   1.0000   1.0000   1.0000   1.0000   1.0000   1.0000
     1.0000   1.0000   1.0000   1.0000   1.0000   1.0000   1.0000   1.0000
     1.0000   1.0000   1.0000   1.0000   1.0000   1.0000   1.0000   1.0000
     1.0000   1.0000   1.0000   1.0000   1.0000   1.0000   1.0000   1.0000
     1.0000   1.0000   1.0000   1.0000   1.0000   1.0000   1.0000   1.0000
     1.0000   1.0000   1.0000   1.0000   1.0000   1.0000   1.0000   1.0000
     1.0000   1.0000   1.0000   1.0000   1.0000   1.0000   1.0000   1.0000
     1.0000   1.0000   1.0000   1.0000   1.0000   1.0000   1.0000   1.0000
     1.0000   1.0000   1.0000   1.0000   1.0000   1.0000   1.0000   1.0000
     1.0000   1.0000   1.0000   1.0000   1.0000   1.0000   1.0000   1.0000
     1.0000   1.0000   1.0000   1.0000   1.0000   1.0000   1.0000   1.0000
     1.0000   1.0000   1.0000   1.0000   1.0000   1.0000   1.0000   1.0000
     1.0000   1.0000   1.0000   1.0000   1.0000   1.0000   1.0000   1.0000
     1.0000   1.0000   1.0000   1.0000   1.0000   1.0000   1.0000   1.0000
     1.0000   1.0000   1.0000   1.0000   1.0000   1.0000   1.0000   1.0000
     1.0000   1.0000   1.0000   1.0000   1.0000   1.0000   1.0000   1.0000
     1.0000   1.0000   1.0000   1.0000   1.0000   1.0000   1.0000   1.0000
     1.0000   1.0000   1.0000   1.0000   1.0000   1.0000   1.0000   1.0000
     1.0000   1.0000   1.0000   1.0000   1.0000   1.0000   1.0000   1.0000
     1.0000   1.0000   1.0000   1.0000   1.0000   1.0000   1.0000   1.0000
     1.0000   1.0000   1.0000   1.0000   1.0000   1.0000   1.0000   1.0000
     1.0000   1.0000   1.0000   1.0000   1.0000   1.0000   1.0000   1.0000
     1.0000   1.0000   1.0000   1.0000   1.0000   1.0000   1.0000   1.0000
     1.0000   1.0000   1.0000   1.0000   1.0000   1.0000   1.0000   1.0000
     1.0000   1.0000   1.0000   1.0000   1.0000   1.0000   1.0000   1.0000
     1.0000   1.0000   1.0000   1.0000   1.0000   1.0000   1.0000   1.0000
     1.0000   1.0000   1.0000   1.0000   1.0000   1.0000   1.0000   1.0000
     1.0000   1.0000   1.0000   1.0000   1.0000   1.0000   1.0000   1.0000
     1.0000   1.0000   1.0000   1.0000   1.0000   1.0000   1.0000   1.0000
     1.0000   1.0000   1.0000   1.0000   1.0000   1.0000   1.0000   1.0000
     1.0000   1.0000   1.0000   1.0000   1.0000   1.0000   1.0000   1.0000
     1.0000   1.0000   1.0000   1.0000   1.0000   0.9999   0.9999   0.9998
     0.9990   0.9978   0.9958   0.9908   0.9879   0.9849   0.9838   0.9793
     0.9189   0.8693   0.8613   0.7391   0.7069   0.5929   0.3615   0.3115
     0.1064   0.0847   0.0206   0.0164   0.0080   0.0050   0.0032   0.0027
     0.0010   0.0006   0.0002   0.0000   0.0000   0.0000   0.0000   0.0000
     0.0000   0.0000   0.0000   0.0000   0.0000   0.0000   0.0000   0.0000
     0.0000   0.0000   0.0000   0.0000   0.0000   0.0000   0.0000   0.0000
     0.0000   0.0000   0.0000   0.0000   0.0000   0.0000   0.0000   0.0000
     0.0000   0.0000   0.0000   0.0000   0.0000   0.0000   0.0000   0.0000
     0.0000   0.0000   0.0000   0.0000   0.0000   0.0000   0.0000   0.0000
     0.0000   0.0000   0.0000   0.0000   0.0000   0.0000   0.0000   0.0000

          k =-0.5000 0.6736 0.0000 ( 88140 PWs)   bands (ev):

   -95.5545 -95.5513 -95.5450 -95.5439 -95.5430 -95.5393 -95.5366 -95.5354
   -95.5238 -95.5196 -95.5194 -95.5177 -95.5157 -95.5149 -95.5117 -95.5111
   -95.5101 -95.4084 -95.1538 -95.1478 -95.1469 -95.1141 -95.1071 -95.1051
   -95.1017 -95.0989 -95.0954 -95.0911 -95.0897 -95.0891 -95.0851 -95.0815
   -95.0809 -94.9135 -94.9109 -94.9092 -49.8620 -49.8496 -49.8440 -49.8336
   -49.8235 -49.8175 -49.8101 -49.8014 -49.7957 -49.7904 -49.7877 -49.7840
   -49.7742 -49.7614 -49.7575 -49.7103 -49.7028 -49.6990 -49.6959 -49.6890
   -49.6862 -49.6807 -49.6748 -49.6676 -49.6618 -49.6590 -49.6529 -49.6479
   -49.6423 -49.6382 -49.6340 -49.6291 -49.6257 -49.6233 -49.6211 -49.6182
   -49.6144 -49.6087 -49.6042 -49.6031 -49.5987 -49.5936 -49.5896 -49.5869
   -49.5838 -49.5834 -49.5803 -49.5747 -49.5631 -49.5559 -49.5432 -49.5175
   -49.5026 -49.4945 -49.4862 -49.4783 -49.4723 -49.4682 -49.4567 -49.4508
   -49.4431 -49.4291 -49.4259 -49.4199 -49.3968 -49.3917 -49.3516 -49.3242
   -49.3239 -49.3169 -49.3106 -49.3088 -49.2960 -49.2911 -49.2881 -49.2833
   -49.2773 -49.2702 -49.2693 -49.2628 -49.2484 -49.2322 -49.2180 -49.2062
   -49.1747 -49.1509 -49.1362 -49.1263 -49.1153 -49.0986 -49.0625 -49.0541
   -49.0517 -49.0341 -49.0315 -49.0272 -49.0236 -49.0221 -49.0215 -49.0152
   -49.0127 -49.0118 -49.0073 -49.0026 -49.0018 -48.8311 -48.8256 -48.8234
   -15.0035  -5.5167  -4.9775  -4.4807  -4.2363  -3.7607  -3.4105  -3.3582
    -3.3473  -3.2426  -3.2048  -3.1442  -3.0917  -3.0292  -3.0163  -2.9002
    -2.8276  -2.8206  -2.7530  -2.7151  -2.6821  -2.6688  -2.6466  -2.6117
    -2.5562  -2.5188  -2.4596  -2.4440  -2.3843  -2.3421  -2.2903  -2.2278
    -2.2074  -2.1860  -2.1374  -2.1205  -2.0189  -1.9771  -1.8987  -1.8530
    -1.7171  -1.6601  -1.6418  -1.5747  -1.5568  -1.5466  -1.5313  -1.4516
    -1.4371  -1.3954  -1.3576  -1.3020  -1.2397  -1.2080  -1.1882  -1.1565
    -1.1357  -1.1087  -1.0597  -1.0330  -0.9915  -0.9454  -0.8876  -0.8642
    -0.8584  -0.8097  -0.7797  -0.6782  -0.6443  -0.6221  -0.5680  -0.5526
    -0.5457  -0.5181  -0.4867  -0.4690  -0.4329  -0.4071  -0.3751  -0.3580
    -0.2877  -0.2658  -0.2471  -0.2251  -0.2188  -0.1833  -0.1058  -0.0825
    -0.0618  -0.0505  -0.0309   0.0265   0.0327   0.0448   0.0579   0.0684
     0.0692   0.0818   0.0896   0.1057   0.1205   0.1417   0.1799   0.1894
     0.2061   0.2252   0.2547   0.2910   0.3197   0.3423   0.3813   0.4346
     0.4683   0.4904   0.5787   0.5965   0.6313   0.7302   0.8014   0.8297
     0.8624   0.8868   0.9088   0.9435   0.9668   0.9742   1.0365   1.0627
     1.0757   1.0955   1.1217   1.1599   1.1967   1.2064   1.2680   1.3079
     1.3461   1.4646   1.4871   1.5029   1.5330   1.5814   1.6191   1.6285
     1.6429   1.6716   1.6988   1.7100   1.7466   1.8154   1.8458   1.8743
     1.8882   1.8990   1.9203   1.9424   1.9558   2.0717   2.1039   2.1650
     2.2292   2.2485   2.3312   2.3609   2.3783   2.4396   2.4481   2.4738
     2.5637   2.6042   2.6354   2.6756   2.6891   2.7005   2.7039   2.7164
     2.7879   2.8146   2.8180   2.8572   2.8653   2.8905   2.9377   2.9489
     3.0157   3.0283   3.1025   3.1139   3.1503   3.1735   3.1960   3.2056
     3.2551   3.2804   3.3318   3.9272   4.1934   4.2120   4.2656   4.3356
     4.6194   4.7794   4.8410   5.1419   5.1910   5.2261   5.2675   5.3601
     5.6205   5.7470   5.8341   6.0664   6.3565   6.4356   6.4866   6.6237
     6.8066   7.0981   7.2818   7.5227   7.5840   7.6159   8.3422   8.5929
     8.6123   8.6775   8.8605   9.1019   9.1926   9.2183   9.4442   9.4744
     9.5871   9.7179   9.8367   9.9403  10.0738  10.0800  10.1739  10.4300
    10.5301  10.8187  10.8347  10.9218  10.9359  10.9895  11.1105  11.1313

     occupation numbers 
     1.0000   1.0000   1.0000   1.0000   1.0000   1.0000   1.0000   1.0000
     1.0000   1.0000   1.0000   1.0000   1.0000   1.0000   1.0000   1.0000
     1.0000   1.0000   1.0000   1.0000   1.0000   1.0000   1.0000   1.0000
     1.0000   1.0000   1.0000   1.0000   1.0000   1.0000   1.0000   1.0000
     1.0000   1.0000   1.0000   1.0000   1.0000   1.0000   1.0000   1.0000
     1.0000   1.0000   1.0000   1.0000   1.0000   1.0000   1.0000   1.0000
     1.0000   1.0000   1.0000   1.0000   1.0000   1.0000   1.0000   1.0000
     1.0000   1.0000   1.0000   1.0000   1.0000   1.0000   1.0000   1.0000
     1.0000   1.0000   1.0000   1.0000   1.0000   1.0000   1.0000   1.0000
     1.0000   1.0000   1.0000   1.0000   1.0000   1.0000   1.0000   1.0000
     1.0000   1.0000   1.0000   1.0000   1.0000   1.0000   1.0000   1.0000
     1.0000   1.0000   1.0000   1.0000   1.0000   1.0000   1.0000   1.0000
     1.0000   1.0000   1.0000   1.0000   1.0000   1.0000   1.0000   1.0000
     1.0000   1.0000   1.0000   1.0000   1.0000   1.0000   1.0000   1.0000
     1.0000   1.0000   1.0000   1.0000   1.0000   1.0000   1.0000   1.0000
     1.0000   1.0000   1.0000   1.0000   1.0000   1.0000   1.0000   1.0000
     1.0000   1.0000   1.0000   1.0000   1.0000   1.0000   1.0000   1.0000
     1.0000   1.0000   1.0000   1.0000   1.0000   1.0000   1.0000   1.0000
     1.0000   1.0000   1.0000   1.0000   1.0000   1.0000   1.0000   1.0000
     1.0000   1.0000   1.0000   1.0000   1.0000   1.0000   1.0000   1.0000
     1.0000   1.0000   1.0000   1.0000   1.0000   1.0000   1.0000   1.0000
     1.0000   1.0000   1.0000   1.0000   1.0000   1.0000   1.0000   1.0000
     1.0000   1.0000   1.0000   1.0000   1.0000   1.0000   1.0000   1.0000
     1.0000   1.0000   1.0000   1.0000   1.0000   1.0000   1.0000   1.0000
     1.0000   1.0000   1.0000   1.0000   1.0000   1.0000   1.0000   1.0000
     1.0000   1.0000   1.0000   1.0000   1.0000   1.0000   1.0000   1.0000
     1.0000   1.0000   1.0000   1.0000   1.0000   1.0000   1.0000   1.0000
     1.0000   1.0000   1.0000   1.0000   1.0000   1.0000   1.0000   1.0000
     1.0000   1.0000   1.0000   1.0000   1.0000   1.0000   1.0000   1.0000
     1.0000   1.0000   1.0000   1.0000   1.0000   1.0000   1.0000   1.0000
     1.0000   1.0000   1.0000   1.0000   1.0000   1.0000   1.0000   1.0000
     1.0000   1.0000   1.0000   1.0000   1.0000   1.0000   1.0000   1.0000
     1.0000   1.0000   1.0000   1.0000   1.0000   1.0000   1.0000   1.0000
     1.0000   1.0000   1.0000   1.0000   1.0000   1.0000   1.0000   1.0000
     1.0000   1.0000   1.0000   1.0000   1.0000   1.0000   1.0000   1.0000
     1.0000   1.0000   1.0000   1.0000   1.0000   1.0000   1.0000   1.0000
     1.0000   1.0000   1.0000   1.0000   1.0000   1.0000   1.0000   1.0000
     1.0000   1.0000   1.0000   1.0000   1.0000   1.0000   1.0000   1.0000
     1.0000   1.0000   1.0000   1.0000   1.0000   0.9999   0.9999   0.9998
     0.9990   0.9978   0.9958   0.9908   0.9879   0.9849   0.9838   0.9793
     0.9189   0.8692   0.8613   0.7391   0.7069   0.5930   0.3615   0.3115
     0.1065   0.0847   0.0205   0.0164   0.0080   0.0050   0.0032   0.0027
     0.0010   0.0006   0.0002   0.0000   0.0000   0.0000   0.0000   0.0000
     0.0000   0.0000   0.0000   0.0000   0.0000   0.0000   0.0000   0.0000
     0.0000   0.0000   0.0000   0.0000   0.0000   0.0000   0.0000   0.0000
     0.0000   0.0000   0.0000   0.0000   0.0000   0.0000   0.0000   0.0000
     0.0000   0.0000   0.0000   0.0000   0.0000   0.0000   0.0000   0.0000
     0.0000   0.0000   0.0000   0.0000   0.0000   0.0000   0.0000   0.0000
     0.0000   0.0000   0.0000   0.0000   0.0000   0.0000   0.0000   0.0000

          k =-0.5000-0.2887 0.0000 ( 88178 PWs)   bands (ev):

   -95.5545 -95.5514 -95.5447 -95.5440 -95.5431 -95.5394 -95.5366 -95.5354
   -95.5238 -95.5196 -95.5193 -95.5178 -95.5153 -95.5152 -95.5119 -95.5109
   -95.5102 -95.4084 -95.1538 -95.1478 -95.1469 -95.1141 -95.1071 -95.1051
   -95.1015 -95.0994 -95.0944 -95.0922 -95.0895 -95.0889 -95.0851 -95.0814
   -95.0810 -94.9135 -94.9109 -94.9092 -49.8662 -49.8455 -49.8380 -49.8331
   -49.8195 -49.8155 -49.8137 -49.8119 -49.7964 -49.7943 -49.7927 -49.7896
   -49.7680 -49.7574 -49.7312 -49.7305 -49.6987 -49.6977 -49.6913 -49.6902
   -49.6878 -49.6807 -49.6785 -49.6739 -49.6693 -49.6592 -49.6551 -49.6452
   -49.6402 -49.6353 -49.6346 -49.6292 -49.6276 -49.6191 -49.6183 -49.6144
   -49.6100 -49.6086 -49.6048 -49.6017 -49.5973 -49.5944 -49.5925 -49.5901
   -49.5857 -49.5805 -49.5790 -49.5757 -49.5693 -49.5559 -49.5372 -49.5234
   -49.4999 -49.4970 -49.4836 -49.4804 -49.4728 -49.4628 -49.4439 -49.4436
   -49.4417 -49.4407 -49.4388 -49.4383 -49.3846 -49.3589 -49.3586 -49.3538
   -49.3229 -49.3162 -49.3033 -49.3030 -49.3004 -49.2999 -49.2981 -49.2714
   -49.2658 -49.2645 -49.2642 -49.2636 -49.2504 -49.2502 -49.2108 -49.2078
   -49.1773 -49.1468 -49.1329 -49.1254 -49.1237 -49.0961 -49.0625 -49.0542
   -49.0516 -49.0341 -49.0311 -49.0283 -49.0236 -49.0216 -49.0199 -49.0175
   -49.0122 -49.0114 -49.0073 -49.0024 -49.0020 -48.8311 -48.8256 -48.8234
   -15.0035  -5.3565  -5.3082  -4.1071  -4.0465  -3.8999  -3.8868  -3.4813
    -3.3192  -3.0433  -3.0138  -2.9785  -2.9672  -2.9502  -2.9384  -2.9295
    -2.9083  -2.8907  -2.8707  -2.8211  -2.7809  -2.7631  -2.7318  -2.7263
    -2.6270  -2.5389  -2.4037  -2.4015  -2.3654  -2.3630  -2.1398  -2.1355
    -2.1123  -2.0826  -2.0580  -2.0483  -1.9832  -1.9775  -1.8433  -1.8335
    -1.7612  -1.7495  -1.7449  -1.6681  -1.6620  -1.5338  -1.5327  -1.4982
    -1.4726  -1.4102  -1.3783  -1.2731  -1.2697  -1.2545  -1.1988  -1.1489
    -1.1396  -1.1130  -1.1087  -1.0054  -0.9913  -0.9323  -0.8917  -0.8673
    -0.8224  -0.8045  -0.6906  -0.6550  -0.6505  -0.6434  -0.6088  -0.5982
    -0.5931  -0.5838  -0.5456  -0.3742  -0.3533  -0.3315  -0.3300  -0.3260
    -0.3252  -0.2942  -0.2812  -0.2778  -0.2442  -0.2295  -0.1562  -0.1545
    -0.1120  -0.1051  -0.0923  -0.0621  -0.0006   0.0460   0.0586   0.0692
     0.0695   0.1146   0.1345   0.1454   0.1518   0.1624   0.1684   0.1850
     0.2158   0.2553   0.2773   0.3976   0.4140   0.4205   0.5103   0.5938
     0.6462   0.6996   0.7191   0.7396   0.7460   0.8141   0.8311   0.8432
     0.8583   0.8641   0.8664   0.8896   0.9031   0.9327   0.9484   0.9816
     1.0310   1.0319   1.0556   1.0593   1.1136   1.1713   1.1993   1.2137
     1.2495   1.2754   1.4166   1.4364   1.5770   1.6276   1.6397   1.6450
     1.6465   1.6776   1.7729   1.8008   1.8769   1.8844   1.8975   1.9023
     1.9138   1.9330   2.0028   2.0153   2.0366   2.0370   2.0562   2.1389
     2.1592   2.2107   2.2496   2.2945   2.3764   2.4246   2.4252   2.4340
     2.5238   2.5404   2.6162   2.6172   2.6285   2.6350   2.6884   2.6913
     2.7082   2.7212   2.7330   2.7789   2.9016   2.9106   2.9130   2.9293
     2.9351   2.9420   2.9965   3.1637   3.1904   3.1958   3.2050   3.2081
     3.4124   3.4496   3.7155   3.7297   3.9103   4.3847   4.4341   4.7733
     4.7767   4.7793   4.7847   5.2504   5.2609   5.2733   5.2905   5.3133
     5.5991   5.7769   5.7812   5.8961   6.1638   6.1930   6.3289   6.3517
     6.3654   6.4088   8.2419   8.2433   8.2758   8.3003   8.5102   8.5411
     8.6264   8.7846   8.8140   8.8295   8.8582   8.8849   9.3176   9.3271
     9.3630   9.7511   9.7571   9.8216   9.8718  10.2400  10.3403  10.3797
    10.4331  10.6013  10.7859  10.8512  10.8825  10.8868  10.9906  10.9917

     occupation numbers 
     1.0000   1.0000   1.0000   1.0000   1.0000   1.0000   1.0000   1.0000
     1.0000   1.0000   1.0000   1.0000   1.0000   1.0000   1.0000   1.0000
     1.0000   1.0000   1.0000   1.0000   1.0000   1.0000   1.0000   1.0000
     1.0000   1.0000   1.0000   1.0000   1.0000   1.0000   1.0000   1.0000
     1.0000   1.0000   1.0000   1.0000   1.0000   1.0000   1.0000   1.0000
     1.0000   1.0000   1.0000   1.0000   1.0000   1.0000   1.0000   1.0000
     1.0000   1.0000   1.0000   1.0000   1.0000   1.0000   1.0000   1.0000
     1.0000   1.0000   1.0000   1.0000   1.0000   1.0000   1.0000   1.0000
     1.0000   1.0000   1.0000   1.0000   1.0000   1.0000   1.0000   1.0000
     1.0000   1.0000   1.0000   1.0000   1.0000   1.0000   1.0000   1.0000
     1.0000   1.0000   1.0000   1.0000   1.0000   1.0000   1.0000   1.0000
     1.0000   1.0000   1.0000   1.0000   1.0000   1.0000   1.0000   1.0000
     1.0000   1.0000   1.0000   1.0000   1.0000   1.0000   1.0000   1.0000
     1.0000   1.0000   1.0000   1.0000   1.0000   1.0000   1.0000   1.0000
     1.0000   1.0000   1.0000   1.0000   1.0000   1.0000   1.0000   1.0000
     1.0000   1.0000   1.0000   1.0000   1.0000   1.0000   1.0000   1.0000
     1.0000   1.0000   1.0000   1.0000   1.0000   1.0000   1.0000   1.0000
     1.0000   1.0000   1.0000   1.0000   1.0000   1.0000   1.0000   1.0000
     1.0000   1.0000   1.0000   1.0000   1.0000   1.0000   1.0000   1.0000
     1.0000   1.0000   1.0000   1.0000   1.0000   1.0000   1.0000   1.0000
     1.0000   1.0000   1.0000   1.0000   1.0000   1.0000   1.0000   1.0000
     1.0000   1.0000   1.0000   1.0000   1.0000   1.0000   1.0000   1.0000
     1.0000   1.0000   1.0000   1.0000   1.0000   1.0000   1.0000   1.0000
     1.0000   1.0000   1.0000   1.0000   1.0000   1.0000   1.0000   1.0000
     1.0000   1.0000   1.0000   1.0000   1.0000   1.0000   1.0000   1.0000
     1.0000   1.0000   1.0000   1.0000   1.0000   1.0000   1.0000   1.0000
     1.0000   1.0000   1.0000   1.0000   1.0000   1.0000   1.0000   1.0000
     1.0000   1.0000   1.0000   1.0000   1.0000   1.0000   1.0000   1.0000
     1.0000   1.0000   1.0000   1.0000   1.0000   1.0000   1.0000   1.0000
     1.0000   1.0000   1.0000   1.0000   1.0000   1.0000   1.0000   1.0000
     1.0000   1.0000   1.0000   1.0000   1.0000   1.0000   1.0000   1.0000
     1.0000   1.0000   1.0000   1.0000   1.0000   1.0000   1.0000   1.0000
     1.0000   1.0000   1.0000   1.0000   1.0000   1.0000   1.0000   1.0000
     1.0000   1.0000   1.0000   1.0000   1.0000   1.0000   1.0000   1.0000
     1.0000   1.0000   1.0000   1.0000   1.0000   1.0000   1.0000   1.0000
     1.0000   1.0000   1.0000   1.0000   1.0000   1.0000   1.0000   1.0000
     1.0000   1.0000   1.0000   1.0000   1.0000   1.0000   1.0000   1.0000
     1.0000   1.0000   1.0000   1.0000   1.0000   1.0000   1.0000   1.0000
     1.0000   1.0000   1.0000   1.0000   1.0000   0.9999   0.9999   0.9999
     0.9996   0.9994   0.9972   0.9971   0.9964   0.9959   0.9881   0.9874
     0.9824   0.9773   0.9714   0.9313   0.5386   0.4932   0.4813   0.4013
     0.3736   0.3421   0.1488   0.0061   0.0036   0.0032   0.0027   0.0025
     0.0000   0.0000   0.0000   0.0000   0.0000   0.0000   0.0000   0.0000
     0.0000   0.0000   0.0000   0.0000   0.0000   0.0000   0.0000   0.0000
     0.0000   0.0000   0.0000   0.0000   0.0000   0.0000   0.0000   0.0000
     0.0000   0.0000   0.0000   0.0000   0.0000   0.0000   0.0000   0.0000
     0.0000   0.0000   0.0000   0.0000   0.0000   0.0000   0.0000   0.0000
     0.0000   0.0000   0.0000   0.0000   0.0000   0.0000   0.0000   0.0000
     0.0000   0.0000   0.0000   0.0000   0.0000   0.0000   0.0000   0.0000

 ------ SPIN DOWN ----------


          k = 0.0000 0.0000 0.0000 ( 88097 PWs)   bands (ev):

   -95.5552 -95.5468 -95.5427 -95.5426 -95.5421 -95.5370 -95.5360 -95.5355
   -95.5230 -95.5179 -95.5175 -95.5162 -95.5127 -95.5127 -95.5110 -95.5109
   -95.5065 -95.4078 -95.1533 -95.1467 -95.1460 -95.1132 -95.1060 -95.1044
   -95.1041 -95.0935 -95.0933 -95.0930 -95.0898 -95.0897 -95.0862 -95.0810
   -95.0808 -94.9090 -94.9066 -94.9048 -49.8240 -49.8107 -49.8016 -49.8002
   -49.7948 -49.7934 -49.7922 -49.7875 -49.7874 -49.7808 -49.7800 -49.7799
   -49.7736 -49.7720 -49.7672 -49.7666 -49.7506 -49.7503 -49.7479 -49.7137
   -49.7133 -49.7051 -49.6975 -49.6969 -49.6781 -49.6778 -49.6769 -49.6357
   -49.6355 -49.6326 -49.6232 -49.6191 -49.6190 -49.6184 -49.6132 -49.6038
   -49.6034 -49.6016 -49.6004 -49.6004 -49.5996 -49.5970 -49.5967 -49.5703
   -49.5695 -49.5664 -49.5557 -49.5524 -49.5514 -49.5381 -49.5371 -49.4920
   -49.4912 -49.4797 -49.4633 -49.4631 -49.4465 -49.4350 -49.4344 -49.4289
   -49.4200 -49.4094 -49.4073 -49.4073 -49.4057 -49.4056 -49.4054 -49.3981
   -49.3969 -49.3895 -49.3894 -49.3224 -49.3211 -49.2846 -49.2639 -49.2632
   -49.2479 -49.2476 -49.2473 -49.2448 -49.2448 -49.2430 -49.1978 -49.1906
   -49.1903 -49.1413 -49.1412 -49.1109 -49.0860 -49.0859 -49.0634 -49.0515
   -49.0506 -49.0366 -49.0335 -49.0222 -49.0204 -49.0184 -49.0182 -49.0179
   -49.0133 -49.0133 -49.0099 -49.0015 -49.0012 -48.8236 -48.8184 -48.8161
   -11.9332  -6.2162  -4.9121  -3.8255  -3.7748  -3.7370  -3.7358  -3.7277
    -3.7160  -3.7159  -3.6764  -3.1657  -3.1646  -3.1619  -3.1334  -3.1328
    -3.0912  -2.6823  -2.6816  -2.6727  -2.6420  -2.6420  -2.6133  -2.4465
    -2.4464  -2.4262  -2.4133  -2.3907  -2.3906  -2.2322  -2.2319  -2.2161
    -2.1886  -2.1802  -2.1800  -2.1600  -2.1597  -2.1522  -2.0987  -2.0970
    -2.0482  -1.5729  -1.5721  -1.5218  -1.5218  -1.4952  -1.4951  -1.4863
    -1.4065  -1.4057  -1.3884  -1.3270  -1.3269  -1.1911  -1.1903  -0.7312
    -0.7300  -0.7194  -0.6973  -0.6964  -0.6791  -0.6302  -0.5290  -0.5289
    -0.5197  -0.5132  -0.5029  -0.5026  -0.4911  -0.4805  -0.4805  -0.4635
    -0.4517  -0.4500  -0.4174  -0.3762  -0.3751  -0.2871  -0.2855  -0.2574
    -0.2451  -0.2441  -0.2414  -0.0691  -0.0678  -0.0549  -0.0173  -0.0163
     0.0016   0.0264   0.0273   0.1090   0.1091   0.1208   0.1219   0.1306
     0.1309   0.1750   0.1750   0.1795   0.1874   0.3175   0.3194   0.3204
     0.3891   0.3973   0.3995   0.4127   0.8622   0.8629   0.8884   0.8988
     0.9002   0.9087   0.9335   0.9348   0.9653   0.9728   0.9929   0.9937
     1.0538   1.0553   1.0891   1.0893   1.1530   1.1630   1.1631   1.2920
     1.3606   1.3611   1.3919   1.3963   1.4372   1.4448   1.6546   1.6802
     1.6812   1.6943   1.6951   1.7219   1.7871   1.7871   1.8801   1.8808
     1.9083   1.9181   1.9185   1.9320   2.0897   2.1032   2.1045   2.1222
     2.1297   2.1298   2.1368   2.1376   2.1378   2.1658   2.1665   2.1668
     2.2299   2.2790   2.2791   2.3143   2.3150   2.3414   2.3475   2.3481
     2.3703   2.4208   2.4219   2.4445   2.4445   2.4696   2.4923   2.4924
     2.5244   2.5381   2.5383   2.5629   2.5875   2.5876   2.6403   2.6514
     2.6537   2.6560   2.6638   2.6679   2.6694   2.8835   2.8878   2.9363
     2.9368   2.9660   2.9755   2.9911   2.9915   3.0078   3.0085   3.0092
     3.7411   3.7799   3.7807   3.8162   3.8300   3.8311   3.8570   6.1060
     6.1096   6.1114   6.1502   6.1525   6.1626   7.6214   7.6228   7.6690
     7.6782   7.6784   7.6955   8.3855   8.3857   8.8241   8.9608   8.9629
     8.9830   9.0210   9.0243   9.0800   9.4897   9.5385   9.5387   9.5630
     9.8307  10.2477  10.2488  10.3136  10.7692  10.8967  10.8992  10.9519
    10.9662  10.9689  11.1133  11.3238  11.3496  11.3514  11.3872  11.7257

     occupation numbers 
     1.0000   1.0000   1.0000   1.0000   1.0000   1.0000   1.0000   1.0000
     1.0000   1.0000   1.0000   1.0000   1.0000   1.0000   1.0000   1.0000
     1.0000   1.0000   1.0000   1.0000   1.0000   1.0000   1.0000   1.0000
     1.0000   1.0000   1.0000   1.0000   1.0000   1.0000   1.0000   1.0000
     1.0000   1.0000   1.0000   1.0000   1.0000   1.0000   1.0000   1.0000
     1.0000   1.0000   1.0000   1.0000   1.0000   1.0000   1.0000   1.0000
     1.0000   1.0000   1.0000   1.0000   1.0000   1.0000   1.0000   1.0000
     1.0000   1.0000   1.0000   1.0000   1.0000   1.0000   1.0000   1.0000
     1.0000   1.0000   1.0000   1.0000   1.0000   1.0000   1.0000   1.0000
     1.0000   1.0000   1.0000   1.0000   1.0000   1.0000   1.0000   1.0000
     1.0000   1.0000   1.0000   1.0000   1.0000   1.0000   1.0000   1.0000
     1.0000   1.0000   1.0000   1.0000   1.0000   1.0000   1.0000   1.0000
     1.0000   1.0000   1.0000   1.0000   1.0000   1.0000   1.0000   1.0000
     1.0000   1.0000   1.0000   1.0000   1.0000   1.0000   1.0000   1.0000
     1.0000   1.0000   1.0000   1.0000   1.0000   1.0000   1.0000   1.0000
     1.0000   1.0000   1.0000   1.0000   1.0000   1.0000   1.0000   1.0000
     1.0000   1.0000   1.0000   1.0000   1.0000   1.0000   1.0000   1.0000
     1.0000   1.0000   1.0000   1.0000   1.0000   1.0000   1.0000   1.0000
     1.0000   1.0000   1.0000   1.0000   1.0000   1.0000   1.0000   1.0000
     1.0000   1.0000   1.0000   1.0000   1.0000   1.0000   1.0000   1.0000
     1.0000   1.0000   1.0000   1.0000   1.0000   1.0000   1.0000   1.0000
     1.0000   1.0000   1.0000   1.0000   1.0000   1.0000   1.0000   1.0000
     1.0000   1.0000   1.0000   1.0000   1.0000   1.0000   1.0000   1.0000
     1.0000   1.0000   1.0000   1.0000   1.0000   1.0000   1.0000   1.0000
     1.0000   1.0000   1.0000   1.0000   1.0000   1.0000   1.0000   1.0000
     1.0000   1.0000   1.0000   1.0000   1.0000   1.0000   1.0000   1.0000
     1.0000   1.0000   1.0000   1.0000   1.0000   1.0000   1.0000   1.0000
     1.0000   1.0000   1.0000   1.0000   1.0000   1.0000   1.0000   1.0000
     1.0000   1.0000   1.0000   1.0000   1.0000   1.0000   1.0000   1.0000
     1.0000   1.0000   1.0000   1.0000   1.0000   1.0000   1.0000   1.0000
     1.0000   1.0000   1.0000   1.0000   1.0000   1.0000   1.0000   1.0000
     1.0000   1.0000   1.0000   1.0000   1.0000   1.0000   1.0000   1.0000
     1.0000   1.0000   1.0000   1.0000   1.0000   1.0000   1.0000   1.0000
     1.0000   1.0000   1.0000   1.0000   1.0000   1.0000   1.0000   1.0000
     1.0000   1.0000   1.0000   1.0000   1.0000   1.0000   1.0000   1.0000
     1.0000   1.0000   1.0000   1.0000   1.0000   1.0000   1.0000   1.0000
     1.0000   1.0000   1.0000   1.0000   1.0000   1.0000   1.0000   1.0000
     1.0000   1.0000   1.0000   1.0000   1.0000   1.0000   1.0000   1.0000
     1.0000   1.0000   1.0000   1.0000   1.0000   1.0000   1.0000   1.0000
     1.0000   0.9999   0.9999   0.9999   0.9999   0.9998   0.9998   0.9998
     0.9995   0.9994   0.9994   0.9990   0.9984   0.9984   0.9954   0.9943
     0.9940   0.9937   0.9927   0.9921   0.9918   0.6260   0.6056   0.3680
     0.3659   0.2435   0.2100   0.1630   0.1619   0.1223   0.1209   0.1194
     0.0000   0.0000   0.0000   0.0000   0.0000   0.0000   0.0000   0.0000
     0.0000   0.0000   0.0000   0.0000   0.0000   0.0000   0.0000   0.0000
     0.0000   0.0000   0.0000   0.0000   0.0000   0.0000   0.0000   0.0000
     0.0000   0.0000   0.0000   0.0000   0.0000   0.0000   0.0000   0.0000
     0.0000   0.0000   0.0000   0.0000   0.0000   0.0000   0.0000   0.0000
     0.0000   0.0000   0.0000   0.0000   0.0000   0.0000   0.0000   0.0000

          k = 0.0000 0.1925 0.0000 ( 88230 PWs)   bands (ev):

   -95.5548 -95.5473 -95.5428 -95.5426 -95.5421 -95.5373 -95.5356 -95.5354
   -95.5230 -95.5180 -95.5176 -95.5161 -95.5131 -95.5129 -95.5107 -95.5104
   -95.5067 -95.4078 -95.1533 -95.1467 -95.1461 -95.1132 -95.1060 -95.1041
   -95.1039 -95.0953 -95.0935 -95.0920 -95.0900 -95.0894 -95.0858 -95.0812
   -95.0808 -94.9090 -94.9066 -94.9048 -49.8361 -49.8229 -49.8182 -49.8133
   -49.8043 -49.8004 -49.7983 -49.7952 -49.7933 -49.7797 -49.7779 -49.7768
   -49.7714 -49.7616 -49.7566 -49.7563 -49.7438 -49.7368 -49.7251 -49.7016
   -49.7012 -49.7003 -49.6947 -49.6901 -49.6755 -49.6749 -49.6684 -49.6397
   -49.6394 -49.6294 -49.6265 -49.6264 -49.6198 -49.6185 -49.6168 -49.6066
   -49.6049 -49.6034 -49.6019 -49.6009 -49.5953 -49.5933 -49.5910 -49.5758
   -49.5746 -49.5694 -49.5576 -49.5575 -49.5495 -49.5446 -49.5381 -49.4986
   -49.4926 -49.4804 -49.4727 -49.4698 -49.4583 -49.4426 -49.4365 -49.4336
   -49.4252 -49.4248 -49.4180 -49.4178 -49.4093 -49.4063 -49.3849 -49.3847
   -49.3649 -49.3641 -49.3605 -49.3203 -49.3162 -49.2874 -49.2676 -49.2631
   -49.2570 -49.2564 -49.2547 -49.2445 -49.2440 -49.2336 -49.1996 -49.1926
   -49.1917 -49.1435 -49.1390 -49.1125 -49.0918 -49.0874 -49.0630 -49.0515
   -49.0511 -49.0358 -49.0332 -49.0222 -49.0214 -49.0204 -49.0186 -49.0165
   -49.0137 -49.0126 -49.0088 -49.0017 -49.0013 -48.8236 -48.8184 -48.8161
   -11.9332  -6.1118  -4.8096  -4.1590  -3.8435  -3.8409  -3.7196  -3.6281
    -3.5394  -3.5269  -3.5161  -3.2526  -3.2012  -3.1177  -3.1005  -3.0800
    -3.0551  -2.7151  -2.6336  -2.6317  -2.6244  -2.5957  -2.5722  -2.5499
    -2.4843  -2.4742  -2.3828  -2.3667  -2.3500  -2.2795  -2.2755  -2.2612
    -2.2461  -2.2315  -2.2093  -2.1870  -2.0421  -2.0228  -1.9754  -1.9556
    -1.9206  -1.6565  -1.6533  -1.6256  -1.5814  -1.5686  -1.5283  -1.5156
    -1.3848  -1.3647  -1.3064  -1.2850  -1.2553  -1.1986  -1.1748  -0.9288
    -0.8259  -0.8246  -0.7970  -0.7966  -0.7749  -0.6933  -0.6924  -0.6742
    -0.6457  -0.6423  -0.6233  -0.5778  -0.5439  -0.5157  -0.4929  -0.4769
    -0.4147  -0.3884  -0.3751  -0.3258  -0.3199  -0.3186  -0.2747  -0.2068
    -0.1995  -0.1761  -0.1398  -0.0813  -0.0719  -0.0667  -0.0505  -0.0327
    -0.0146  -0.0133   0.0104   0.0537   0.0577   0.0924   0.1164   0.1288
     0.1524   0.1705   0.2385   0.2493   0.2875   0.3014   0.3223   0.3694
     0.3731   0.3774   0.3829   0.3955   0.4535   0.4598   0.4921   0.5314
     0.6287   0.6663   0.8660   0.9137   0.9323   0.9352   0.9537   0.9549
     1.0063   1.0063   1.0906   1.1215   1.2447   1.3069   1.3389   1.3645
     1.3660   1.3733   1.3847   1.3976   1.4029   1.4084   1.5122   1.5172
     1.5748   1.5803   1.6432   1.6695   1.7904   1.7957   1.7985   1.8250
     1.8557   1.8842   1.9371   1.9377   1.9486   2.0191   2.0254   2.0469
     2.0500   2.0655   2.0706   2.0862   2.1544   2.1743   2.2136   2.2219
     2.3145   2.3450   2.3483   2.3854   2.4034   2.4433   2.4469   2.4995
     2.5002   2.5146   2.5303   2.5359   2.5441   2.5663   2.5786   2.5972
     2.6126   2.6194   2.6813   2.6920   2.8528   2.8654   2.8682   2.8853
     2.8991   2.9024   2.9183   2.9260   2.9351   2.9384   2.9526   2.9571
     2.9667   2.9717   2.9823   2.9887   3.0799   3.1107   3.1138   3.2119
     3.4072   3.6957   3.7120   4.2286   4.2487   4.2933   4.3662   5.5547
     5.9056   5.9111   6.5538   6.5551   6.7454   6.7456   6.7968   7.7427
     7.7596   7.8060   7.8203   8.1656   8.5059   8.5071   8.7047   8.7335
     8.8951   8.9273   8.9537   9.2302   9.3703   9.3853   9.5863   9.6389
     9.8812  10.1354  10.3209  10.4002  10.4847  10.4999  10.6567  10.7154
    10.8079  10.8371  10.8493  10.8998  10.9085  11.0871  11.3716  11.4314

     occupation numbers 
     1.0000   1.0000   1.0000   1.0000   1.0000   1.0000   1.0000   1.0000
     1.0000   1.0000   1.0000   1.0000   1.0000   1.0000   1.0000   1.0000
     1.0000   1.0000   1.0000   1.0000   1.0000   1.0000   1.0000   1.0000
     1.0000   1.0000   1.0000   1.0000   1.0000   1.0000   1.0000   1.0000
     1.0000   1.0000   1.0000   1.0000   1.0000   1.0000   1.0000   1.0000
     1.0000   1.0000   1.0000   1.0000   1.0000   1.0000   1.0000   1.0000
     1.0000   1.0000   1.0000   1.0000   1.0000   1.0000   1.0000   1.0000
     1.0000   1.0000   1.0000   1.0000   1.0000   1.0000   1.0000   1.0000
     1.0000   1.0000   1.0000   1.0000   1.0000   1.0000   1.0000   1.0000
     1.0000   1.0000   1.0000   1.0000   1.0000   1.0000   1.0000   1.0000
     1.0000   1.0000   1.0000   1.0000   1.0000   1.0000   1.0000   1.0000
     1.0000   1.0000   1.0000   1.0000   1.0000   1.0000   1.0000   1.0000
     1.0000   1.0000   1.0000   1.0000   1.0000   1.0000   1.0000   1.0000
     1.0000   1.0000   1.0000   1.0000   1.0000   1.0000   1.0000   1.0000
     1.0000   1.0000   1.0000   1.0000   1.0000   1.0000   1.0000   1.0000
     1.0000   1.0000   1.0000   1.0000   1.0000   1.0000   1.0000   1.0000
     1.0000   1.0000   1.0000   1.0000   1.0000   1.0000   1.0000   1.0000
     1.0000   1.0000   1.0000   1.0000   1.0000   1.0000   1.0000   1.0000
     1.0000   1.0000   1.0000   1.0000   1.0000   1.0000   1.0000   1.0000
     1.0000   1.0000   1.0000   1.0000   1.0000   1.0000   1.0000   1.0000
     1.0000   1.0000   1.0000   1.0000   1.0000   1.0000   1.0000   1.0000
     1.0000   1.0000   1.0000   1.0000   1.0000   1.0000   1.0000   1.0000
     1.0000   1.0000   1.0000   1.0000   1.0000   1.0000   1.0000   1.0000
     1.0000   1.0000   1.0000   1.0000   1.0000   1.0000   1.0000   1.0000
     1.0000   1.0000   1.0000   1.0000   1.0000   1.0000   1.0000   1.0000
     1.0000   1.0000   1.0000   1.0000   1.0000   1.0000   1.0000   1.0000
     1.0000   1.0000   1.0000   1.0000   1.0000   1.0000   1.0000   1.0000
     1.0000   1.0000   1.0000   1.0000   1.0000   1.0000   1.0000   1.0000
     1.0000   1.0000   1.0000   1.0000   1.0000   1.0000   1.0000   1.0000
     1.0000   1.0000   1.0000   1.0000   1.0000   1.0000   1.0000   1.0000
     1.0000   1.0000   1.0000   1.0000   1.0000   1.0000   1.0000   1.0000
     1.0000   1.0000   1.0000   1.0000   1.0000   1.0000   1.0000   1.0000
     1.0000   1.0000   1.0000   1.0000   1.0000   1.0000   1.0000   1.0000
     1.0000   1.0000   1.0000   1.0000   1.0000   1.0000   1.0000   1.0000
     1.0000   1.0000   1.0000   1.0000   1.0000   1.0000   1.0000   1.0000
     1.0000   1.0000   1.0000   1.0000   1.0000   1.0000   1.0000   1.0000
     1.0000   1.0000   1.0000   1.0000   1.0000   1.0000   1.0000   1.0000
     1.0000   1.0000   1.0000   1.0000   1.0000   1.0000   1.0000   1.0000
     1.0000   1.0000   1.0000   1.0000   1.0000   0.9999   0.9999   0.9997
     0.9997   0.9996   0.9995   0.9994   0.9993   0.9990   0.9987   0.9981
     0.9974   0.9970   0.9896   0.9872   0.7556   0.7064   0.6945   0.6175
     0.5508   0.5346   0.4552   0.4173   0.3738   0.3586   0.2961   0.2777
     0.2408   0.2229   0.1884   0.1697   0.0319   0.0175   0.0165   0.0023
     0.0000   0.0000   0.0000   0.0000   0.0000   0.0000   0.0000   0.0000
     0.0000   0.0000   0.0000   0.0000   0.0000   0.0000   0.0000   0.0000
     0.0000   0.0000   0.0000   0.0000   0.0000   0.0000   0.0000   0.0000
     0.0000   0.0000   0.0000   0.0000   0.0000   0.0000   0.0000   0.0000
     0.0000   0.0000   0.0000   0.0000   0.0000   0.0000   0.0000   0.0000
     0.0000   0.0000   0.0000   0.0000   0.0000   0.0000   0.0000   0.0000

          k = 0.0000 0.3849 0.0000 ( 88170 PWs)   bands (ev):

   -95.5538 -95.5486 -95.5429 -95.5427 -95.5419 -95.5376 -95.5352 -95.5351
   -95.5229 -95.5181 -95.5178 -95.5160 -95.5136 -95.5132 -95.5101 -95.5094
   -95.5073 -95.4078 -95.1531 -95.1467 -95.1463 -95.1131 -95.1060 -95.1042
   -95.1025 -95.0976 -95.0939 -95.0919 -95.0896 -95.0888 -95.0852 -95.0814
   -95.0808 -94.9091 -94.9066 -94.9048 -49.8577 -49.8370 -49.8314 -49.8260
   -49.8126 -49.8109 -49.8076 -49.8066 -49.7970 -49.7884 -49.7878 -49.7815
   -49.7669 -49.7555 -49.7389 -49.7379 -49.7134 -49.7104 -49.6944 -49.6915
   -49.6869 -49.6836 -49.6836 -49.6817 -49.6691 -49.6688 -49.6504 -49.6454
   -49.6420 -49.6363 -49.6286 -49.6267 -49.6265 -49.6200 -49.6135 -49.6135
   -49.6067 -49.6055 -49.6042 -49.6010 -49.5938 -49.5937 -49.5857 -49.5852
   -49.5805 -49.5738 -49.5710 -49.5641 -49.5617 -49.5503 -49.5365 -49.5137
   -49.4958 -49.4905 -49.4794 -49.4787 -49.4653 -49.4606 -49.4402 -49.4395
   -49.4371 -49.4365 -49.4330 -49.4329 -49.3917 -49.3730 -49.3662 -49.3660
   -49.3326 -49.3322 -49.3168 -49.3138 -49.3116 -49.2939 -49.2753 -49.2750
   -49.2714 -49.2625 -49.2618 -49.2484 -49.2478 -49.2251 -49.2210 -49.1989
   -49.1791 -49.1462 -49.1337 -49.1166 -49.1068 -49.0906 -49.0621 -49.0520
   -49.0514 -49.0337 -49.0325 -49.0251 -49.0222 -49.0206 -49.0192 -49.0169
   -49.0127 -49.0115 -49.0075 -49.0022 -49.0016 -48.8237 -48.8184 -48.8160
   -11.9332  -5.8077  -4.7469  -4.5124  -3.8895  -3.8886  -3.5955  -3.4822
    -3.4188  -3.3484  -3.2845  -3.2472  -3.2464  -3.0203  -2.9879  -2.9359
    -2.9298  -2.8292  -2.6922  -2.6373  -2.5990  -2.5979  -2.5614  -2.5559
    -2.5364  -2.5272  -2.4825  -2.4518  -2.3730  -2.3491  -2.3337  -2.3201
    -2.1172  -2.1140  -2.0724  -2.0584  -2.0319  -2.0288  -1.8352  -1.8295
    -1.7526  -1.7337  -1.7018  -1.6336  -1.5851  -1.5846  -1.5593  -1.5308
    -1.3964  -1.3913  -1.3340  -1.3085  -1.2928  -1.2880  -1.1997  -1.1705
    -1.1439  -1.0343  -0.9537  -0.9499  -0.9303  -0.8148  -0.7810  -0.7504
    -0.7474  -0.7133  -0.7074  -0.6874  -0.6232  -0.4918  -0.4770  -0.4652
    -0.4558  -0.4262  -0.4010  -0.3929  -0.3589  -0.3272  -0.3252  -0.2593
    -0.2592  -0.2412  -0.2264  -0.2076  -0.1983  -0.1935  -0.1875  -0.1443
    -0.1341  -0.1021  -0.0725  -0.0490  -0.0380  -0.0112   0.1043   0.1230
     0.1264   0.1481   0.1556   0.1972   0.2612   0.2648   0.2808   0.2868
     0.3185   0.3839   0.4639   0.4698   0.5250   0.5339   0.5774   0.5903
     0.6739   0.7046   0.8501   0.8716   0.8728   0.8978   0.8995   0.9172
     0.9265   0.9469   0.9475   1.0311   1.0430   1.0729   1.0738   1.1072
     1.1552   1.2189   1.2574   1.2796   1.3115   1.4449   1.4582   1.4797
     1.4887   1.4992   1.5119   1.6642   1.7323   1.7398   1.7588   1.7593
     1.7953   1.8034   1.8384   1.8760   1.8928   1.9516   1.9689   2.0143
     2.0784   2.0913   2.0944   2.1071   2.1136   2.1371   2.1582   2.3113
     2.3484   2.3707   2.3955   2.4135   2.4136   2.4413   2.5123   2.5298
     2.5764   2.6190   2.6215   2.6325   2.6370   2.7403   2.7626   2.7686
     2.8189   2.8266   2.8537   2.8645   2.8815   2.9066   2.9216   2.9385
     2.9407   2.9464   3.0613   3.0768   3.0957   3.1016   3.1173   3.1175
     3.2888   3.3020   3.3376   3.7040   3.7181   3.7860   3.7925   3.8119
     4.0776   4.1079   4.2571   4.9910   5.0362   5.1161   5.1422   5.2138
     5.7769   5.7795   5.8096   5.8155   6.5252   6.5496   7.0009   7.1926
     7.2672   7.2733   7.7209   7.7451   8.1984   8.2121   8.5376   8.5524
     8.5890   9.0762   9.1006   9.1406   9.1603   9.4359   9.4413   9.5409
     9.5466   9.8227   9.9129  10.0386  10.1286  10.1772  10.2516  10.2680
    10.4977  10.5128  10.6457  10.7658  11.0526  11.1257  11.1765  11.1975

     occupation numbers 
     1.0000   1.0000   1.0000   1.0000   1.0000   1.0000   1.0000   1.0000
     1.0000   1.0000   1.0000   1.0000   1.0000   1.0000   1.0000   1.0000
     1.0000   1.0000   1.0000   1.0000   1.0000   1.0000   1.0000   1.0000
     1.0000   1.0000   1.0000   1.0000   1.0000   1.0000   1.0000   1.0000
     1.0000   1.0000   1.0000   1.0000   1.0000   1.0000   1.0000   1.0000
     1.0000   1.0000   1.0000   1.0000   1.0000   1.0000   1.0000   1.0000
     1.0000   1.0000   1.0000   1.0000   1.0000   1.0000   1.0000   1.0000
     1.0000   1.0000   1.0000   1.0000   1.0000   1.0000   1.0000   1.0000
     1.0000   1.0000   1.0000   1.0000   1.0000   1.0000   1.0000   1.0000
     1.0000   1.0000   1.0000   1.0000   1.0000   1.0000   1.0000   1.0000
     1.0000   1.0000   1.0000   1.0000   1.0000   1.0000   1.0000   1.0000
     1.0000   1.0000   1.0000   1.0000   1.0000   1.0000   1.0000   1.0000
     1.0000   1.0000   1.0000   1.0000   1.0000   1.0000   1.0000   1.0000
     1.0000   1.0000   1.0000   1.0000   1.0000   1.0000   1.0000   1.0000
     1.0000   1.0000   1.0000   1.0000   1.0000   1.0000   1.0000   1.0000
     1.0000   1.0000   1.0000   1.0000   1.0000   1.0000   1.0000   1.0000
     1.0000   1.0000   1.0000   1.0000   1.0000   1.0000   1.0000   1.0000
     1.0000   1.0000   1.0000   1.0000   1.0000   1.0000   1.0000   1.0000
     1.0000   1.0000   1.0000   1.0000   1.0000   1.0000   1.0000   1.0000
     1.0000   1.0000   1.0000   1.0000   1.0000   1.0000   1.0000   1.0000
     1.0000   1.0000   1.0000   1.0000   1.0000   1.0000   1.0000   1.0000
     1.0000   1.0000   1.0000   1.0000   1.0000   1.0000   1.0000   1.0000
     1.0000   1.0000   1.0000   1.0000   1.0000   1.0000   1.0000   1.0000
     1.0000   1.0000   1.0000   1.0000   1.0000   1.0000   1.0000   1.0000
     1.0000   1.0000   1.0000   1.0000   1.0000   1.0000   1.0000   1.0000
     1.0000   1.0000   1.0000   1.0000   1.0000   1.0000   1.0000   1.0000
     1.0000   1.0000   1.0000   1.0000   1.0000   1.0000   1.0000   1.0000
     1.0000   1.0000   1.0000   1.0000   1.0000   1.0000   1.0000   1.0000
     1.0000   1.0000   1.0000   1.0000   1.0000   1.0000   1.0000   1.0000
     1.0000   1.0000   1.0000   1.0000   1.0000   1.0000   1.0000   1.0000
     1.0000   1.0000   1.0000   1.0000   1.0000   1.0000   1.0000   1.0000
     1.0000   1.0000   1.0000   1.0000   1.0000   1.0000   1.0000   1.0000
     1.0000   1.0000   1.0000   1.0000   1.0000   1.0000   1.0000   1.0000
     1.0000   1.0000   1.0000   1.0000   1.0000   1.0000   1.0000   1.0000
     1.0000   1.0000   1.0000   1.0000   1.0000   1.0000   1.0000   1.0000
     1.0000   1.0000   1.0000   1.0000   1.0000   1.0000   1.0000   1.0000
     1.0000   1.0000   1.0000   1.0000   1.0000   1.0000   1.0000   1.0000
     1.0000   1.0000   1.0000   1.0000   1.0000   1.0000   1.0000   1.0000
     1.0000   1.0000   1.0000   1.0000   1.0000   0.9999   0.9996   0.9995
     0.9987   0.9970   0.9968   0.9961   0.9957   0.9670   0.9495   0.9434
     0.8591   0.8395   0.7525   0.7102   0.6356   0.5134   0.4385   0.3580
     0.3478   0.3226   0.0457   0.0339   0.0235   0.0209   0.0154   0.0153
     0.0005   0.0004   0.0002   0.0000   0.0000   0.0000   0.0000   0.0000
     0.0000   0.0000   0.0000   0.0000   0.0000   0.0000   0.0000   0.0000
     0.0000   0.0000   0.0000   0.0000   0.0000   0.0000   0.0000   0.0000
     0.0000   0.0000   0.0000   0.0000   0.0000   0.0000   0.0000   0.0000
     0.0000   0.0000   0.0000   0.0000   0.0000   0.0000   0.0000   0.0000
     0.0000   0.0000   0.0000   0.0000   0.0000   0.0000   0.0000   0.0000
     0.0000   0.0000   0.0000   0.0000   0.0000   0.0000   0.0000   0.0000

          k = 0.0000-0.5774 0.0000 ( 88178 PWs)   bands (ev):

   -95.5531 -95.5494 -95.5430 -95.5428 -95.5418 -95.5378 -95.5351 -95.5349
   -95.5229 -95.5182 -95.5178 -95.5159 -95.5137 -95.5133 -95.5100 -95.5085
   -95.5080 -95.4078 -95.1530 -95.1467 -95.1464 -95.1131 -95.1060 -95.1042
   -95.1012 -95.0993 -95.0941 -95.0921 -95.0893 -95.0885 -95.0850 -95.0815
   -95.0808 -94.9091 -94.9066 -94.9047 -49.8659 -49.8434 -49.8358 -49.8305
   -49.8174 -49.8141 -49.8119 -49.8108 -49.7943 -49.7918 -49.7901 -49.7883
   -49.7655 -49.7555 -49.7288 -49.7281 -49.6961 -49.6949 -49.6887 -49.6886
   -49.6858 -49.6790 -49.6768 -49.6723 -49.6677 -49.6584 -49.6538 -49.6443
   -49.6392 -49.6340 -49.6324 -49.6275 -49.6258 -49.6168 -49.6168 -49.6127
   -49.6075 -49.6067 -49.6027 -49.6004 -49.5952 -49.5931 -49.5896 -49.5884
   -49.5838 -49.5779 -49.5776 -49.5727 -49.5680 -49.5542 -49.5341 -49.5225
   -49.4977 -49.4961 -49.4822 -49.4801 -49.4726 -49.4614 -49.4424 -49.4422
   -49.4408 -49.4400 -49.4384 -49.4381 -49.3831 -49.3584 -49.3581 -49.3529
   -49.3215 -49.3157 -49.3031 -49.3029 -49.3002 -49.2998 -49.2975 -49.2700
   -49.2657 -49.2641 -49.2636 -49.2620 -49.2505 -49.2503 -49.2103 -49.2075
   -49.1735 -49.1428 -49.1298 -49.1200 -49.1190 -49.0923 -49.0616 -49.0525
   -49.0514 -49.0329 -49.0307 -49.0281 -49.0221 -49.0207 -49.0195 -49.0173
   -49.0120 -49.0109 -49.0071 -49.0025 -49.0017 -48.8237 -48.8184 -48.8159
   -11.9332  -5.3557  -5.3081  -4.1067  -4.0463  -3.8995  -3.8874  -3.4785
    -3.3186  -3.0418  -3.0131  -2.9778  -2.9656  -2.9486  -2.9379  -2.9294
    -2.9078  -2.8899  -2.8695  -2.8199  -2.7784  -2.7622  -2.7304  -2.7245
    -2.6264  -2.5379  -2.4029  -2.4009  -2.3648  -2.3621  -2.1401  -2.1363
    -2.1122  -2.0830  -2.0574  -2.0485  -1.9823  -1.9779  -1.8429  -1.8328
    -1.7603  -1.7479  -1.7437  -1.6652  -1.6588  -1.5325  -1.5312  -1.4970
    -1.4714  -1.4089  -1.3773  -1.2712  -1.2711  -1.2563  -1.1988  -1.1490
    -1.1403  -1.1134  -1.1092  -1.0040  -0.9907  -0.9305  -0.8899  -0.8654
    -0.8210  -0.8030  -0.6929  -0.6514  -0.6473  -0.6401  -0.6043  -0.5968
    -0.5908  -0.5826  -0.5434  -0.3738  -0.3523  -0.3310  -0.3287  -0.3256
    -0.3243  -0.2937  -0.2787  -0.2771  -0.2414  -0.2246  -0.1563  -0.1536
    -0.1091  -0.1051  -0.0929  -0.0618   0.0035   0.0616   0.1158   0.1372
     0.1484   0.1550   0.1658   0.1694   0.1893   0.2195   0.2520   0.2744
     0.3980   0.4182   0.4242   0.5123   0.5944   0.6476   0.7008   0.7201
     0.7392   0.7476   0.8155   0.8332   0.8434   0.8581   0.8626   0.8680
     0.8891   0.9017   0.9343   0.9492   0.9819   1.0344   1.0353   1.0578
     1.0619   1.1167   1.1727   1.2005   1.2169   1.2461   1.2771   1.4194
     1.4398   1.5746   1.6236   1.6404   1.6468   1.6470   1.6769   1.7765
     1.8036   1.8768   1.8851   1.8974   1.9020   1.9134   1.9336   2.0039
     2.0170   2.0384   2.0389   2.0561   2.1402   2.1596   2.2142   2.2511
     2.2919   2.3786   2.4265   2.4273   2.4365   2.5257   2.5418   2.6174
     2.6188   2.6307   2.6351   2.6741   2.6884   2.7123   2.7213   2.7328
     2.7802   2.9017   2.9103   2.9116   2.9271   2.9327   2.9387   2.9446
     2.9487   2.9678   2.9965   3.1659   3.1912   3.1958   3.2055   3.2086
     3.4131   3.4519   3.7162   3.7315   3.9143   4.3892   4.4427   4.7752
     4.7777   4.7807   4.7857   5.2513   5.2616   5.2742   5.2918   5.3137
     5.5921   5.7765   5.7824   5.8961   6.1693   6.2042   6.3304   6.3534
     6.3675   6.4098   8.2431   8.2462   8.2793   8.3014   8.5167   8.5457
     8.6318   8.7866   8.8137   8.8299   8.8581   8.8839   9.3294   9.4067
     9.4273   9.7514   9.7571   9.8214   9.8720  10.2876  10.3512  10.4410
    10.4687  10.6068  10.7841  10.8496  10.8833  10.8837  10.9958  11.0285

     occupation numbers 
     1.0000   1.0000   1.0000   1.0000   1.0000   1.0000   1.0000   1.0000
     1.0000   1.0000   1.0000   1.0000   1.0000   1.0000   1.0000   1.0000
     1.0000   1.0000   1.0000   1.0000   1.0000   1.0000   1.0000   1.0000
     1.0000   1.0000   1.0000   1.0000   1.0000   1.0000   1.0000   1.0000
     1.0000   1.0000   1.0000   1.0000   1.0000   1.0000   1.0000   1.0000
     1.0000   1.0000   1.0000   1.0000   1.0000   1.0000   1.0000   1.0000
     1.0000   1.0000   1.0000   1.0000   1.0000   1.0000   1.0000   1.0000
     1.0000   1.0000   1.0000   1.0000   1.0000   1.0000   1.0000   1.0000
     1.0000   1.0000   1.0000   1.0000   1.0000   1.0000   1.0000   1.0000
     1.0000   1.0000   1.0000   1.0000   1.0000   1.0000   1.0000   1.0000
     1.0000   1.0000   1.0000   1.0000   1.0000   1.0000   1.0000   1.0000
     1.0000   1.0000   1.0000   1.0000   1.0000   1.0000   1.0000   1.0000
     1.0000   1.0000   1.0000   1.0000   1.0000   1.0000   1.0000   1.0000
     1.0000   1.0000   1.0000   1.0000   1.0000   1.0000   1.0000   1.0000
     1.0000   1.0000   1.0000   1.0000   1.0000   1.0000   1.0000   1.0000
     1.0000   1.0000   1.0000   1.0000   1.0000   1.0000   1.0000   1.0000
     1.0000   1.0000   1.0000   1.0000   1.0000   1.0000   1.0000   1.0000
     1.0000   1.0000   1.0000   1.0000   1.0000   1.0000   1.0000   1.0000
     1.0000   1.0000   1.0000   1.0000   1.0000   1.0000   1.0000   1.0000
     1.0000   1.0000   1.0000   1.0000   1.0000   1.0000   1.0000   1.0000
     1.0000   1.0000   1.0000   1.0000   1.0000   1.0000   1.0000   1.0000
     1.0000   1.0000   1.0000   1.0000   1.0000   1.0000   1.0000   1.0000
     1.0000   1.0000   1.0000   1.0000   1.0000   1.0000   1.0000   1.0000
     1.0000   1.0000   1.0000   1.0000   1.0000   1.0000   1.0000   1.0000
     1.0000   1.0000   1.0000   1.0000   1.0000   1.0000   1.0000   1.0000
     1.0000   1.0000   1.0000   1.0000   1.0000   1.0000   1.0000   1.0000
     1.0000   1.0000   1.0000   1.0000   1.0000   1.0000   1.0000   1.0000
     1.0000   1.0000   1.0000   1.0000   1.0000   1.0000   1.0000   1.0000
     1.0000   1.0000   1.0000   1.0000   1.0000   1.0000   1.0000   1.0000
     1.0000   1.0000   1.0000   1.0000   1.0000   1.0000   1.0000   1.0000
     1.0000   1.0000   1.0000   1.0000   1.0000   1.0000   1.0000   1.0000
     1.0000   1.0000   1.0000   1.0000   1.0000   1.0000   1.0000   1.0000
     1.0000   1.0000   1.0000   1.0000   1.0000   1.0000   1.0000   1.0000
     1.0000   1.0000   1.0000   1.0000   1.0000   1.0000   1.0000   1.0000
     1.0000   1.0000   1.0000   1.0000   1.0000   1.0000   1.0000   1.0000
     1.0000   1.0000   1.0000   1.0000   1.0000   1.0000   1.0000   1.0000
     1.0000   1.0000   1.0000   1.0000   1.0000   1.0000   1.0000   1.0000
     1.0000   1.0000   1.0000   1.0000   1.0000   1.0000   1.0000   1.0000
     1.0000   1.0000   0.9999   0.9999   0.9999   0.9995   0.9994   0.9971
     0.9970   0.9962   0.9959   0.9910   0.9881   0.9809   0.9772   0.9715
     0.9296   0.5380   0.4947   0.4885   0.4117   0.3851   0.3571   0.3302
     0.3124   0.2366   0.1487   0.0059   0.0035   0.0032   0.0027   0.0025
     0.0000   0.0000   0.0000   0.0000   0.0000   0.0000   0.0000   0.0000
     0.0000   0.0000   0.0000   0.0000   0.0000   0.0000   0.0000   0.0000
     0.0000   0.0000   0.0000   0.0000   0.0000   0.0000   0.0000   0.0000
     0.0000   0.0000   0.0000   0.0000   0.0000   0.0000   0.0000   0.0000
     0.0000   0.0000   0.0000   0.0000   0.0000   0.0000   0.0000   0.0000
     0.0000   0.0000   0.0000   0.0000   0.0000   0.0000   0.0000   0.0000
     0.0000   0.0000   0.0000   0.0000   0.0000   0.0000   0.0000   0.0000

          k = 0.1667-0.0962 0.0000 ( 88230 PWs)   bands (ev):

   -95.5548 -95.5473 -95.5428 -95.5425 -95.5421 -95.5373 -95.5359 -95.5352
   -95.5229 -95.5180 -95.5177 -95.5161 -95.5131 -95.5130 -95.5106 -95.5104
   -95.5067 -95.4078 -95.1533 -95.1468 -95.1461 -95.1132 -95.1060 -95.1041
   -95.1039 -95.0952 -95.0937 -95.0919 -95.0899 -95.0894 -95.0858 -95.0811
   -95.0809 -94.9090 -94.9066 -94.9048 -49.8351 -49.8227 -49.8184 -49.8142
   -49.8044 -49.8005 -49.7978 -49.7954 -49.7931 -49.7800 -49.7782 -49.7765
   -49.7717 -49.7618 -49.7568 -49.7560 -49.7434 -49.7372 -49.7250 -49.7016
   -49.7013 -49.7001 -49.6952 -49.6900 -49.6756 -49.6750 -49.6679 -49.6395
   -49.6392 -49.6292 -49.6266 -49.6263 -49.6203 -49.6183 -49.6170 -49.6061
   -49.6048 -49.6034 -49.6018 -49.6008 -49.5957 -49.5929 -49.5916 -49.5755
   -49.5746 -49.5699 -49.5574 -49.5566 -49.5505 -49.5439 -49.5388 -49.4980
   -49.4931 -49.4804 -49.4724 -49.4697 -49.4585 -49.4423 -49.4371 -49.4337
   -49.4253 -49.4248 -49.4181 -49.4178 -49.4093 -49.4059 -49.3851 -49.3848
   -49.3648 -49.3640 -49.3603 -49.3195 -49.3170 -49.2872 -49.2671 -49.2638
   -49.2570 -49.2563 -49.2549 -49.2444 -49.2438 -49.2338 -49.1993 -49.1928
   -49.1917 -49.1434 -49.1390 -49.1126 -49.0919 -49.0873 -49.0630 -49.0519
   -49.0507 -49.0358 -49.0332 -49.0223 -49.0212 -49.0204 -49.0187 -49.0164
   -49.0136 -49.0127 -49.0088 -49.0017 -49.0014 -48.8236 -48.8184 -48.8161
   -11.9332  -6.1119  -4.8096  -4.1601  -3.8426  -3.8404  -3.7196  -3.6282
    -3.5399  -3.5263  -3.5160  -3.2521  -3.2007  -3.1184  -3.1008  -3.0805
    -3.0554  -2.7145  -2.6344  -2.6315  -2.6243  -2.5961  -2.5718  -2.5498
    -2.4841  -2.4737  -2.3832  -2.3680  -2.3498  -2.2793  -2.2751  -2.2617
    -2.2457  -2.2327  -2.2087  -2.1864  -2.0423  -2.0227  -1.9743  -1.9565
    -1.9197  -1.6565  -1.6531  -1.6256  -1.5812  -1.5685  -1.5281  -1.5160
    -1.3845  -1.3644  -1.3066  -1.2852  -1.2553  -1.1983  -1.1752  -0.9272
    -0.8260  -0.8235  -0.7960  -0.7945  -0.7742  -0.6966  -0.6925  -0.6732
    -0.6474  -0.6426  -0.6239  -0.5771  -0.5436  -0.5153  -0.4922  -0.4748
    -0.4148  -0.3907  -0.3772  -0.3280  -0.3214  -0.3180  -0.2754  -0.2046
    -0.1962  -0.1747  -0.1421  -0.0814  -0.0713  -0.0673  -0.0514  -0.0322
    -0.0136  -0.0130   0.0105   0.0536   0.0563   0.0912   0.1158   0.1303
     0.1548   0.1702   0.2373   0.2479   0.2877   0.3012   0.3221   0.3692
     0.3720   0.3773   0.3827   0.3947   0.4536   0.4599   0.4918   0.5315
     0.6299   0.6679   0.8666   0.9144   0.9325   0.9351   0.9522   0.9548
     1.0051   1.0065   1.0900   1.1214   1.2438   1.3054   1.3384   1.3651
     1.3681   1.3735   1.3814   1.3970   1.4022   1.4081   1.5128   1.5192
     1.5738   1.5802   1.6432   1.6695   1.7897   1.7963   1.7982   1.8255
     1.8570   1.8844   1.9372   1.9382   1.9486   2.0190   2.0248   2.0469
     2.0499   2.0659   2.0708   2.0867   2.1539   2.1744   2.2139   2.2227
     2.3149   2.3452   2.3476   2.3850   2.4019   2.4433   2.4466   2.4982
     2.4993   2.5150   2.5304   2.5360   2.5446   2.5657   2.5784   2.5974
     2.6130   2.6200   2.6797   2.6902   2.8535   2.8662   2.8685   2.8878
     2.8983   2.9020   2.9180   2.9265   2.9351   2.9386   2.9536   2.9575
     2.9664   2.9728   2.9831   2.9900   3.0802   3.1109   3.1133   3.2115
     3.4052   3.6975   3.7144   4.2280   4.2489   4.2923   4.3651   5.5525
     5.9076   5.9122   6.5537   6.5563   6.7451   6.7456   6.7952   7.7426
     7.7597   7.8052   7.8214   8.1613   8.5049   8.5083   8.7064   8.7367
     8.8951   8.9277   8.9541   9.2270   9.3722   9.3885   9.5861   9.6387
     9.8812  10.1344  10.3221  10.4004  10.4843  10.4991  10.6547  10.7149
    10.8068  10.8372  10.8489  10.8984  10.9074  11.0845  11.3652  11.3715

     occupation numbers 
     1.0000   1.0000   1.0000   1.0000   1.0000   1.0000   1.0000   1.0000
     1.0000   1.0000   1.0000   1.0000   1.0000   1.0000   1.0000   1.0000
     1.0000   1.0000   1.0000   1.0000   1.0000   1.0000   1.0000   1.0000
     1.0000   1.0000   1.0000   1.0000   1.0000   1.0000   1.0000   1.0000
     1.0000   1.0000   1.0000   1.0000   1.0000   1.0000   1.0000   1.0000
     1.0000   1.0000   1.0000   1.0000   1.0000   1.0000   1.0000   1.0000
     1.0000   1.0000   1.0000   1.0000   1.0000   1.0000   1.0000   1.0000
     1.0000   1.0000   1.0000   1.0000   1.0000   1.0000   1.0000   1.0000
     1.0000   1.0000   1.0000   1.0000   1.0000   1.0000   1.0000   1.0000
     1.0000   1.0000   1.0000   1.0000   1.0000   1.0000   1.0000   1.0000
     1.0000   1.0000   1.0000   1.0000   1.0000   1.0000   1.0000   1.0000
     1.0000   1.0000   1.0000   1.0000   1.0000   1.0000   1.0000   1.0000
     1.0000   1.0000   1.0000   1.0000   1.0000   1.0000   1.0000   1.0000
     1.0000   1.0000   1.0000   1.0000   1.0000   1.0000   1.0000   1.0000
     1.0000   1.0000   1.0000   1.0000   1.0000   1.0000   1.0000   1.0000
     1.0000   1.0000   1.0000   1.0000   1.0000   1.0000   1.0000   1.0000
     1.0000   1.0000   1.0000   1.0000   1.0000   1.0000   1.0000   1.0000
     1.0000   1.0000   1.0000   1.0000   1.0000   1.0000   1.0000   1.0000
     1.0000   1.0000   1.0000   1.0000   1.0000   1.0000   1.0000   1.0000
     1.0000   1.0000   1.0000   1.0000   1.0000   1.0000   1.0000   1.0000
     1.0000   1.0000   1.0000   1.0000   1.0000   1.0000   1.0000   1.0000
     1.0000   1.0000   1.0000   1.0000   1.0000   1.0000   1.0000   1.0000
     1.0000   1.0000   1.0000   1.0000   1.0000   1.0000   1.0000   1.0000
     1.0000   1.0000   1.0000   1.0000   1.0000   1.0000   1.0000   1.0000
     1.0000   1.0000   1.0000   1.0000   1.0000   1.0000   1.0000   1.0000
     1.0000   1.0000   1.0000   1.0000   1.0000   1.0000   1.0000   1.0000
     1.0000   1.0000   1.0000   1.0000   1.0000   1.0000   1.0000   1.0000
     1.0000   1.0000   1.0000   1.0000   1.0000   1.0000   1.0000   1.0000
     1.0000   1.0000   1.0000   1.0000   1.0000   1.0000   1.0000   1.0000
     1.0000   1.0000   1.0000   1.0000   1.0000   1.0000   1.0000   1.0000
     1.0000   1.0000   1.0000   1.0000   1.0000   1.0000   1.0000   1.0000
     1.0000   1.0000   1.0000   1.0000   1.0000   1.0000   1.0000   1.0000
     1.0000   1.0000   1.0000   1.0000   1.0000   1.0000   1.0000   1.0000
     1.0000   1.0000   1.0000   1.0000   1.0000   1.0000   1.0000   1.0000
     1.0000   1.0000   1.0000   1.0000   1.0000   1.0000   1.0000   1.0000
     1.0000   1.0000   1.0000   1.0000   1.0000   1.0000   1.0000   1.0000
     1.0000   1.0000   1.0000   1.0000   1.0000   1.0000   1.0000   1.0000
     1.0000   1.0000   1.0000   1.0000   1.0000   1.0000   1.0000   1.0000
     1.0000   1.0000   1.0000   1.0000   1.0000   0.9999   0.9999   0.9997
     0.9997   0.9996   0.9995   0.9994   0.9993   0.9990   0.9987   0.9980
     0.9973   0.9969   0.9900   0.9877   0.7530   0.7032   0.6934   0.6057
     0.5548   0.5364   0.4566   0.4146   0.3736   0.3576   0.2917   0.2759
     0.2420   0.2190   0.1861   0.1659   0.0317   0.0174   0.0166   0.0024
     0.0000   0.0000   0.0000   0.0000   0.0000   0.0000   0.0000   0.0000
     0.0000   0.0000   0.0000   0.0000   0.0000   0.0000   0.0000   0.0000
     0.0000   0.0000   0.0000   0.0000   0.0000   0.0000   0.0000   0.0000
     0.0000   0.0000   0.0000   0.0000   0.0000   0.0000   0.0000   0.0000
     0.0000   0.0000   0.0000   0.0000   0.0000   0.0000   0.0000   0.0000
     0.0000   0.0000   0.0000   0.0000   0.0000   0.0000   0.0000   0.0000

          k = 0.1667 0.0962 0.0000 ( 88230 PWs)   bands (ev):

   -95.5548 -95.5473 -95.5428 -95.5425 -95.5421 -95.5373 -95.5359 -95.5352
   -95.5229 -95.5180 -95.5177 -95.5161 -95.5131 -95.5130 -95.5106 -95.5104
   -95.5067 -95.4078 -95.1533 -95.1468 -95.1461 -95.1132 -95.1060 -95.1041
   -95.1039 -95.0952 -95.0937 -95.0919 -95.0899 -95.0895 -95.0858 -95.0811
   -95.0809 -94.9090 -94.9066 -94.9048 -49.8351 -49.8227 -49.8184 -49.8142
   -49.8044 -49.8005 -49.7978 -49.7954 -49.7931 -49.7800 -49.7782 -49.7765
   -49.7717 -49.7619 -49.7568 -49.7560 -49.7434 -49.7372 -49.7250 -49.7016
   -49.7013 -49.7001 -49.6952 -49.6900 -49.6756 -49.6750 -49.6678 -49.6395
   -49.6392 -49.6292 -49.6266 -49.6263 -49.6203 -49.6183 -49.6170 -49.6061
   -49.6048 -49.6034 -49.6018 -49.6008 -49.5957 -49.5929 -49.5916 -49.5755
   -49.5746 -49.5699 -49.5574 -49.5566 -49.5505 -49.5439 -49.5388 -49.4980
   -49.4932 -49.4804 -49.4724 -49.4697 -49.4584 -49.4423 -49.4371 -49.4337
   -49.4253 -49.4248 -49.4180 -49.4178 -49.4093 -49.4059 -49.3851 -49.3848
   -49.3648 -49.3640 -49.3603 -49.3194 -49.3170 -49.2872 -49.2671 -49.2638
   -49.2570 -49.2563 -49.2549 -49.2444 -49.2438 -49.2338 -49.1993 -49.1928
   -49.1917 -49.1434 -49.1390 -49.1126 -49.0919 -49.0873 -49.0630 -49.0519
   -49.0507 -49.0358 -49.0332 -49.0223 -49.0212 -49.0204 -49.0187 -49.0164
   -49.0136 -49.0127 -49.0088 -49.0017 -49.0014 -48.8236 -48.8184 -48.8161
   -11.9332  -6.1119  -4.8096  -4.1601  -3.8426  -3.8404  -3.7196  -3.6282
    -3.5399  -3.5263  -3.5160  -3.2521  -3.2007  -3.1184  -3.1008  -3.0805
    -3.0554  -2.7145  -2.6344  -2.6315  -2.6243  -2.5961  -2.5718  -2.5498
    -2.4842  -2.4737  -2.3832  -2.3680  -2.3498  -2.2793  -2.2751  -2.2617
    -2.2457  -2.2327  -2.2087  -2.1863  -2.0423  -2.0227  -1.9743  -1.9566
    -1.9197  -1.6565  -1.6531  -1.6256  -1.5813  -1.5685  -1.5281  -1.5160
    -1.3845  -1.3644  -1.3066  -1.2852  -1.2552  -1.1983  -1.1752  -0.9272
    -0.8260  -0.8235  -0.7960  -0.7945  -0.7742  -0.6966  -0.6925  -0.6732
    -0.6474  -0.6426  -0.6239  -0.5771  -0.5436  -0.5153  -0.4922  -0.4748
    -0.4148  -0.3908  -0.3773  -0.3280  -0.3214  -0.3180  -0.2754  -0.2046
    -0.1962  -0.1746  -0.1422  -0.0814  -0.0713  -0.0673  -0.0514  -0.0322
    -0.0135  -0.0130   0.0105   0.0536   0.0563   0.0912   0.1158   0.1303
     0.1548   0.1702   0.2373   0.2479   0.2877   0.3013   0.3220   0.3692
     0.3719   0.3773   0.3827   0.3947   0.4536   0.4599   0.4918   0.5314
     0.6299   0.6680   0.8666   0.9144   0.9325   0.9351   0.9522   0.9548
     1.0051   1.0065   1.0900   1.1214   1.2438   1.3054   1.3384   1.3651
     1.3681   1.3735   1.3813   1.3970   1.4022   1.4081   1.5128   1.5192
     1.5738   1.5802   1.6432   1.6695   1.7897   1.7963   1.7982   1.8255
     1.8570   1.8844   1.9372   1.9382   1.9486   2.0189   2.0248   2.0469
     2.0499   2.0659   2.0708   2.0867   2.1538   2.1744   2.2139   2.2227
     2.3149   2.3452   2.3476   2.3850   2.4019   2.4433   2.4466   2.4982
     2.4992   2.5151   2.5304   2.5360   2.5446   2.5656   2.5785   2.5974
     2.6131   2.6200   2.6797   2.6902   2.8536   2.8662   2.8685   2.8879
     2.8983   2.9020   2.9180   2.9265   2.9348   2.9388   2.9537   2.9575
     2.9664   2.9729   2.9831   2.9901   3.0802   3.1109   3.1133   3.2115
     3.4051   3.6975   3.7145   4.2280   4.2489   4.2923   4.3650   5.5525
     5.9076   5.9123   6.5537   6.5563   6.7451   6.7456   6.7952   7.7426
     7.7597   7.8052   7.8214   8.1612   8.5049   8.5082   8.7065   8.7368
     8.8951   8.9277   8.9541   9.2269   9.3723   9.3885   9.5861   9.6387
     9.8812  10.1343  10.3221  10.4004  10.4843  10.4991  10.6547  10.7149
    10.8067  10.8372  10.8489  10.8984  10.9073  11.0844  11.3654  11.3715

     occupation numbers 
     1.0000   1.0000   1.0000   1.0000   1.0000   1.0000   1.0000   1.0000
     1.0000   1.0000   1.0000   1.0000   1.0000   1.0000   1.0000   1.0000
     1.0000   1.0000   1.0000   1.0000   1.0000   1.0000   1.0000   1.0000
     1.0000   1.0000   1.0000   1.0000   1.0000   1.0000   1.0000   1.0000
     1.0000   1.0000   1.0000   1.0000   1.0000   1.0000   1.0000   1.0000
     1.0000   1.0000   1.0000   1.0000   1.0000   1.0000   1.0000   1.0000
     1.0000   1.0000   1.0000   1.0000   1.0000   1.0000   1.0000   1.0000
     1.0000   1.0000   1.0000   1.0000   1.0000   1.0000   1.0000   1.0000
     1.0000   1.0000   1.0000   1.0000   1.0000   1.0000   1.0000   1.0000
     1.0000   1.0000   1.0000   1.0000   1.0000   1.0000   1.0000   1.0000
     1.0000   1.0000   1.0000   1.0000   1.0000   1.0000   1.0000   1.0000
     1.0000   1.0000   1.0000   1.0000   1.0000   1.0000   1.0000   1.0000
     1.0000   1.0000   1.0000   1.0000   1.0000   1.0000   1.0000   1.0000
     1.0000   1.0000   1.0000   1.0000   1.0000   1.0000   1.0000   1.0000
     1.0000   1.0000   1.0000   1.0000   1.0000   1.0000   1.0000   1.0000
     1.0000   1.0000   1.0000   1.0000   1.0000   1.0000   1.0000   1.0000
     1.0000   1.0000   1.0000   1.0000   1.0000   1.0000   1.0000   1.0000
     1.0000   1.0000   1.0000   1.0000   1.0000   1.0000   1.0000   1.0000
     1.0000   1.0000   1.0000   1.0000   1.0000   1.0000   1.0000   1.0000
     1.0000   1.0000   1.0000   1.0000   1.0000   1.0000   1.0000   1.0000
     1.0000   1.0000   1.0000   1.0000   1.0000   1.0000   1.0000   1.0000
     1.0000   1.0000   1.0000   1.0000   1.0000   1.0000   1.0000   1.0000
     1.0000   1.0000   1.0000   1.0000   1.0000   1.0000   1.0000   1.0000
     1.0000   1.0000   1.0000   1.0000   1.0000   1.0000   1.0000   1.0000
     1.0000   1.0000   1.0000   1.0000   1.0000   1.0000   1.0000   1.0000
     1.0000   1.0000   1.0000   1.0000   1.0000   1.0000   1.0000   1.0000
     1.0000   1.0000   1.0000   1.0000   1.0000   1.0000   1.0000   1.0000
     1.0000   1.0000   1.0000   1.0000   1.0000   1.0000   1.0000   1.0000
     1.0000   1.0000   1.0000   1.0000   1.0000   1.0000   1.0000   1.0000
     1.0000   1.0000   1.0000   1.0000   1.0000   1.0000   1.0000   1.0000
     1.0000   1.0000   1.0000   1.0000   1.0000   1.0000   1.0000   1.0000
     1.0000   1.0000   1.0000   1.0000   1.0000   1.0000   1.0000   1.0000
     1.0000   1.0000   1.0000   1.0000   1.0000   1.0000   1.0000   1.0000
     1.0000   1.0000   1.0000   1.0000   1.0000   1.0000   1.0000   1.0000
     1.0000   1.0000   1.0000   1.0000   1.0000   1.0000   1.0000   1.0000
     1.0000   1.0000   1.0000   1.0000   1.0000   1.0000   1.0000   1.0000
     1.0000   1.0000   1.0000   1.0000   1.0000   1.0000   1.0000   1.0000
     1.0000   1.0000   1.0000   1.0000   1.0000   1.0000   1.0000   1.0000
     1.0000   1.0000   1.0000   1.0000   1.0000   0.9999   0.9999   0.9997
     0.9997   0.9996   0.9995   0.9994   0.9993   0.9990   0.9987   0.9980
     0.9973   0.9969   0.9900   0.9877   0.7530   0.7032   0.6933   0.6054
     0.5548   0.5364   0.4566   0.4146   0.3749   0.3566   0.2916   0.2759
     0.2419   0.2190   0.1860   0.1658   0.0317   0.0174   0.0166   0.0024
     0.0000   0.0000   0.0000   0.0000   0.0000   0.0000   0.0000   0.0000
     0.0000   0.0000   0.0000   0.0000   0.0000   0.0000   0.0000   0.0000
     0.0000   0.0000   0.0000   0.0000   0.0000   0.0000   0.0000   0.0000
     0.0000   0.0000   0.0000   0.0000   0.0000   0.0000   0.0000   0.0000
     0.0000   0.0000   0.0000   0.0000   0.0000   0.0000   0.0000   0.0000
     0.0000   0.0000   0.0000   0.0000   0.0000   0.0000   0.0000   0.0000

          k = 0.1667 0.2887 0.0000 ( 88188 PWs)   bands (ev):

   -95.5541 -95.5482 -95.5431 -95.5424 -95.5420 -95.5375 -95.5356 -95.5349
   -95.5229 -95.5181 -95.5178 -95.5159 -95.5136 -95.5132 -95.5100 -95.5098
   -95.5071 -95.4078 -95.1531 -95.1468 -95.1462 -95.1131 -95.1060 -95.1041
   -95.1030 -95.0968 -95.0943 -95.0912 -95.0900 -95.0890 -95.0853 -95.0813
   -95.0808 -94.9091 -94.9066 -94.9048 -49.8482 -49.8419 -49.8298 -49.8210
   -49.8164 -49.8092 -49.8014 -49.7985 -49.7925 -49.7850 -49.7821 -49.7776
   -49.7745 -49.7655 -49.7552 -49.7262 -49.7212 -49.7153 -49.7014 -49.6975
   -49.6934 -49.6892 -49.6868 -49.6805 -49.6715 -49.6613 -49.6561 -49.6443
   -49.6394 -49.6341 -49.6318 -49.6288 -49.6268 -49.6201 -49.6166 -49.6123
   -49.6080 -49.6051 -49.6011 -49.5978 -49.5935 -49.5894 -49.5876 -49.5826
   -49.5800 -49.5752 -49.5706 -49.5603 -49.5534 -49.5483 -49.5407 -49.5081
   -49.4960 -49.4858 -49.4813 -49.4731 -49.4673 -49.4546 -49.4524 -49.4378
   -49.4360 -49.4306 -49.4242 -49.4067 -49.4050 -49.4031 -49.3776 -49.3445
   -49.3398 -49.3383 -49.3366 -49.3184 -49.3115 -49.2914 -49.2722 -49.2657
   -49.2647 -49.2635 -49.2628 -49.2612 -49.2314 -49.2306 -49.2165 -49.1972
   -49.1818 -49.1470 -49.1345 -49.1162 -49.1010 -49.0905 -49.0623 -49.0522
   -49.0510 -49.0343 -49.0328 -49.0237 -49.0222 -49.0205 -49.0202 -49.0154
   -49.0135 -49.0118 -49.0077 -49.0021 -49.0015 -48.8237 -48.8184 -48.8160
   -11.9332  -5.9074  -4.6126  -4.3935  -4.3485  -3.5200  -3.4696  -3.4439
    -3.4296  -3.4271  -3.4134  -3.3528  -3.2782  -3.1823  -3.1672  -2.8906
    -2.8730  -2.7422  -2.7308  -2.5943  -2.5819  -2.5605  -2.5506  -2.5438
    -2.5200  -2.4681  -2.4521  -2.4197  -2.3709  -2.3606  -2.3256  -2.2675
    -2.2490  -2.2269  -2.1885  -2.1161  -2.0395  -1.9072  -1.8620  -1.8038
    -1.7846  -1.7320  -1.6827  -1.6517  -1.6368  -1.5948  -1.5537  -1.4666
    -1.4329  -1.3428  -1.3274  -1.3175  -1.2517  -1.2401  -1.2054  -1.1313
    -1.0845  -0.9217  -0.8867  -0.8588  -0.8479  -0.8367  -0.7805  -0.7544
    -0.7412  -0.7285  -0.6569  -0.6464  -0.5668  -0.5547  -0.5429  -0.5276
    -0.5198  -0.4062  -0.3818  -0.3520  -0.3376  -0.3154  -0.2714  -0.2249
    -0.2165  -0.1955  -0.1855  -0.1819  -0.1693  -0.1383  -0.1306  -0.1165
    -0.0548  -0.0504   0.0152   0.0319   0.0627   0.0840   0.1105   0.1157
     0.1588   0.1752   0.1819   0.1941   0.2157   0.2369   0.2515   0.2612
     0.3232   0.3357   0.3482   0.3791   0.4701   0.4990   0.5126   0.5281
     0.5831   0.5912   0.7481   0.8292   0.8475   0.8584   0.9069   0.9271
     0.9702   0.9971   1.0133   1.0291   1.0384   1.0556   1.1533   1.1656
     1.2523   1.3325   1.3905   1.3954   1.4343   1.4562   1.4953   1.5208
     1.5378   1.5476   1.6730   1.7116   1.7145   1.7334   1.7597   1.7689
     1.8184   1.8264   1.8549   1.8623   1.8964   1.9179   1.9596   1.9706
     1.9820   1.9992   2.0058   2.0479   2.0947   2.1151   2.1512   2.3126
     2.3579   2.3769   2.4519   2.4768   2.4990   2.5122   2.5808   2.6002
     2.6010   2.6146   2.6309   2.6635   2.6697   2.7042   2.7168   2.7198
     2.8285   2.8399   2.8441   2.8643   2.8867   2.8937   2.9028   2.9168
     2.9369   2.9415   2.9506   2.9663   3.0764   3.0908   3.0979   3.1566
     3.1726   3.1913   3.2231   3.3154   3.3360   3.5542   3.5594   3.6515
     3.9725   3.9824   4.2750   4.2998   4.9272   4.9849   5.0014   5.3402
     5.3475   5.7769   6.4510   6.4708   6.5813   6.7683   6.9410   7.2111
     7.2396   7.6473   7.7736   7.7893   7.8304   7.9603   8.7904   8.8075
     8.8961   8.9546   9.0330   9.1767   9.2297   9.3820   9.4601   9.5976
     9.6203   9.6432   9.9846  10.0796  10.1386  10.3951  10.4221  10.4903
    10.5089  10.5562  10.5621  10.9668  11.0802  11.0978  11.1221  11.1617

     occupation numbers 
     1.0000   1.0000   1.0000   1.0000   1.0000   1.0000   1.0000   1.0000
     1.0000   1.0000   1.0000   1.0000   1.0000   1.0000   1.0000   1.0000
     1.0000   1.0000   1.0000   1.0000   1.0000   1.0000   1.0000   1.0000
     1.0000   1.0000   1.0000   1.0000   1.0000   1.0000   1.0000   1.0000
     1.0000   1.0000   1.0000   1.0000   1.0000   1.0000   1.0000   1.0000
     1.0000   1.0000   1.0000   1.0000   1.0000   1.0000   1.0000   1.0000
     1.0000   1.0000   1.0000   1.0000   1.0000   1.0000   1.0000   1.0000
     1.0000   1.0000   1.0000   1.0000   1.0000   1.0000   1.0000   1.0000
     1.0000   1.0000   1.0000   1.0000   1.0000   1.0000   1.0000   1.0000
     1.0000   1.0000   1.0000   1.0000   1.0000   1.0000   1.0000   1.0000
     1.0000   1.0000   1.0000   1.0000   1.0000   1.0000   1.0000   1.0000
     1.0000   1.0000   1.0000   1.0000   1.0000   1.0000   1.0000   1.0000
     1.0000   1.0000   1.0000   1.0000   1.0000   1.0000   1.0000   1.0000
     1.0000   1.0000   1.0000   1.0000   1.0000   1.0000   1.0000   1.0000
     1.0000   1.0000   1.0000   1.0000   1.0000   1.0000   1.0000   1.0000
     1.0000   1.0000   1.0000   1.0000   1.0000   1.0000   1.0000   1.0000
     1.0000   1.0000   1.0000   1.0000   1.0000   1.0000   1.0000   1.0000
     1.0000   1.0000   1.0000   1.0000   1.0000   1.0000   1.0000   1.0000
     1.0000   1.0000   1.0000   1.0000   1.0000   1.0000   1.0000   1.0000
     1.0000   1.0000   1.0000   1.0000   1.0000   1.0000   1.0000   1.0000
     1.0000   1.0000   1.0000   1.0000   1.0000   1.0000   1.0000   1.0000
     1.0000   1.0000   1.0000   1.0000   1.0000   1.0000   1.0000   1.0000
     1.0000   1.0000   1.0000   1.0000   1.0000   1.0000   1.0000   1.0000
     1.0000   1.0000   1.0000   1.0000   1.0000   1.0000   1.0000   1.0000
     1.0000   1.0000   1.0000   1.0000   1.0000   1.0000   1.0000   1.0000
     1.0000   1.0000   1.0000   1.0000   1.0000   1.0000   1.0000   1.0000
     1.0000   1.0000   1.0000   1.0000   1.0000   1.0000   1.0000   1.0000
     1.0000   1.0000   1.0000   1.0000   1.0000   1.0000   1.0000   1.0000
     1.0000   1.0000   1.0000   1.0000   1.0000   1.0000   1.0000   1.0000
     1.0000   1.0000   1.0000   1.0000   1.0000   1.0000   1.0000   1.0000
     1.0000   1.0000   1.0000   1.0000   1.0000   1.0000   1.0000   1.0000
     1.0000   1.0000   1.0000   1.0000   1.0000   1.0000   1.0000   1.0000
     1.0000   1.0000   1.0000   1.0000   1.0000   1.0000   1.0000   1.0000
     1.0000   1.0000   1.0000   1.0000   1.0000   1.0000   1.0000   1.0000
     1.0000   1.0000   1.0000   1.0000   1.0000   1.0000   1.0000   1.0000
     1.0000   1.0000   1.0000   1.0000   1.0000   1.0000   1.0000   1.0000
     1.0000   1.0000   1.0000   1.0000   1.0000   1.0000   1.0000   1.0000
     1.0000   1.0000   1.0000   1.0000   1.0000   1.0000   1.0000   1.0000
     1.0000   1.0000   0.9999   0.9998   0.9997   0.9996   0.9986   0.9979
     0.9979   0.9972   0.9962   0.9927   0.9918   0.9837   0.9791   0.9779
     0.8343   0.8002   0.7865   0.7108   0.6110   0.5775   0.5323   0.4627
     0.3653   0.3441   0.3046   0.2424   0.0342   0.0258   0.0225   0.0071
     0.0051   0.0035   0.0019   0.0003   0.0002   0.0000   0.0000   0.0000
     0.0000   0.0000   0.0000   0.0000   0.0000   0.0000   0.0000   0.0000
     0.0000   0.0000   0.0000   0.0000   0.0000   0.0000   0.0000   0.0000
     0.0000   0.0000   0.0000   0.0000   0.0000   0.0000   0.0000   0.0000
     0.0000   0.0000   0.0000   0.0000   0.0000   0.0000   0.0000   0.0000
     0.0000   0.0000   0.0000   0.0000   0.0000   0.0000   0.0000   0.0000
     0.0000   0.0000   0.0000   0.0000   0.0000   0.0000   0.0000   0.0000

          k = 0.1667-0.6736 0.0000 ( 88140 PWs)   bands (ev):

   -95.5531 -95.5493 -95.5435 -95.5423 -95.5418 -95.5377 -95.5353 -95.5347
   -95.5229 -95.5182 -95.5179 -95.5158 -95.5139 -95.5133 -95.5097 -95.5089
   -95.5078 -95.4078 -95.1530 -95.1468 -95.1463 -95.1131 -95.1060 -95.1042
   -95.1014 -95.0988 -95.0951 -95.0909 -95.0895 -95.0888 -95.0850 -95.0815
   -95.0808 -94.9091 -94.9066 -94.9048 -49.8617 -49.8477 -49.8415 -49.8315
   -49.8217 -49.8155 -49.8081 -49.8001 -49.7937 -49.7882 -49.7859 -49.7821
   -49.7717 -49.7592 -49.7555 -49.7070 -49.7006 -49.6973 -49.6940 -49.6873
   -49.6844 -49.6789 -49.6732 -49.6661 -49.6605 -49.6575 -49.6511 -49.6461
   -49.6405 -49.6363 -49.6325 -49.6278 -49.6233 -49.6220 -49.6193 -49.6166
   -49.6125 -49.6063 -49.6024 -49.6011 -49.5963 -49.5917 -49.5875 -49.5851
   -49.5818 -49.5810 -49.5784 -49.5728 -49.5617 -49.5540 -49.5404 -49.5164
   -49.5002 -49.4936 -49.4849 -49.4776 -49.4710 -49.4680 -49.4564 -49.4503
   -49.4414 -49.4274 -49.4257 -49.4195 -49.3952 -49.3911 -49.3508 -49.3237
   -49.3230 -49.3165 -49.3100 -49.3088 -49.2951 -49.2911 -49.2880 -49.2830
   -49.2755 -49.2702 -49.2689 -49.2610 -49.2485 -49.2322 -49.2177 -49.2057
   -49.1708 -49.1469 -49.1323 -49.1213 -49.1109 -49.0947 -49.0616 -49.0526
   -49.0513 -49.0330 -49.0311 -49.0269 -49.0223 -49.0217 -49.0206 -49.0150
   -49.0124 -49.0114 -49.0071 -49.0026 -49.0016 -48.8237 -48.8184 -48.8159
   -11.9332  -5.5163  -4.9771  -4.4806  -4.2359  -3.7604  -3.4079  -3.3582
    -3.3472  -3.2421  -3.2039  -3.1435  -3.0900  -3.0281  -3.0167  -2.8999
    -2.8256  -2.8190  -2.7517  -2.7128  -2.6800  -2.6675  -2.6460  -2.6103
    -2.5556  -2.5187  -2.4588  -2.4430  -2.3840  -2.3416  -2.2902  -2.2274
    -2.2072  -2.1860  -2.1367  -2.1192  -2.0185  -1.9758  -1.8978  -1.8529
    -1.7160  -1.6594  -1.6405  -1.5732  -1.5552  -1.5454  -1.5299  -1.4511
    -1.4381  -1.3942  -1.3554  -1.2999  -1.2388  -1.2080  -1.1873  -1.1551
    -1.1354  -1.1095  -1.0598  -1.0318  -0.9924  -0.9450  -0.8861  -0.8629
    -0.8572  -0.8078  -0.7797  -0.6767  -0.6455  -0.6199  -0.5645  -0.5479
    -0.5410  -0.5159  -0.4844  -0.4684  -0.4324  -0.4064  -0.3738  -0.3572
    -0.2865  -0.2651  -0.2463  -0.2229  -0.2186  -0.1828  -0.1023  -0.0797
    -0.0600  -0.0483  -0.0293   0.0272   0.0362   0.0594   0.0834   0.0924
     0.1082   0.1219   0.1434   0.1808   0.1904   0.2080   0.2216   0.2554
     0.2928   0.3201   0.3439   0.3820   0.4361   0.4688   0.4917   0.5817
     0.5985   0.6329   0.7298   0.8021   0.8310   0.8613   0.8890   0.9120
     0.9459   0.9695   0.9758   1.0364   1.0624   1.0757   1.0970   1.1216
     1.1610   1.1996   1.2090   1.2675   1.3091   1.3473   1.4664   1.4877
     1.5042   1.5338   1.5820   1.6208   1.6299   1.6436   1.6715   1.6978
     1.7109   1.7467   1.8159   1.8456   1.8764   1.8888   1.8989   1.9194
     1.9430   1.9574   2.0732   2.1057   2.1647   2.2301   2.2496   2.3328
     2.3626   2.3797   2.4404   2.4474   2.4748   2.5637   2.6055   2.6365
     2.6767   2.6895   2.6993   2.7048   2.7173   2.7864   2.8142   2.8190
     2.8529   2.8660   2.8907   2.9273   2.9361   2.9407   2.9524   2.9571
     3.0194   3.0479   3.1045   3.1155   3.1518   3.1750   3.1957   3.2048
     3.2573   3.2814   3.3364   3.9287   4.1985   4.2159   4.2680   4.3362
     4.6208   4.7846   4.8421   5.1422   5.1893   5.2287   5.2683   5.3608
     5.6188   5.7478   5.8416   6.0676   6.3581   6.4355   6.4886   6.6213
     6.8147   7.1004   7.2828   7.5266   7.5863   7.6211   8.3440   8.5948
     8.6165   8.6763   8.8623   9.1025   9.1949   9.2929   9.4503   9.4824
     9.6537   9.7166   9.8309  10.0009  10.0765  10.0815  10.2023  10.4281
    10.5652  10.8239  10.8511  10.9413  10.9674  11.0257  11.1164  11.1336

     occupation numbers 
     1.0000   1.0000   1.0000   1.0000   1.0000   1.0000   1.0000   1.0000
     1.0000   1.0000   1.0000   1.0000   1.0000   1.0000   1.0000   1.0000
     1.0000   1.0000   1.0000   1.0000   1.0000   1.0000   1.0000   1.0000
     1.0000   1.0000   1.0000   1.0000   1.0000   1.0000   1.0000   1.0000
     1.0000   1.0000   1.0000   1.0000   1.0000   1.0000   1.0000   1.0000
     1.0000   1.0000   1.0000   1.0000   1.0000   1.0000   1.0000   1.0000
     1.0000   1.0000   1.0000   1.0000   1.0000   1.0000   1.0000   1.0000
     1.0000   1.0000   1.0000   1.0000   1.0000   1.0000   1.0000   1.0000
     1.0000   1.0000   1.0000   1.0000   1.0000   1.0000   1.0000   1.0000
     1.0000   1.0000   1.0000   1.0000   1.0000   1.0000   1.0000   1.0000
     1.0000   1.0000   1.0000   1.0000   1.0000   1.0000   1.0000   1.0000
     1.0000   1.0000   1.0000   1.0000   1.0000   1.0000   1.0000   1.0000
     1.0000   1.0000   1.0000   1.0000   1.0000   1.0000   1.0000   1.0000
     1.0000   1.0000   1.0000   1.0000   1.0000   1.0000   1.0000   1.0000
     1.0000   1.0000   1.0000   1.0000   1.0000   1.0000   1.0000   1.0000
     1.0000   1.0000   1.0000   1.0000   1.0000   1.0000   1.0000   1.0000
     1.0000   1.0000   1.0000   1.0000   1.0000   1.0000   1.0000   1.0000
     1.0000   1.0000   1.0000   1.0000   1.0000   1.0000   1.0000   1.0000
     1.0000   1.0000   1.0000   1.0000   1.0000   1.0000   1.0000   1.0000
     1.0000   1.0000   1.0000   1.0000   1.0000   1.0000   1.0000   1.0000
     1.0000   1.0000   1.0000   1.0000   1.0000   1.0000   1.0000   1.0000
     1.0000   1.0000   1.0000   1.0000   1.0000   1.0000   1.0000   1.0000
     1.0000   1.0000   1.0000   1.0000   1.0000   1.0000   1.0000   1.0000
     1.0000   1.0000   1.0000   1.0000   1.0000   1.0000   1.0000   1.0000
     1.0000   1.0000   1.0000   1.0000   1.0000   1.0000   1.0000   1.0000
     1.0000   1.0000   1.0000   1.0000   1.0000   1.0000   1.0000   1.0000
     1.0000   1.0000   1.0000   1.0000   1.0000   1.0000   1.0000   1.0000
     1.0000   1.0000   1.0000   1.0000   1.0000   1.0000   1.0000   1.0000
     1.0000   1.0000   1.0000   1.0000   1.0000   1.0000   1.0000   1.0000
     1.0000   1.0000   1.0000   1.0000   1.0000   1.0000   1.0000   1.0000
     1.0000   1.0000   1.0000   1.0000   1.0000   1.0000   1.0000   1.0000
     1.0000   1.0000   1.0000   1.0000   1.0000   1.0000   1.0000   1.0000
     1.0000   1.0000   1.0000   1.0000   1.0000   1.0000   1.0000   1.0000
     1.0000   1.0000   1.0000   1.0000   1.0000   1.0000   1.0000   1.0000
     1.0000   1.0000   1.0000   1.0000   1.0000   1.0000   1.0000   1.0000
     1.0000   1.0000   1.0000   1.0000   1.0000   1.0000   1.0000   1.0000
     1.0000   1.0000   1.0000   1.0000   1.0000   1.0000   1.0000   1.0000
     1.0000   1.0000   1.0000   1.0000   1.0000   1.0000   1.0000   1.0000
     1.0000   1.0000   0.9999   0.9999   0.9998   0.9990   0.9977   0.9957
     0.9905   0.9878   0.9852   0.9835   0.9789   0.9211   0.8702   0.8588
     0.7554   0.7040   0.5918   0.4110   0.3693   0.3478   0.2967   0.2778
     0.0995   0.0588   0.0197   0.0159   0.0078   0.0049   0.0032   0.0027
     0.0009   0.0006   0.0002   0.0000   0.0000   0.0000   0.0000   0.0000
     0.0000   0.0000   0.0000   0.0000   0.0000   0.0000   0.0000   0.0000
     0.0000   0.0000   0.0000   0.0000   0.0000   0.0000   0.0000   0.0000
     0.0000   0.0000   0.0000   0.0000   0.0000   0.0000   0.0000   0.0000
     0.0000   0.0000   0.0000   0.0000   0.0000   0.0000   0.0000   0.0000
     0.0000   0.0000   0.0000   0.0000   0.0000   0.0000   0.0000   0.0000
     0.0000   0.0000   0.0000   0.0000   0.0000   0.0000   0.0000   0.0000

          k = 0.1667-0.4811 0.0000 ( 88140 PWs)   bands (ev):

   -95.5531 -95.5493 -95.5435 -95.5423 -95.5418 -95.5377 -95.5353 -95.5347
   -95.5229 -95.5182 -95.5179 -95.5158 -95.5139 -95.5133 -95.5097 -95.5089
   -95.5078 -95.4078 -95.1530 -95.1468 -95.1463 -95.1131 -95.1060 -95.1042
   -95.1014 -95.0988 -95.0951 -95.0909 -95.0895 -95.0888 -95.0850 -95.0815
   -95.0808 -94.9091 -94.9066 -94.9048 -49.8617 -49.8477 -49.8415 -49.8315
   -49.8217 -49.8155 -49.8081 -49.8001 -49.7936 -49.7882 -49.7859 -49.7821
   -49.7717 -49.7592 -49.7555 -49.7070 -49.7006 -49.6973 -49.6940 -49.6873
   -49.6844 -49.6789 -49.6732 -49.6661 -49.6605 -49.6575 -49.6511 -49.6461
   -49.6405 -49.6363 -49.6325 -49.6279 -49.6233 -49.6220 -49.6193 -49.6166
   -49.6125 -49.6063 -49.6024 -49.6011 -49.5963 -49.5917 -49.5875 -49.5851
   -49.5818 -49.5810 -49.5784 -49.5728 -49.5617 -49.5540 -49.5404 -49.5164
   -49.5002 -49.4936 -49.4849 -49.4776 -49.4710 -49.4680 -49.4564 -49.4503
   -49.4414 -49.4274 -49.4257 -49.4195 -49.3952 -49.3911 -49.3508 -49.3237
   -49.3230 -49.3165 -49.3100 -49.3088 -49.2951 -49.2911 -49.2880 -49.2830
   -49.2755 -49.2702 -49.2689 -49.2610 -49.2485 -49.2322 -49.2177 -49.2057
   -49.1708 -49.1469 -49.1323 -49.1213 -49.1109 -49.0947 -49.0616 -49.0526
   -49.0513 -49.0330 -49.0311 -49.0269 -49.0223 -49.0217 -49.0206 -49.0150
   -49.0124 -49.0114 -49.0071 -49.0026 -49.0016 -48.8237 -48.8184 -48.8159
   -11.9332  -5.5163  -4.9771  -4.4806  -4.2359  -3.7604  -3.4079  -3.3582
    -3.3472  -3.2421  -3.2038  -3.1435  -3.0900  -3.0282  -3.0168  -2.8999
    -2.8256  -2.8190  -2.7517  -2.7128  -2.6800  -2.6675  -2.6460  -2.6103
    -2.5556  -2.5187  -2.4588  -2.4430  -2.3840  -2.3416  -2.2902  -2.2274
    -2.2072  -2.1859  -2.1367  -2.1192  -2.0185  -1.9759  -1.8978  -1.8529
    -1.7160  -1.6594  -1.6405  -1.5732  -1.5552  -1.5454  -1.5299  -1.4511
    -1.4381  -1.3941  -1.3554  -1.2999  -1.2388  -1.2080  -1.1873  -1.1550
    -1.1354  -1.1095  -1.0598  -1.0318  -0.9924  -0.9450  -0.8861  -0.8629
    -0.8572  -0.8077  -0.7797  -0.6767  -0.6455  -0.6199  -0.5645  -0.5478
    -0.5410  -0.5159  -0.4843  -0.4684  -0.4324  -0.4064  -0.3737  -0.3572
    -0.2865  -0.2651  -0.2463  -0.2229  -0.2186  -0.1828  -0.1023  -0.0797
    -0.0600  -0.0482  -0.0293   0.0272   0.0362   0.0594   0.0834   0.0924
     0.1082   0.1219   0.1434   0.1808   0.1903   0.2080   0.2215   0.2554
     0.2929   0.3201   0.3439   0.3820   0.4361   0.4687   0.4917   0.5817
     0.5985   0.6329   0.7299   0.8021   0.8311   0.8613   0.8890   0.9120
     0.9459   0.9695   0.9758   1.0364   1.0624   1.0757   1.0970   1.1216
     1.1610   1.1996   1.2090   1.2675   1.3091   1.3473   1.4664   1.4877
     1.5042   1.5338   1.5821   1.6208   1.6299   1.6436   1.6714   1.6978
     1.7110   1.7467   1.8159   1.8456   1.8764   1.8888   1.8989   1.9194
     1.9430   1.9574   2.0732   2.1057   2.1646   2.2301   2.2496   2.3328
     2.3626   2.3797   2.4404   2.4474   2.4748   2.5637   2.6055   2.6365
     2.6767   2.6895   2.6993   2.7048   2.7173   2.7865   2.8142   2.8190
     2.8529   2.8659   2.8907   2.9274   2.9360   2.9406   2.9525   2.9572
     3.0195   3.0479   3.1046   3.1155   3.1518   3.1750   3.1957   3.2047
     3.2573   3.2814   3.3364   3.9287   4.1985   4.2159   4.2680   4.3362
     4.6208   4.7845   4.8421   5.1422   5.1893   5.2287   5.2683   5.3608
     5.6189   5.7478   5.8416   6.0676   6.3581   6.4355   6.4886   6.6213
     6.8147   7.1004   7.2828   7.5267   7.5863   7.6211   8.3440   8.5949
     8.6165   8.6762   8.8623   9.1026   9.1949   9.2929   9.4503   9.4824
     9.6537   9.7166   9.8308  10.0009  10.0765  10.0816  10.2023  10.4281
    10.5653  10.8239  10.8510  10.9413  10.9674  11.0257  11.1164  11.1336

     occupation numbers 
     1.0000   1.0000   1.0000   1.0000   1.0000   1.0000   1.0000   1.0000
     1.0000   1.0000   1.0000   1.0000   1.0000   1.0000   1.0000   1.0000
     1.0000   1.0000   1.0000   1.0000   1.0000   1.0000   1.0000   1.0000
     1.0000   1.0000   1.0000   1.0000   1.0000   1.0000   1.0000   1.0000
     1.0000   1.0000   1.0000   1.0000   1.0000   1.0000   1.0000   1.0000
     1.0000   1.0000   1.0000   1.0000   1.0000   1.0000   1.0000   1.0000
     1.0000   1.0000   1.0000   1.0000   1.0000   1.0000   1.0000   1.0000
     1.0000   1.0000   1.0000   1.0000   1.0000   1.0000   1.0000   1.0000
     1.0000   1.0000   1.0000   1.0000   1.0000   1.0000   1.0000   1.0000
     1.0000   1.0000   1.0000   1.0000   1.0000   1.0000   1.0000   1.0000
     1.0000   1.0000   1.0000   1.0000   1.0000   1.0000   1.0000   1.0000
     1.0000   1.0000   1.0000   1.0000   1.0000   1.0000   1.0000   1.0000
     1.0000   1.0000   1.0000   1.0000   1.0000   1.0000   1.0000   1.0000
     1.0000   1.0000   1.0000   1.0000   1.0000   1.0000   1.0000   1.0000
     1.0000   1.0000   1.0000   1.0000   1.0000   1.0000   1.0000   1.0000
     1.0000   1.0000   1.0000   1.0000   1.0000   1.0000   1.0000   1.0000
     1.0000   1.0000   1.0000   1.0000   1.0000   1.0000   1.0000   1.0000
     1.0000   1.0000   1.0000   1.0000   1.0000   1.0000   1.0000   1.0000
     1.0000   1.0000   1.0000   1.0000   1.0000   1.0000   1.0000   1.0000
     1.0000   1.0000   1.0000   1.0000   1.0000   1.0000   1.0000   1.0000
     1.0000   1.0000   1.0000   1.0000   1.0000   1.0000   1.0000   1.0000
     1.0000   1.0000   1.0000   1.0000   1.0000   1.0000   1.0000   1.0000
     1.0000   1.0000   1.0000   1.0000   1.0000   1.0000   1.0000   1.0000
     1.0000   1.0000   1.0000   1.0000   1.0000   1.0000   1.0000   1.0000
     1.0000   1.0000   1.0000   1.0000   1.0000   1.0000   1.0000   1.0000
     1.0000   1.0000   1.0000   1.0000   1.0000   1.0000   1.0000   1.0000
     1.0000   1.0000   1.0000   1.0000   1.0000   1.0000   1.0000   1.0000
     1.0000   1.0000   1.0000   1.0000   1.0000   1.0000   1.0000   1.0000
     1.0000   1.0000   1.0000   1.0000   1.0000   1.0000   1.0000   1.0000
     1.0000   1.0000   1.0000   1.0000   1.0000   1.0000   1.0000   1.0000
     1.0000   1.0000   1.0000   1.0000   1.0000   1.0000   1.0000   1.0000
     1.0000   1.0000   1.0000   1.0000   1.0000   1.0000   1.0000   1.0000
     1.0000   1.0000   1.0000   1.0000   1.0000   1.0000   1.0000   1.0000
     1.0000   1.0000   1.0000   1.0000   1.0000   1.0000   1.0000   1.0000
     1.0000   1.0000   1.0000   1.0000   1.0000   1.0000   1.0000   1.0000
     1.0000   1.0000   1.0000   1.0000   1.0000   1.0000   1.0000   1.0000
     1.0000   1.0000   1.0000   1.0000   1.0000   1.0000   1.0000   1.0000
     1.0000   1.0000   1.0000   1.0000   1.0000   1.0000   1.0000   1.0000
     1.0000   1.0000   0.9999   0.9999   0.9998   0.9990   0.9977   0.9957
     0.9905   0.9878   0.9852   0.9835   0.9789   0.9210   0.8701   0.8588
     0.7554   0.7041   0.5919   0.4102   0.3695   0.3486   0.2966   0.2774
     0.0995   0.0589   0.0197   0.0159   0.0078   0.0049   0.0032   0.0027
     0.0009   0.0006   0.0002   0.0000   0.0000   0.0000   0.0000   0.0000
     0.0000   0.0000   0.0000   0.0000   0.0000   0.0000   0.0000   0.0000
     0.0000   0.0000   0.0000   0.0000   0.0000   0.0000   0.0000   0.0000
     0.0000   0.0000   0.0000   0.0000   0.0000   0.0000   0.0000   0.0000
     0.0000   0.0000   0.0000   0.0000   0.0000   0.0000   0.0000   0.0000
     0.0000   0.0000   0.0000   0.0000   0.0000   0.0000   0.0000   0.0000
     0.0000   0.0000   0.0000   0.0000   0.0000   0.0000   0.0000   0.0000

          k = 0.1667-0.2887 0.0000 ( 88188 PWs)   bands (ev):

   -95.5541 -95.5482 -95.5431 -95.5424 -95.5420 -95.5375 -95.5356 -95.5349
   -95.5229 -95.5181 -95.5178 -95.5159 -95.5135 -95.5132 -95.5101 -95.5098
   -95.5071 -95.4078 -95.1531 -95.1468 -95.1462 -95.1131 -95.1060 -95.1041
   -95.1030 -95.0968 -95.0944 -95.0912 -95.0900 -95.0890 -95.0853 -95.0813
   -95.0808 -94.9091 -94.9066 -94.9048 -49.8482 -49.8420 -49.8298 -49.8210
   -49.8164 -49.8092 -49.8014 -49.7986 -49.7925 -49.7850 -49.7821 -49.7776
   -49.7745 -49.7655 -49.7552 -49.7261 -49.7212 -49.7153 -49.7014 -49.6975
   -49.6935 -49.6892 -49.6868 -49.6805 -49.6715 -49.6613 -49.6561 -49.6443
   -49.6394 -49.6341 -49.6318 -49.6288 -49.6268 -49.6201 -49.6166 -49.6123
   -49.6080 -49.6051 -49.6011 -49.5978 -49.5935 -49.5894 -49.5876 -49.5826
   -49.5800 -49.5752 -49.5706 -49.5603 -49.5534 -49.5483 -49.5407 -49.5081
   -49.4960 -49.4858 -49.4813 -49.4732 -49.4673 -49.4546 -49.4524 -49.4378
   -49.4360 -49.4306 -49.4242 -49.4067 -49.4050 -49.4031 -49.3776 -49.3445
   -49.3398 -49.3383 -49.3366 -49.3184 -49.3115 -49.2914 -49.2722 -49.2657
   -49.2647 -49.2635 -49.2628 -49.2612 -49.2314 -49.2306 -49.2165 -49.1972
   -49.1818 -49.1470 -49.1345 -49.1162 -49.1010 -49.0905 -49.0623 -49.0521
   -49.0511 -49.0343 -49.0328 -49.0237 -49.0222 -49.0205 -49.0202 -49.0154
   -49.0135 -49.0118 -49.0077 -49.0021 -49.0015 -48.8237 -48.8184 -48.8160
   -11.9332  -5.9074  -4.6126  -4.3935  -4.3485  -3.5200  -3.4696  -3.4439
    -3.4296  -3.4271  -3.4134  -3.3528  -3.2783  -3.1823  -3.1672  -2.8906
    -2.8730  -2.7422  -2.7308  -2.5943  -2.5819  -2.5605  -2.5506  -2.5438
    -2.5200  -2.4681  -2.4521  -2.4198  -2.3709  -2.3607  -2.3257  -2.2675
    -2.2490  -2.2269  -2.1885  -2.1161  -2.0395  -1.9072  -1.8621  -1.8038
    -1.7846  -1.7320  -1.6827  -1.6517  -1.6368  -1.5948  -1.5537  -1.4666
    -1.4329  -1.3429  -1.3274  -1.3174  -1.2517  -1.2401  -1.2054  -1.1313
    -1.0845  -0.9217  -0.8867  -0.8588  -0.8479  -0.8367  -0.7805  -0.7544
    -0.7413  -0.7285  -0.6569  -0.6464  -0.5668  -0.5547  -0.5428  -0.5275
    -0.5198  -0.4062  -0.3818  -0.3520  -0.3376  -0.3154  -0.2714  -0.2249
    -0.2165  -0.1955  -0.1855  -0.1819  -0.1693  -0.1383  -0.1305  -0.1165
    -0.0548  -0.0504   0.0151   0.0319   0.0627   0.0840   0.1105   0.1157
     0.1589   0.1752   0.1819   0.1941   0.2158   0.2369   0.2516   0.2612
     0.3232   0.3357   0.3481   0.3790   0.4701   0.4990   0.5126   0.5281
     0.5831   0.5912   0.7481   0.8292   0.8475   0.8584   0.9069   0.9271
     0.9702   0.9971   1.0133   1.0291   1.0384   1.0556   1.1533   1.1656
     1.2522   1.3326   1.3906   1.3954   1.4343   1.4562   1.4953   1.5208
     1.5378   1.5476   1.6730   1.7116   1.7145   1.7334   1.7597   1.7689
     1.8184   1.8264   1.8549   1.8623   1.8963   1.9179   1.9595   1.9706
     1.9820   1.9992   2.0058   2.0479   2.0947   2.1151   2.1512   2.3126
     2.3579   2.3769   2.4519   2.4768   2.4990   2.5122   2.5808   2.6002
     2.6010   2.6146   2.6309   2.6635   2.6697   2.7043   2.7169   2.7198
     2.8285   2.8399   2.8440   2.8644   2.8867   2.8937   2.9028   2.9168
     2.9371   2.9413   2.9505   2.9663   3.0764   3.0907   3.0979   3.1566
     3.1726   3.1913   3.2231   3.3154   3.3360   3.5542   3.5594   3.6515
     3.9725   3.9824   4.2749   4.2997   4.9272   4.9849   5.0014   5.3402
     5.3475   5.7769   6.4509   6.4708   6.5813   6.7683   6.9411   7.2111
     7.2396   7.6473   7.7736   7.7893   7.8304   7.9603   8.7905   8.8075
     8.8960   8.9547   9.0330   9.1767   9.2297   9.3819   9.4600   9.5976
     9.6203   9.6432   9.9846  10.0796  10.1386  10.3950  10.4221  10.4903
    10.5089  10.5562  10.5622  10.9668  11.0802  11.0979  11.1221  11.1617

     occupation numbers 
     1.0000   1.0000   1.0000   1.0000   1.0000   1.0000   1.0000   1.0000
     1.0000   1.0000   1.0000   1.0000   1.0000   1.0000   1.0000   1.0000
     1.0000   1.0000   1.0000   1.0000   1.0000   1.0000   1.0000   1.0000
     1.0000   1.0000   1.0000   1.0000   1.0000   1.0000   1.0000   1.0000
     1.0000   1.0000   1.0000   1.0000   1.0000   1.0000   1.0000   1.0000
     1.0000   1.0000   1.0000   1.0000   1.0000   1.0000   1.0000   1.0000
     1.0000   1.0000   1.0000   1.0000   1.0000   1.0000   1.0000   1.0000
     1.0000   1.0000   1.0000   1.0000   1.0000   1.0000   1.0000   1.0000
     1.0000   1.0000   1.0000   1.0000   1.0000   1.0000   1.0000   1.0000
     1.0000   1.0000   1.0000   1.0000   1.0000   1.0000   1.0000   1.0000
     1.0000   1.0000   1.0000   1.0000   1.0000   1.0000   1.0000   1.0000
     1.0000   1.0000   1.0000   1.0000   1.0000   1.0000   1.0000   1.0000
     1.0000   1.0000   1.0000   1.0000   1.0000   1.0000   1.0000   1.0000
     1.0000   1.0000   1.0000   1.0000   1.0000   1.0000   1.0000   1.0000
     1.0000   1.0000   1.0000   1.0000   1.0000   1.0000   1.0000   1.0000
     1.0000   1.0000   1.0000   1.0000   1.0000   1.0000   1.0000   1.0000
     1.0000   1.0000   1.0000   1.0000   1.0000   1.0000   1.0000   1.0000
     1.0000   1.0000   1.0000   1.0000   1.0000   1.0000   1.0000   1.0000
     1.0000   1.0000   1.0000   1.0000   1.0000   1.0000   1.0000   1.0000
     1.0000   1.0000   1.0000   1.0000   1.0000   1.0000   1.0000   1.0000
     1.0000   1.0000   1.0000   1.0000   1.0000   1.0000   1.0000   1.0000
     1.0000   1.0000   1.0000   1.0000   1.0000   1.0000   1.0000   1.0000
     1.0000   1.0000   1.0000   1.0000   1.0000   1.0000   1.0000   1.0000
     1.0000   1.0000   1.0000   1.0000   1.0000   1.0000   1.0000   1.0000
     1.0000   1.0000   1.0000   1.0000   1.0000   1.0000   1.0000   1.0000
     1.0000   1.0000   1.0000   1.0000   1.0000   1.0000   1.0000   1.0000
     1.0000   1.0000   1.0000   1.0000   1.0000   1.0000   1.0000   1.0000
     1.0000   1.0000   1.0000   1.0000   1.0000   1.0000   1.0000   1.0000
     1.0000   1.0000   1.0000   1.0000   1.0000   1.0000   1.0000   1.0000
     1.0000   1.0000   1.0000   1.0000   1.0000   1.0000   1.0000   1.0000
     1.0000   1.0000   1.0000   1.0000   1.0000   1.0000   1.0000   1.0000
     1.0000   1.0000   1.0000   1.0000   1.0000   1.0000   1.0000   1.0000
     1.0000   1.0000   1.0000   1.0000   1.0000   1.0000   1.0000   1.0000
     1.0000   1.0000   1.0000   1.0000   1.0000   1.0000   1.0000   1.0000
     1.0000   1.0000   1.0000   1.0000   1.0000   1.0000   1.0000   1.0000
     1.0000   1.0000   1.0000   1.0000   1.0000   1.0000   1.0000   1.0000
     1.0000   1.0000   1.0000   1.0000   1.0000   1.0000   1.0000   1.0000
     1.0000   1.0000   1.0000   1.0000   1.0000   1.0000   1.0000   1.0000
     1.0000   1.0000   0.9999   0.9998   0.9997   0.9996   0.9986   0.9979
     0.9979   0.9972   0.9962   0.9927   0.9918   0.9837   0.9791   0.9779
     0.8343   0.8001   0.7866   0.7106   0.6110   0.5775   0.5323   0.4627
     0.3643   0.3450   0.3047   0.2424   0.0342   0.0259   0.0225   0.0071
     0.0051   0.0035   0.0019   0.0003   0.0002   0.0000   0.0000   0.0000
     0.0000   0.0000   0.0000   0.0000   0.0000   0.0000   0.0000   0.0000
     0.0000   0.0000   0.0000   0.0000   0.0000   0.0000   0.0000   0.0000
     0.0000   0.0000   0.0000   0.0000   0.0000   0.0000   0.0000   0.0000
     0.0000   0.0000   0.0000   0.0000   0.0000   0.0000   0.0000   0.0000
     0.0000   0.0000   0.0000   0.0000   0.0000   0.0000   0.0000   0.0000
     0.0000   0.0000   0.0000   0.0000   0.0000   0.0000   0.0000   0.0000

          k = 0.3333-0.1925 0.0000 ( 88170 PWs)   bands (ev):

   -95.5538 -95.5485 -95.5430 -95.5426 -95.5420 -95.5376 -95.5357 -95.5346
   -95.5229 -95.5181 -95.5179 -95.5158 -95.5136 -95.5133 -95.5100 -95.5094
   -95.5073 -95.4078 -95.1531 -95.1469 -95.1461 -95.1131 -95.1061 -95.1041
   -95.1026 -95.0976 -95.0940 -95.0918 -95.0896 -95.0889 -95.0852 -95.0812
   -95.0809 -94.9091 -94.9066 -94.9048 -49.8564 -49.8369 -49.8318 -49.8268
   -49.8131 -49.8104 -49.8077 -49.8062 -49.7968 -49.7885 -49.7878 -49.7814
   -49.7674 -49.7559 -49.7396 -49.7384 -49.7134 -49.7108 -49.6945 -49.6921
   -49.6865 -49.6837 -49.6834 -49.6814 -49.6690 -49.6687 -49.6497 -49.6449
   -49.6414 -49.6361 -49.6283 -49.6274 -49.6266 -49.6196 -49.6137 -49.6130
   -49.6066 -49.6053 -49.6040 -49.6008 -49.5940 -49.5931 -49.5859 -49.5851
   -49.5815 -49.5747 -49.5706 -49.5633 -49.5609 -49.5512 -49.5373 -49.5132
   -49.4963 -49.4902 -49.4794 -49.4786 -49.4650 -49.4607 -49.4408 -49.4395
   -49.4372 -49.4365 -49.4332 -49.4329 -49.3917 -49.3727 -49.3664 -49.3661
   -49.3326 -49.3322 -49.3159 -49.3143 -49.3114 -49.2934 -49.2752 -49.2749
   -49.2712 -49.2634 -49.2620 -49.2482 -49.2476 -49.2249 -49.2212 -49.1992
   -49.1788 -49.1461 -49.1334 -49.1171 -49.1070 -49.0903 -49.0621 -49.0527
   -49.0507 -49.0338 -49.0325 -49.0251 -49.0224 -49.0204 -49.0193 -49.0169
   -49.0126 -49.0116 -49.0074 -49.0021 -49.0017 -48.8237 -48.8183 -48.8161
   -11.9332  -5.8078  -4.7474  -4.5125  -3.8889  -3.8881  -3.5956  -3.4838
    -3.4189  -3.3489  -3.2842  -3.2469  -3.2449  -3.0208  -2.9888  -2.9368
    -2.9300  -2.8290  -2.6931  -2.6374  -2.5993  -2.5972  -2.5618  -2.5557
    -2.5359  -2.5270  -2.4832  -2.4527  -2.3722  -2.3489  -2.3335  -2.3194
    -2.1173  -2.1133  -2.0722  -2.0581  -2.0317  -2.0284  -1.8343  -1.8284
    -1.7525  -1.7335  -1.7013  -1.6317  -1.5856  -1.5848  -1.5601  -1.5310
    -1.3963  -1.3916  -1.3342  -1.3085  -1.2923  -1.2877  -1.2001  -1.1700
    -1.1428  -1.0341  -0.9510  -0.9475  -0.9274  -0.8144  -0.7812  -0.7526
    -0.7488  -0.7133  -0.7079  -0.6882  -0.6205  -0.4956  -0.4809  -0.4663
    -0.4571  -0.4256  -0.4021  -0.3933  -0.3579  -0.3253  -0.3237  -0.2599
    -0.2583  -0.2403  -0.2269  -0.2070  -0.1989  -0.1929  -0.1878  -0.1444
    -0.1341  -0.1014  -0.0724  -0.0474  -0.0395  -0.0098   0.1023   0.1225
     0.1260   0.1474   0.1543   0.1971   0.2606   0.2635   0.2805   0.2853
     0.3175   0.3838   0.4636   0.4699   0.5259   0.5342   0.5781   0.5914
     0.6734   0.7045   0.8494   0.8722   0.8745   0.8973   0.8990   0.9172
     0.9261   0.9472   0.9488   1.0301   1.0411   1.0706   1.0737   1.1058
     1.1549   1.2225   1.2566   1.2769   1.3107   1.4446   1.4571   1.4787
     1.4882   1.4993   1.5111   1.6663   1.7329   1.7415   1.7596   1.7606
     1.7936   1.8046   1.8379   1.8766   1.8935   1.9519   1.9696   2.0140
     2.0787   2.0915   2.0944   2.1064   2.1140   2.1369   2.1588   2.3112
     2.3485   2.3699   2.3944   2.4125   2.4127   2.4408   2.5119   2.5296
     2.5765   2.6184   2.6213   2.6321   2.6367   2.7404   2.7605   2.7667
     2.8180   2.8262   2.8539   2.8642   2.8830   2.9093   2.9214   2.9387
     2.9406   2.9483   3.0598   3.0770   3.0970   3.1032   3.1186   3.1205
     3.2888   3.3007   3.3376   3.7061   3.7207   3.7855   3.7923   3.8114
     4.0778   4.1075   4.2597   4.9892   5.0369   5.1152   5.1419   5.2121
     5.7771   5.7797   5.8117   5.8166   6.5252   6.5494   7.0033   7.1893
     7.2666   7.2739   7.7194   7.7446   8.1981   8.2133   8.5333   8.5539
     8.5919   9.0755   9.1006   9.1421   9.1608   9.4368   9.4430   9.5393
     9.5465   9.8233   9.9077  10.0389  10.1307  10.1783  10.2525  10.2688
    10.4957  10.5121  10.6456  10.7662  11.0528  11.1246  11.1764  11.1971

     occupation numbers 
     1.0000   1.0000   1.0000   1.0000   1.0000   1.0000   1.0000   1.0000
     1.0000   1.0000   1.0000   1.0000   1.0000   1.0000   1.0000   1.0000
     1.0000   1.0000   1.0000   1.0000   1.0000   1.0000   1.0000   1.0000
     1.0000   1.0000   1.0000   1.0000   1.0000   1.0000   1.0000   1.0000
     1.0000   1.0000   1.0000   1.0000   1.0000   1.0000   1.0000   1.0000
     1.0000   1.0000   1.0000   1.0000   1.0000   1.0000   1.0000   1.0000
     1.0000   1.0000   1.0000   1.0000   1.0000   1.0000   1.0000   1.0000
     1.0000   1.0000   1.0000   1.0000   1.0000   1.0000   1.0000   1.0000
     1.0000   1.0000   1.0000   1.0000   1.0000   1.0000   1.0000   1.0000
     1.0000   1.0000   1.0000   1.0000   1.0000   1.0000   1.0000   1.0000
     1.0000   1.0000   1.0000   1.0000   1.0000   1.0000   1.0000   1.0000
     1.0000   1.0000   1.0000   1.0000   1.0000   1.0000   1.0000   1.0000
     1.0000   1.0000   1.0000   1.0000   1.0000   1.0000   1.0000   1.0000
     1.0000   1.0000   1.0000   1.0000   1.0000   1.0000   1.0000   1.0000
     1.0000   1.0000   1.0000   1.0000   1.0000   1.0000   1.0000   1.0000
     1.0000   1.0000   1.0000   1.0000   1.0000   1.0000   1.0000   1.0000
     1.0000   1.0000   1.0000   1.0000   1.0000   1.0000   1.0000   1.0000
     1.0000   1.0000   1.0000   1.0000   1.0000   1.0000   1.0000   1.0000
     1.0000   1.0000   1.0000   1.0000   1.0000   1.0000   1.0000   1.0000
     1.0000   1.0000   1.0000   1.0000   1.0000   1.0000   1.0000   1.0000
     1.0000   1.0000   1.0000   1.0000   1.0000   1.0000   1.0000   1.0000
     1.0000   1.0000   1.0000   1.0000   1.0000   1.0000   1.0000   1.0000
     1.0000   1.0000   1.0000   1.0000   1.0000   1.0000   1.0000   1.0000
     1.0000   1.0000   1.0000   1.0000   1.0000   1.0000   1.0000   1.0000
     1.0000   1.0000   1.0000   1.0000   1.0000   1.0000   1.0000   1.0000
     1.0000   1.0000   1.0000   1.0000   1.0000   1.0000   1.0000   1.0000
     1.0000   1.0000   1.0000   1.0000   1.0000   1.0000   1.0000   1.0000
     1.0000   1.0000   1.0000   1.0000   1.0000   1.0000   1.0000   1.0000
     1.0000   1.0000   1.0000   1.0000   1.0000   1.0000   1.0000   1.0000
     1.0000   1.0000   1.0000   1.0000   1.0000   1.0000   1.0000   1.0000
     1.0000   1.0000   1.0000   1.0000   1.0000   1.0000   1.0000   1.0000
     1.0000   1.0000   1.0000   1.0000   1.0000   1.0000   1.0000   1.0000
     1.0000   1.0000   1.0000   1.0000   1.0000   1.0000   1.0000   1.0000
     1.0000   1.0000   1.0000   1.0000   1.0000   1.0000   1.0000   1.0000
     1.0000   1.0000   1.0000   1.0000   1.0000   1.0000   1.0000   1.0000
     1.0000   1.0000   1.0000   1.0000   1.0000   1.0000   1.0000   1.0000
     1.0000   1.0000   1.0000   1.0000   1.0000   1.0000   1.0000   1.0000
     1.0000   1.0000   1.0000   1.0000   1.0000   1.0000   1.0000   1.0000
     1.0000   1.0000   1.0000   1.0000   1.0000   0.9999   0.9996   0.9995
     0.9987   0.9970   0.9969   0.9961   0.9957   0.9670   0.9515   0.9454
     0.8612   0.8406   0.7517   0.7113   0.6287   0.5001   0.4399   0.3568
     0.3481   0.3143   0.0470   0.0338   0.0229   0.0203   0.0150   0.0144
     0.0005   0.0004   0.0002   0.0000   0.0000   0.0000   0.0000   0.0000
     0.0000   0.0000   0.0000   0.0000   0.0000   0.0000   0.0000   0.0000
     0.0000   0.0000   0.0000   0.0000   0.0000   0.0000   0.0000   0.0000
     0.0000   0.0000   0.0000   0.0000   0.0000   0.0000   0.0000   0.0000
     0.0000   0.0000   0.0000   0.0000   0.0000   0.0000   0.0000   0.0000
     0.0000   0.0000   0.0000   0.0000   0.0000   0.0000   0.0000   0.0000
     0.0000   0.0000   0.0000   0.0000   0.0000   0.0000   0.0000   0.0000

          k = 0.3333 0.0000 0.0000 ( 88188 PWs)   bands (ev):

   -95.5541 -95.5481 -95.5431 -95.5424 -95.5420 -95.5375 -95.5359 -95.5347
   -95.5229 -95.5180 -95.5179 -95.5159 -95.5136 -95.5132 -95.5101 -95.5098
   -95.5071 -95.4078 -95.1531 -95.1469 -95.1461 -95.1131 -95.1061 -95.1041
   -95.1030 -95.0967 -95.0945 -95.0911 -95.0900 -95.0890 -95.0853 -95.0812
   -95.0809 -94.9091 -94.9066 -94.9048 -49.8474 -49.8413 -49.8303 -49.8210
   -49.8170 -49.8091 -49.8012 -49.7981 -49.7929 -49.7850 -49.7825 -49.7779
   -49.7744 -49.7657 -49.7556 -49.7269 -49.7206 -49.7152 -49.7015 -49.6976
   -49.6936 -49.6892 -49.6868 -49.6805 -49.6715 -49.6611 -49.6558 -49.6440
   -49.6392 -49.6343 -49.6317 -49.6287 -49.6266 -49.6203 -49.6164 -49.6124
   -49.6080 -49.6049 -49.6008 -49.5977 -49.5936 -49.5894 -49.5880 -49.5822
   -49.5806 -49.5756 -49.5697 -49.5599 -49.5538 -49.5484 -49.5413 -49.5075
   -49.4965 -49.4854 -49.4813 -49.4732 -49.4676 -49.4545 -49.4524 -49.4379
   -49.4362 -49.4307 -49.4240 -49.4069 -49.4054 -49.4035 -49.3772 -49.3447
   -49.3396 -49.3382 -49.3366 -49.3180 -49.3116 -49.2911 -49.2723 -49.2658
   -49.2646 -49.2635 -49.2632 -49.2611 -49.2314 -49.2307 -49.2163 -49.1974
   -49.1817 -49.1467 -49.1347 -49.1165 -49.1010 -49.0904 -49.0623 -49.0526
   -49.0506 -49.0343 -49.0328 -49.0237 -49.0223 -49.0207 -49.0201 -49.0152
   -49.0136 -49.0118 -49.0077 -49.0020 -49.0016 -48.8237 -48.8183 -48.8161
   -11.9332  -5.9074  -4.6126  -4.3935  -4.3491  -3.5202  -3.4682  -3.4439
    -3.4300  -3.4272  -3.4134  -3.3525  -3.2782  -3.1821  -3.1672  -2.8921
    -2.8746  -2.7417  -2.7304  -2.5959  -2.5825  -2.5601  -2.5503  -2.5439
    -2.5204  -2.4672  -2.4514  -2.4192  -2.3706  -2.3596  -2.3254  -2.2671
    -2.2494  -2.2271  -2.1895  -2.1156  -2.0417  -1.9060  -1.8618  -1.8037
    -1.7832  -1.7319  -1.6822  -1.6517  -1.6360  -1.5952  -1.5543  -1.4663
    -1.4328  -1.3423  -1.3276  -1.3170  -1.2508  -1.2405  -1.2057  -1.1310
    -1.0845  -0.9202  -0.8858  -0.8576  -0.8458  -0.8352  -0.7801  -0.7559
    -0.7402  -0.7285  -0.6570  -0.6463  -0.5692  -0.5552  -0.5444  -0.5282
    -0.5211  -0.4040  -0.3809  -0.3516  -0.3382  -0.3171  -0.2706  -0.2265
    -0.2166  -0.1959  -0.1860  -0.1812  -0.1705  -0.1376  -0.1322  -0.1171
    -0.0547  -0.0509   0.0159   0.0327   0.0632   0.0837   0.1104   0.1159
     0.1587   0.1758   0.1809   0.1932   0.2153   0.2372   0.2510   0.2611
     0.3235   0.3347   0.3489   0.3789   0.4702   0.4987   0.5123   0.5286
     0.5826   0.5907   0.7481   0.8300   0.8460   0.8587   0.9053   0.9276
     0.9705   0.9974   1.0130   1.0282   1.0386   1.0551   1.1530   1.1644
     1.2562   1.3290   1.3904   1.3957   1.4334   1.4555   1.4955   1.5205
     1.5376   1.5472   1.6732   1.7113   1.7143   1.7338   1.7592   1.7690
     1.8192   1.8270   1.8559   1.8635   1.8967   1.9179   1.9608   1.9713
     1.9822   1.9998   2.0073   2.0477   2.0941   2.1159   2.1491   2.3119
     2.3567   2.3762   2.4517   2.4763   2.4994   2.5127   2.5806   2.5998
     2.6004   2.6148   2.6322   2.6639   2.6697   2.7032   2.7160   2.7187
     2.8285   2.8386   2.8461   2.8634   2.8867   2.8928   2.9031   2.9170
     2.9368   2.9415   2.9505   2.9659   3.0766   3.0923   3.0985   3.1583
     3.1744   3.1912   3.2226   3.3164   3.3365   3.5539   3.5590   3.6506
     3.9735   3.9836   4.2762   4.3008   4.9258   4.9844   5.0008   5.3401
     5.3470   5.7772   6.4531   6.4721   6.5817   6.7680   6.9402   7.2109
     7.2390   7.6473   7.7718   7.7885   7.8295   7.9583   8.7899   8.8066
     8.9006   8.9529   9.0331   9.1769   9.2299   9.3860   9.4643   9.5979
     9.6199   9.6430   9.9847  10.0798  10.1391  10.3998  10.4210  10.4900
    10.5074  10.5560  10.5589  10.9669  11.0794  11.0959  11.1210  11.1586

     occupation numbers 
     1.0000   1.0000   1.0000   1.0000   1.0000   1.0000   1.0000   1.0000
     1.0000   1.0000   1.0000   1.0000   1.0000   1.0000   1.0000   1.0000
     1.0000   1.0000   1.0000   1.0000   1.0000   1.0000   1.0000   1.0000
     1.0000   1.0000   1.0000   1.0000   1.0000   1.0000   1.0000   1.0000
     1.0000   1.0000   1.0000   1.0000   1.0000   1.0000   1.0000   1.0000
     1.0000   1.0000   1.0000   1.0000   1.0000   1.0000   1.0000   1.0000
     1.0000   1.0000   1.0000   1.0000   1.0000   1.0000   1.0000   1.0000
     1.0000   1.0000   1.0000   1.0000   1.0000   1.0000   1.0000   1.0000
     1.0000   1.0000   1.0000   1.0000   1.0000   1.0000   1.0000   1.0000
     1.0000   1.0000   1.0000   1.0000   1.0000   1.0000   1.0000   1.0000
     1.0000   1.0000   1.0000   1.0000   1.0000   1.0000   1.0000   1.0000
     1.0000   1.0000   1.0000   1.0000   1.0000   1.0000   1.0000   1.0000
     1.0000   1.0000   1.0000   1.0000   1.0000   1.0000   1.0000   1.0000
     1.0000   1.0000   1.0000   1.0000   1.0000   1.0000   1.0000   1.0000
     1.0000   1.0000   1.0000   1.0000   1.0000   1.0000   1.0000   1.0000
     1.0000   1.0000   1.0000   1.0000   1.0000   1.0000   1.0000   1.0000
     1.0000   1.0000   1.0000   1.0000   1.0000   1.0000   1.0000   1.0000
     1.0000   1.0000   1.0000   1.0000   1.0000   1.0000   1.0000   1.0000
     1.0000   1.0000   1.0000   1.0000   1.0000   1.0000   1.0000   1.0000
     1.0000   1.0000   1.0000   1.0000   1.0000   1.0000   1.0000   1.0000
     1.0000   1.0000   1.0000   1.0000   1.0000   1.0000   1.0000   1.0000
     1.0000   1.0000   1.0000   1.0000   1.0000   1.0000   1.0000   1.0000
     1.0000   1.0000   1.0000   1.0000   1.0000   1.0000   1.0000   1.0000
     1.0000   1.0000   1.0000   1.0000   1.0000   1.0000   1.0000   1.0000
     1.0000   1.0000   1.0000   1.0000   1.0000   1.0000   1.0000   1.0000
     1.0000   1.0000   1.0000   1.0000   1.0000   1.0000   1.0000   1.0000
     1.0000   1.0000   1.0000   1.0000   1.0000   1.0000   1.0000   1.0000
     1.0000   1.0000   1.0000   1.0000   1.0000   1.0000   1.0000   1.0000
     1.0000   1.0000   1.0000   1.0000   1.0000   1.0000   1.0000   1.0000
     1.0000   1.0000   1.0000   1.0000   1.0000   1.0000   1.0000   1.0000
     1.0000   1.0000   1.0000   1.0000   1.0000   1.0000   1.0000   1.0000
     1.0000   1.0000   1.0000   1.0000   1.0000   1.0000   1.0000   1.0000
     1.0000   1.0000   1.0000   1.0000   1.0000   1.0000   1.0000   1.0000
     1.0000   1.0000   1.0000   1.0000   1.0000   1.0000   1.0000   1.0000
     1.0000   1.0000   1.0000   1.0000   1.0000   1.0000   1.0000   1.0000
     1.0000   1.0000   1.0000   1.0000   1.0000   1.0000   1.0000   1.0000
     1.0000   1.0000   1.0000   1.0000   1.0000   1.0000   1.0000   1.0000
     1.0000   1.0000   1.0000   1.0000   1.0000   1.0000   1.0000   1.0000
     1.0000   1.0000   0.9999   0.9998   0.9997   0.9996   0.9986   0.9980
     0.9979   0.9972   0.9961   0.9927   0.9918   0.9840   0.9795   0.9784
     0.8341   0.8043   0.7798   0.7146   0.6110   0.5818   0.5310   0.4617
     0.3656   0.3441   0.3046   0.2438   0.0340   0.0251   0.0222   0.0068
     0.0050   0.0035   0.0019   0.0003   0.0002   0.0000   0.0000   0.0000
     0.0000   0.0000   0.0000   0.0000   0.0000   0.0000   0.0000   0.0000
     0.0000   0.0000   0.0000   0.0000   0.0000   0.0000   0.0000   0.0000
     0.0000   0.0000   0.0000   0.0000   0.0000   0.0000   0.0000   0.0000
     0.0000   0.0000   0.0000   0.0000   0.0000   0.0000   0.0000   0.0000
     0.0000   0.0000   0.0000   0.0000   0.0000   0.0000   0.0000   0.0000
     0.0000   0.0000   0.0000   0.0000   0.0000   0.0000   0.0000   0.0000

          k = 0.3333 0.1925 0.0000 ( 88170 PWs)   bands (ev):

   -95.5538 -95.5485 -95.5430 -95.5426 -95.5420 -95.5376 -95.5357 -95.5346
   -95.5229 -95.5181 -95.5179 -95.5158 -95.5136 -95.5133 -95.5100 -95.5094
   -95.5073 -95.4078 -95.1531 -95.1469 -95.1461 -95.1131 -95.1061 -95.1041
   -95.1026 -95.0976 -95.0940 -95.0918 -95.0896 -95.0889 -95.0851 -95.0812
   -95.0809 -94.9091 -94.9066 -94.9048 -49.8564 -49.8369 -49.8318 -49.8268
   -49.8131 -49.8104 -49.8077 -49.8062 -49.7968 -49.7885 -49.7878 -49.7814
   -49.7674 -49.7559 -49.7396 -49.7384 -49.7134 -49.7108 -49.6945 -49.6921
   -49.6865 -49.6837 -49.6834 -49.6814 -49.6690 -49.6687 -49.6497 -49.6449
   -49.6414 -49.6361 -49.6283 -49.6274 -49.6266 -49.6196 -49.6137 -49.6130
   -49.6066 -49.6054 -49.6039 -49.6008 -49.5940 -49.5931 -49.5859 -49.5851
   -49.5815 -49.5747 -49.5705 -49.5632 -49.5609 -49.5513 -49.5373 -49.5132
   -49.4964 -49.4902 -49.4794 -49.4786 -49.4650 -49.4607 -49.4408 -49.4395
   -49.4372 -49.4365 -49.4332 -49.4329 -49.3917 -49.3727 -49.3664 -49.3661
   -49.3326 -49.3322 -49.3159 -49.3143 -49.3114 -49.2934 -49.2752 -49.2749
   -49.2712 -49.2634 -49.2620 -49.2482 -49.2476 -49.2249 -49.2212 -49.1992
   -49.1788 -49.1461 -49.1334 -49.1171 -49.1070 -49.0903 -49.0621 -49.0528
   -49.0507 -49.0338 -49.0325 -49.0251 -49.0224 -49.0204 -49.0193 -49.0168
   -49.0126 -49.0116 -49.0074 -49.0021 -49.0017 -48.8237 -48.8183 -48.8161
   -11.9332  -5.8078  -4.7474  -4.5125  -3.8889  -3.8881  -3.5956  -3.4838
    -3.4189  -3.3489  -3.2842  -3.2468  -3.2449  -3.0208  -2.9888  -2.9369
    -2.9300  -2.8290  -2.6931  -2.6374  -2.5993  -2.5972  -2.5618  -2.5557
    -2.5358  -2.5270  -2.4832  -2.4527  -2.3722  -2.3489  -2.3335  -2.3194
    -2.1173  -2.1133  -2.0722  -2.0581  -2.0317  -2.0284  -1.8343  -1.8284
    -1.7525  -1.7335  -1.7013  -1.6317  -1.5856  -1.5848  -1.5601  -1.5310
    -1.3963  -1.3916  -1.3342  -1.3085  -1.2923  -1.2877  -1.2001  -1.1700
    -1.1427  -1.0341  -0.9509  -0.9475  -0.9273  -0.8144  -0.7812  -0.7527
    -0.7488  -0.7133  -0.7080  -0.6882  -0.6204  -0.4957  -0.4809  -0.4663
    -0.4572  -0.4256  -0.4021  -0.3933  -0.3579  -0.3253  -0.3237  -0.2599
    -0.2583  -0.2403  -0.2269  -0.2070  -0.1989  -0.1929  -0.1878  -0.1444
    -0.1341  -0.1014  -0.0724  -0.0474  -0.0395  -0.0098   0.1022   0.1225
     0.1259   0.1474   0.1542   0.1971   0.2606   0.2634   0.2805   0.2853
     0.3175   0.3838   0.4636   0.4699   0.5259   0.5342   0.5782   0.5915
     0.6734   0.7046   0.8494   0.8722   0.8746   0.8973   0.8990   0.9172
     0.9261   0.9472   0.9488   1.0301   1.0411   1.0706   1.0737   1.1057
     1.1549   1.2226   1.2566   1.2768   1.3107   1.4446   1.4571   1.4787
     1.4882   1.4993   1.5111   1.6664   1.7329   1.7415   1.7596   1.7606
     1.7935   1.8046   1.8379   1.8766   1.8935   1.9519   1.9696   2.0140
     2.0787   2.0915   2.0944   2.1064   2.1140   2.1369   2.1589   2.3112
     2.3485   2.3698   2.3944   2.4125   2.4127   2.4408   2.5119   2.5296
     2.5765   2.6184   2.6213   2.6321   2.6367   2.7404   2.7604   2.7666
     2.8180   2.8262   2.8539   2.8642   2.8830   2.9093   2.9212   2.9390
     2.9405   2.9483   3.0598   3.0770   3.0970   3.1032   3.1186   3.1205
     3.2888   3.3007   3.3376   3.7061   3.7207   3.7855   3.7923   3.8114
     4.0778   4.1076   4.2598   4.9892   5.0369   5.1152   5.1419   5.2121
     5.7771   5.7797   5.8117   5.8167   6.5252   6.5494   7.0033   7.1893
     7.2666   7.2739   7.7194   7.7446   8.1981   8.2134   8.5332   8.5539
     8.5920   9.0755   9.1006   9.1422   9.1609   9.4368   9.4430   9.5393
     9.5465   9.8234   9.9076  10.0389  10.1307  10.1783  10.2525  10.2688
    10.4957  10.5120  10.6456  10.7661  11.0528  11.1245  11.1764  11.1971

     occupation numbers 
     1.0000   1.0000   1.0000   1.0000   1.0000   1.0000   1.0000   1.0000
     1.0000   1.0000   1.0000   1.0000   1.0000   1.0000   1.0000   1.0000
     1.0000   1.0000   1.0000   1.0000   1.0000   1.0000   1.0000   1.0000
     1.0000   1.0000   1.0000   1.0000   1.0000   1.0000   1.0000   1.0000
     1.0000   1.0000   1.0000   1.0000   1.0000   1.0000   1.0000   1.0000
     1.0000   1.0000   1.0000   1.0000   1.0000   1.0000   1.0000   1.0000
     1.0000   1.0000   1.0000   1.0000   1.0000   1.0000   1.0000   1.0000
     1.0000   1.0000   1.0000   1.0000   1.0000   1.0000   1.0000   1.0000
     1.0000   1.0000   1.0000   1.0000   1.0000   1.0000   1.0000   1.0000
     1.0000   1.0000   1.0000   1.0000   1.0000   1.0000   1.0000   1.0000
     1.0000   1.0000   1.0000   1.0000   1.0000   1.0000   1.0000   1.0000
     1.0000   1.0000   1.0000   1.0000   1.0000   1.0000   1.0000   1.0000
     1.0000   1.0000   1.0000   1.0000   1.0000   1.0000   1.0000   1.0000
     1.0000   1.0000   1.0000   1.0000   1.0000   1.0000   1.0000   1.0000
     1.0000   1.0000   1.0000   1.0000   1.0000   1.0000   1.0000   1.0000
     1.0000   1.0000   1.0000   1.0000   1.0000   1.0000   1.0000   1.0000
     1.0000   1.0000   1.0000   1.0000   1.0000   1.0000   1.0000   1.0000
     1.0000   1.0000   1.0000   1.0000   1.0000   1.0000   1.0000   1.0000
     1.0000   1.0000   1.0000   1.0000   1.0000   1.0000   1.0000   1.0000
     1.0000   1.0000   1.0000   1.0000   1.0000   1.0000   1.0000   1.0000
     1.0000   1.0000   1.0000   1.0000   1.0000   1.0000   1.0000   1.0000
     1.0000   1.0000   1.0000   1.0000   1.0000   1.0000   1.0000   1.0000
     1.0000   1.0000   1.0000   1.0000   1.0000   1.0000   1.0000   1.0000
     1.0000   1.0000   1.0000   1.0000   1.0000   1.0000   1.0000   1.0000
     1.0000   1.0000   1.0000   1.0000   1.0000   1.0000   1.0000   1.0000
     1.0000   1.0000   1.0000   1.0000   1.0000   1.0000   1.0000   1.0000
     1.0000   1.0000   1.0000   1.0000   1.0000   1.0000   1.0000   1.0000
     1.0000   1.0000   1.0000   1.0000   1.0000   1.0000   1.0000   1.0000
     1.0000   1.0000   1.0000   1.0000   1.0000   1.0000   1.0000   1.0000
     1.0000   1.0000   1.0000   1.0000   1.0000   1.0000   1.0000   1.0000
     1.0000   1.0000   1.0000   1.0000   1.0000   1.0000   1.0000   1.0000
     1.0000   1.0000   1.0000   1.0000   1.0000   1.0000   1.0000   1.0000
     1.0000   1.0000   1.0000   1.0000   1.0000   1.0000   1.0000   1.0000
     1.0000   1.0000   1.0000   1.0000   1.0000   1.0000   1.0000   1.0000
     1.0000   1.0000   1.0000   1.0000   1.0000   1.0000   1.0000   1.0000
     1.0000   1.0000   1.0000   1.0000   1.0000   1.0000   1.0000   1.0000
     1.0000   1.0000   1.0000   1.0000   1.0000   1.0000   1.0000   1.0000
     1.0000   1.0000   1.0000   1.0000   1.0000   1.0000   1.0000   1.0000
     1.0000   1.0000   1.0000   1.0000   1.0000   0.9999   0.9996   0.9995
     0.9987   0.9970   0.9969   0.9961   0.9957   0.9670   0.9515   0.9455
     0.8612   0.8406   0.7517   0.7113   0.6286   0.4999   0.4406   0.3555
     0.3487   0.3140   0.0470   0.0338   0.0229   0.0203   0.0150   0.0144
     0.0005   0.0004   0.0002   0.0000   0.0000   0.0000   0.0000   0.0000
     0.0000   0.0000   0.0000   0.0000   0.0000   0.0000   0.0000   0.0000
     0.0000   0.0000   0.0000   0.0000   0.0000   0.0000   0.0000   0.0000
     0.0000   0.0000   0.0000   0.0000   0.0000   0.0000   0.0000   0.0000
     0.0000   0.0000   0.0000   0.0000   0.0000   0.0000   0.0000   0.0000
     0.0000   0.0000   0.0000   0.0000   0.0000   0.0000   0.0000   0.0000
     0.0000   0.0000   0.0000   0.0000   0.0000   0.0000   0.0000   0.0000

          k = 0.3333-0.7698 0.0000 ( 88140 PWs)   bands (ev):

   -95.5532 -95.5492 -95.5435 -95.5423 -95.5419 -95.5377 -95.5355 -95.5345
   -95.5229 -95.5181 -95.5180 -95.5158 -95.5140 -95.5133 -95.5096 -95.5090
   -95.5078 -95.4078 -95.1530 -95.1470 -95.1462 -95.1131 -95.1061 -95.1041
   -95.1014 -95.0987 -95.0951 -95.0909 -95.0895 -95.0889 -95.0850 -95.0814
   -95.0808 -94.9091 -94.9066 -94.9048 -49.8604 -49.8487 -49.8415 -49.8316
   -49.8216 -49.8153 -49.8084 -49.8000 -49.7936 -49.7880 -49.7859 -49.7819
   -49.7721 -49.7594 -49.7559 -49.7073 -49.7008 -49.6977 -49.6942 -49.6877
   -49.6848 -49.6787 -49.6731 -49.6658 -49.6600 -49.6568 -49.6509 -49.6459
   -49.6407 -49.6363 -49.6324 -49.6275 -49.6235 -49.6217 -49.6193 -49.6163
   -49.6124 -49.6062 -49.6025 -49.6009 -49.5963 -49.5920 -49.5872 -49.5847
   -49.5821 -49.5813 -49.5785 -49.5731 -49.5608 -49.5544 -49.5410 -49.5161
   -49.5006 -49.4934 -49.4850 -49.4775 -49.4711 -49.4678 -49.4566 -49.4503
   -49.4414 -49.4278 -49.4258 -49.4193 -49.3951 -49.3913 -49.3507 -49.3239
   -49.3231 -49.3164 -49.3097 -49.3088 -49.2947 -49.2908 -49.2881 -49.2828
   -49.2758 -49.2701 -49.2691 -49.2614 -49.2484 -49.2320 -49.2179 -49.2058
   -49.1706 -49.1470 -49.1318 -49.1218 -49.1112 -49.0944 -49.0616 -49.0530
   -49.0509 -49.0330 -49.0311 -49.0269 -49.0224 -49.0218 -49.0204 -49.0150
   -49.0123 -49.0115 -49.0071 -49.0026 -49.0016 -48.8238 -48.8183 -48.8160
   -11.9332  -5.5164  -4.9774  -4.4802  -4.2360  -3.7606  -3.4094  -3.3582
    -3.3471  -3.2417  -3.2025  -3.1436  -3.0905  -3.0290  -3.0163  -2.8998
    -2.8256  -2.8190  -2.7522  -2.7137  -2.6797  -2.6676  -2.6458  -2.6110
    -2.5558  -2.5196  -2.4584  -2.4432  -2.3832  -2.3413  -2.2900  -2.2261
    -2.2064  -2.1853  -2.1357  -2.1186  -2.0183  -1.9770  -1.8979  -1.8518
    -1.7159  -1.6592  -1.6406  -1.5741  -1.5558  -1.5459  -1.5305  -1.4513
    -1.4356  -1.3941  -1.3561  -1.3002  -1.2390  -1.2072  -1.1869  -1.1542
    -1.1349  -1.1072  -1.0585  -1.0321  -0.9907  -0.9455  -0.8870  -0.8633
    -0.8581  -0.8077  -0.7799  -0.6776  -0.6416  -0.6202  -0.5667  -0.5513
    -0.5442  -0.5163  -0.4839  -0.4681  -0.4325  -0.4054  -0.3724  -0.3568
    -0.2859  -0.2645  -0.2469  -0.2232  -0.2178  -0.1814  -0.1035  -0.0797
    -0.0590  -0.0479  -0.0293   0.0277   0.0363   0.0603   0.0821   0.0914
     0.1066   0.1213   0.1429   0.1790   0.1888   0.2058   0.2251   0.2545
     0.2928   0.3207   0.3442   0.3816   0.4364   0.4686   0.4915   0.5804
     0.5979   0.6328   0.7322   0.8029   0.8318   0.8632   0.8877   0.9097
     0.9457   0.9687   0.9751   1.0360   1.0630   1.0766   1.0968   1.1226
     1.1608   1.1980   1.2069   1.2666   1.3097   1.3470   1.4657   1.4896
     1.5040   1.5335   1.5839   1.6204   1.6301   1.6453   1.6710   1.6978
     1.7108   1.7474   1.8162   1.8462   1.8756   1.8885   1.8990   1.9193
     1.9430   1.9572   2.0736   2.1046   2.1646   2.2301   2.2491   2.3322
     2.3633   2.3806   2.4398   2.4470   2.4747   2.5634   2.6055   2.6370
     2.6758   2.6885   2.6980   2.7041   2.7153   2.7879   2.8158   2.8189
     2.8540   2.8641   2.8901   2.9274   2.9364   2.9410   2.9524   2.9575
     3.0193   3.0466   3.1075   3.1176   3.1518   3.1752   3.1963   3.2053
     3.2568   3.2809   3.3386   3.9287   4.1985   4.2158   4.2665   4.3380
     4.6211   4.7826   4.8420   5.1412   5.1914   5.2293   5.2686   5.3607
     5.6215   5.7477   5.8406   6.0661   6.3587   6.4370   6.4885   6.6249
     6.8118   7.1004   7.2817   7.5259   7.5832   7.6232   8.3443   8.5961
     8.6146   8.6769   8.8614   9.1034   9.1952   9.2930   9.4517   9.4758
     9.6545   9.7165   9.8323  10.0000  10.0780  10.0856  10.2024  10.4284
    10.5659  10.8243  10.8509  10.9372  10.9670  11.0233  11.1141  11.1310

     occupation numbers 
     1.0000   1.0000   1.0000   1.0000   1.0000   1.0000   1.0000   1.0000
     1.0000   1.0000   1.0000   1.0000   1.0000   1.0000   1.0000   1.0000
     1.0000   1.0000   1.0000   1.0000   1.0000   1.0000   1.0000   1.0000
     1.0000   1.0000   1.0000   1.0000   1.0000   1.0000   1.0000   1.0000
     1.0000   1.0000   1.0000   1.0000   1.0000   1.0000   1.0000   1.0000
     1.0000   1.0000   1.0000   1.0000   1.0000   1.0000   1.0000   1.0000
     1.0000   1.0000   1.0000   1.0000   1.0000   1.0000   1.0000   1.0000
     1.0000   1.0000   1.0000   1.0000   1.0000   1.0000   1.0000   1.0000
     1.0000   1.0000   1.0000   1.0000   1.0000   1.0000   1.0000   1.0000
     1.0000   1.0000   1.0000   1.0000   1.0000   1.0000   1.0000   1.0000
     1.0000   1.0000   1.0000   1.0000   1.0000   1.0000   1.0000   1.0000
     1.0000   1.0000   1.0000   1.0000   1.0000   1.0000   1.0000   1.0000
     1.0000   1.0000   1.0000   1.0000   1.0000   1.0000   1.0000   1.0000
     1.0000   1.0000   1.0000   1.0000   1.0000   1.0000   1.0000   1.0000
     1.0000   1.0000   1.0000   1.0000   1.0000   1.0000   1.0000   1.0000
     1.0000   1.0000   1.0000   1.0000   1.0000   1.0000   1.0000   1.0000
     1.0000   1.0000   1.0000   1.0000   1.0000   1.0000   1.0000   1.0000
     1.0000   1.0000   1.0000   1.0000   1.0000   1.0000   1.0000   1.0000
     1.0000   1.0000   1.0000   1.0000   1.0000   1.0000   1.0000   1.0000
     1.0000   1.0000   1.0000   1.0000   1.0000   1.0000   1.0000   1.0000
     1.0000   1.0000   1.0000   1.0000   1.0000   1.0000   1.0000   1.0000
     1.0000   1.0000   1.0000   1.0000   1.0000   1.0000   1.0000   1.0000
     1.0000   1.0000   1.0000   1.0000   1.0000   1.0000   1.0000   1.0000
     1.0000   1.0000   1.0000   1.0000   1.0000   1.0000   1.0000   1.0000
     1.0000   1.0000   1.0000   1.0000   1.0000   1.0000   1.0000   1.0000
     1.0000   1.0000   1.0000   1.0000   1.0000   1.0000   1.0000   1.0000
     1.0000   1.0000   1.0000   1.0000   1.0000   1.0000   1.0000   1.0000
     1.0000   1.0000   1.0000   1.0000   1.0000   1.0000   1.0000   1.0000
     1.0000   1.0000   1.0000   1.0000   1.0000   1.0000   1.0000   1.0000
     1.0000   1.0000   1.0000   1.0000   1.0000   1.0000   1.0000   1.0000
     1.0000   1.0000   1.0000   1.0000   1.0000   1.0000   1.0000   1.0000
     1.0000   1.0000   1.0000   1.0000   1.0000   1.0000   1.0000   1.0000
     1.0000   1.0000   1.0000   1.0000   1.0000   1.0000   1.0000   1.0000
     1.0000   1.0000   1.0000   1.0000   1.0000   1.0000   1.0000   1.0000
     1.0000   1.0000   1.0000   1.0000   1.0000   1.0000   1.0000   1.0000
     1.0000   1.0000   1.0000   1.0000   1.0000   1.0000   1.0000   1.0000
     1.0000   1.0000   1.0000   1.0000   1.0000   1.0000   1.0000   1.0000
     1.0000   1.0000   1.0000   1.0000   1.0000   1.0000   1.0000   1.0000
     1.0000   1.0000   0.9999   0.9999   0.9998   0.9990   0.9977   0.9957
     0.9907   0.9881   0.9856   0.9838   0.9798   0.9190   0.8664   0.8591
     0.7513   0.7118   0.5950   0.4103   0.3678   0.3464   0.2969   0.2762
     0.0996   0.0603   0.0186   0.0153   0.0078   0.0049   0.0032   0.0027
     0.0010   0.0006   0.0002   0.0000   0.0000   0.0000   0.0000   0.0000
     0.0000   0.0000   0.0000   0.0000   0.0000   0.0000   0.0000   0.0000
     0.0000   0.0000   0.0000   0.0000   0.0000   0.0000   0.0000   0.0000
     0.0000   0.0000   0.0000   0.0000   0.0000   0.0000   0.0000   0.0000
     0.0000   0.0000   0.0000   0.0000   0.0000   0.0000   0.0000   0.0000
     0.0000   0.0000   0.0000   0.0000   0.0000   0.0000   0.0000   0.0000
     0.0000   0.0000   0.0000   0.0000   0.0000   0.0000   0.0000   0.0000

          k = 0.3333-0.5774 0.0000 ( 88062 PWs)   bands (ev):

   -95.5527 -95.5496 -95.5439 -95.5421 -95.5418 -95.5378 -95.5354 -95.5344
   -95.5229 -95.5182 -95.5180 -95.5157 -95.5142 -95.5132 -95.5090 -95.5088
   -95.5083 -95.4078 -95.1529 -95.1470 -95.1462 -95.1131 -95.1061 -95.1041
   -95.1003 -95.0996 -95.0960 -95.0897 -95.0895 -95.0894 -95.0849 -95.0816
   -95.0807 -94.9091 -94.9066 -94.9048 -49.8593 -49.8529 -49.8511 -49.8294
   -49.8287 -49.8228 -49.8038 -49.7958 -49.7878 -49.7867 -49.7846 -49.7830
   -49.7725 -49.7670 -49.7610 -49.7030 -49.7013 -49.7003 -49.6842 -49.6791
   -49.6752 -49.6672 -49.6645 -49.6627 -49.6589 -49.6554 -49.6486 -49.6432
   -49.6426 -49.6369 -49.6318 -49.6310 -49.6287 -49.6224 -49.6163 -49.6159
   -49.6139 -49.6080 -49.6067 -49.5999 -49.5992 -49.5973 -49.5893 -49.5885
   -49.5868 -49.5806 -49.5755 -49.5735 -49.5602 -49.5582 -49.5461 -49.5106
   -49.5077 -49.4914 -49.4905 -49.4767 -49.4761 -49.4647 -49.4631 -49.4620
   -49.4424 -49.4135 -49.4113 -49.4110 -49.4093 -49.4078 -49.3370 -49.3301
   -49.3048 -49.2962 -49.2945 -49.2943 -49.2938 -49.2870 -49.2852 -49.2849
   -49.2834 -49.2824 -49.2812 -49.2811 -49.2602 -49.2189 -49.2169 -49.2167
   -49.1635 -49.1443 -49.1428 -49.1198 -49.1082 -49.1000 -49.0613 -49.0531
   -49.0510 -49.0328 -49.0290 -49.0284 -49.0235 -49.0224 -49.0205 -49.0129
   -49.0126 -49.0120 -49.0069 -49.0028 -49.0015 -48.8238 -48.8183 -48.8160
   -11.9332  -5.0854  -5.0720  -5.0089  -3.8590  -3.8443  -3.7448  -3.2178
    -3.1984  -3.1947  -3.0747  -3.0725  -3.0461  -2.9238  -2.8931  -2.8513
    -2.7734  -2.7520  -2.7439  -2.7344  -2.7334  -2.7147  -2.7038  -2.6862
    -2.6037  -2.5757  -2.5550  -2.5130  -2.3461  -2.3390  -2.3203  -2.2627
    -2.2557  -2.2337  -2.2045  -2.1640  -2.1589  -1.7905  -1.7848  -1.7501
    -1.7353  -1.6822  -1.6722  -1.6693  -1.6433  -1.6380  -1.3129  -1.3096
    -1.2983  -1.2958  -1.2815  -1.2658  -1.2177  -1.2092  -1.2005  -1.1716
    -1.1322  -1.1056  -1.0766  -1.0749  -1.0402  -1.0195  -0.9986  -0.9970
    -0.8248  -0.7859  -0.7619  -0.7378  -0.7212  -0.6892  -0.5930  -0.5846
    -0.5818  -0.5730  -0.5601  -0.4704  -0.3782  -0.3681  -0.3453  -0.3230
    -0.3103  -0.2548  -0.2524  -0.2453  -0.2232  -0.2203  -0.2098  -0.2002
    -0.1787  -0.0949  -0.0806  -0.0341  -0.0213  -0.0176   0.1217   0.1476
     0.1636   0.1673   0.1713   0.1868   0.1989   0.2027   0.2044   0.2382
     0.2483   0.2733   0.3452   0.3581   0.3885   0.3890   0.4030   0.4147
     0.7579   0.7829   0.8002   0.8131   0.8312   0.8327   0.8424   0.8561
     0.8939   0.9101   0.9136   0.9205   1.0649   1.0785   1.0907   1.1200
     1.1482   1.1497   1.1823   1.2769   1.2813   1.3917   1.4014   1.4097
     1.5812   1.5909   1.5954   1.6442   1.6605   1.6820   1.6909   1.7134
     1.7181   1.7419   1.7493   1.7503   1.8324   1.8616   1.8884   1.9957
     2.0170   2.0575   2.0854   2.0884   2.0978   2.1028   2.1237   2.1335
     2.5054   2.5184   2.5236   2.5341   2.5450   2.5612   2.6442   2.6537
     2.6565   2.7196   2.7471   2.7499   2.8207   2.8233   2.8248   2.8982
     2.9054   2.9169   2.9173   2.9181   2.9310   2.9332   2.9408   2.9468
     3.0344   3.0457   3.0787   3.1020   3.1048   3.1172   3.1444   3.1556
     3.1764   3.9676   3.9691   3.9812   4.2368   4.2482   4.2602   4.6908
     4.6968   4.7481   5.2464   5.2547   5.2640   5.2815   5.2983   5.3195
     6.0499   6.0560   6.0603   6.4457   6.4641   6.4714   6.5466   6.5691
     6.5978   6.6661   6.6827   6.7128   7.2688   7.2973   7.2997   8.6204
     8.6250   8.6502   8.8014   8.8522   8.8777   9.5492   9.5797   9.5811
     9.5863   9.6138   9.6369  10.2841  10.3856  10.4055  10.4451  10.5286
    10.5402  10.7964  10.8267  10.8501  11.1039  11.1421  11.2254  11.2261

     occupation numbers 
     1.0000   1.0000   1.0000   1.0000   1.0000   1.0000   1.0000   1.0000
     1.0000   1.0000   1.0000   1.0000   1.0000   1.0000   1.0000   1.0000
     1.0000   1.0000   1.0000   1.0000   1.0000   1.0000   1.0000   1.0000
     1.0000   1.0000   1.0000   1.0000   1.0000   1.0000   1.0000   1.0000
     1.0000   1.0000   1.0000   1.0000   1.0000   1.0000   1.0000   1.0000
     1.0000   1.0000   1.0000   1.0000   1.0000   1.0000   1.0000   1.0000
     1.0000   1.0000   1.0000   1.0000   1.0000   1.0000   1.0000   1.0000
     1.0000   1.0000   1.0000   1.0000   1.0000   1.0000   1.0000   1.0000
     1.0000   1.0000   1.0000   1.0000   1.0000   1.0000   1.0000   1.0000
     1.0000   1.0000   1.0000   1.0000   1.0000   1.0000   1.0000   1.0000
     1.0000   1.0000   1.0000   1.0000   1.0000   1.0000   1.0000   1.0000
     1.0000   1.0000   1.0000   1.0000   1.0000   1.0000   1.0000   1.0000
     1.0000   1.0000   1.0000   1.0000   1.0000   1.0000   1.0000   1.0000
     1.0000   1.0000   1.0000   1.0000   1.0000   1.0000   1.0000   1.0000
     1.0000   1.0000   1.0000   1.0000   1.0000   1.0000   1.0000   1.0000
     1.0000   1.0000   1.0000   1.0000   1.0000   1.0000   1.0000   1.0000
     1.0000   1.0000   1.0000   1.0000   1.0000   1.0000   1.0000   1.0000
     1.0000   1.0000   1.0000   1.0000   1.0000   1.0000   1.0000   1.0000
     1.0000   1.0000   1.0000   1.0000   1.0000   1.0000   1.0000   1.0000
     1.0000   1.0000   1.0000   1.0000   1.0000   1.0000   1.0000   1.0000
     1.0000   1.0000   1.0000   1.0000   1.0000   1.0000   1.0000   1.0000
     1.0000   1.0000   1.0000   1.0000   1.0000   1.0000   1.0000   1.0000
     1.0000   1.0000   1.0000   1.0000   1.0000   1.0000   1.0000   1.0000
     1.0000   1.0000   1.0000   1.0000   1.0000   1.0000   1.0000   1.0000
     1.0000   1.0000   1.0000   1.0000   1.0000   1.0000   1.0000   1.0000
     1.0000   1.0000   1.0000   1.0000   1.0000   1.0000   1.0000   1.0000
     1.0000   1.0000   1.0000   1.0000   1.0000   1.0000   1.0000   1.0000
     1.0000   1.0000   1.0000   1.0000   1.0000   1.0000   1.0000   1.0000
     1.0000   1.0000   1.0000   1.0000   1.0000   1.0000   1.0000   1.0000
     1.0000   1.0000   1.0000   1.0000   1.0000   1.0000   1.0000   1.0000
     1.0000   1.0000   1.0000   1.0000   1.0000   1.0000   1.0000   1.0000
     1.0000   1.0000   1.0000   1.0000   1.0000   1.0000   1.0000   1.0000
     1.0000   1.0000   1.0000   1.0000   1.0000   1.0000   1.0000   1.0000
     1.0000   1.0000   1.0000   1.0000   1.0000   1.0000   1.0000   1.0000
     1.0000   1.0000   1.0000   1.0000   1.0000   1.0000   1.0000   1.0000
     1.0000   1.0000   1.0000   1.0000   1.0000   1.0000   1.0000   1.0000
     1.0000   1.0000   1.0000   1.0000   1.0000   1.0000   1.0000   1.0000
     1.0000   1.0000   1.0000   1.0000   1.0000   1.0000   1.0000   1.0000
     0.9997   0.9996   0.9996   0.9994   0.9993   0.9991   0.9950   0.9940
     0.9937   0.9780   0.9624   0.9603   0.8548   0.8482   0.8442   0.5551
     0.5192   0.4622   0.4602   0.4558   0.3929   0.3827   0.3473   0.3206
     0.0757   0.0613   0.0327   0.0207   0.0196   0.0154   0.0090   0.0072
     0.0048   0.0000   0.0000   0.0000   0.0000   0.0000   0.0000   0.0000
     0.0000   0.0000   0.0000   0.0000   0.0000   0.0000   0.0000   0.0000
     0.0000   0.0000   0.0000   0.0000   0.0000   0.0000   0.0000   0.0000
     0.0000   0.0000   0.0000   0.0000   0.0000   0.0000   0.0000   0.0000
     0.0000   0.0000   0.0000   0.0000   0.0000   0.0000   0.0000   0.0000
     0.0000   0.0000   0.0000   0.0000   0.0000   0.0000   0.0000   0.0000
     0.0000   0.0000   0.0000   0.0000   0.0000   0.0000   0.0000   0.0000

          k = 0.3333-0.3849 0.0000 ( 88140 PWs)   bands (ev):

   -95.5532 -95.5492 -95.5435 -95.5423 -95.5419 -95.5377 -95.5355 -95.5345
   -95.5229 -95.5181 -95.5180 -95.5158 -95.5140 -95.5133 -95.5096 -95.5090
   -95.5078 -95.4078 -95.1530 -95.1470 -95.1462 -95.1131 -95.1061 -95.1041
   -95.1014 -95.0987 -95.0952 -95.0909 -95.0894 -95.0889 -95.0850 -95.0814
   -95.0808 -94.9091 -94.9066 -94.9048 -49.8604 -49.8487 -49.8415 -49.8316
   -49.8216 -49.8153 -49.8084 -49.8000 -49.7936 -49.7880 -49.7859 -49.7819
   -49.7720 -49.7594 -49.7559 -49.7073 -49.7008 -49.6977 -49.6942 -49.6877
   -49.6848 -49.6787 -49.6731 -49.6658 -49.6601 -49.6568 -49.6509 -49.6459
   -49.6407 -49.6363 -49.6324 -49.6275 -49.6235 -49.6217 -49.6193 -49.6163
   -49.6124 -49.6062 -49.6025 -49.6009 -49.5963 -49.5920 -49.5872 -49.5847
   -49.5821 -49.5813 -49.5785 -49.5731 -49.5609 -49.5543 -49.5410 -49.5161
   -49.5006 -49.4934 -49.4850 -49.4775 -49.4711 -49.4678 -49.4567 -49.4503
   -49.4414 -49.4278 -49.4258 -49.4193 -49.3951 -49.3913 -49.3507 -49.3239
   -49.3231 -49.3164 -49.3097 -49.3088 -49.2947 -49.2908 -49.2881 -49.2828
   -49.2758 -49.2701 -49.2691 -49.2614 -49.2484 -49.2320 -49.2179 -49.2058
   -49.1706 -49.1470 -49.1318 -49.1218 -49.1112 -49.0944 -49.0616 -49.0530
   -49.0509 -49.0330 -49.0311 -49.0269 -49.0224 -49.0218 -49.0204 -49.0150
   -49.0123 -49.0114 -49.0071 -49.0026 -49.0016 -48.8238 -48.8183 -48.8160
   -11.9332  -5.5164  -4.9774  -4.4802  -4.2360  -3.7606  -3.4094  -3.3582
    -3.3471  -3.2417  -3.2025  -3.1436  -3.0905  -3.0290  -3.0164  -2.8998
    -2.8256  -2.8190  -2.7522  -2.7137  -2.6796  -2.6676  -2.6458  -2.6110
    -2.5558  -2.5196  -2.4584  -2.4432  -2.3832  -2.3413  -2.2900  -2.2262
    -2.2064  -2.1853  -2.1357  -2.1186  -2.0183  -1.9770  -1.8979  -1.8518
    -1.7159  -1.6592  -1.6406  -1.5741  -1.5558  -1.5459  -1.5305  -1.4513
    -1.4356  -1.3941  -1.3561  -1.3002  -1.2390  -1.2072  -1.1869  -1.1542
    -1.1349  -1.1072  -1.0585  -1.0321  -0.9907  -0.9455  -0.8870  -0.8633
    -0.8581  -0.8077  -0.7799  -0.6776  -0.6416  -0.6202  -0.5666  -0.5512
    -0.5441  -0.5163  -0.4838  -0.4681  -0.4325  -0.4054  -0.3724  -0.3567
    -0.2859  -0.2645  -0.2469  -0.2231  -0.2178  -0.1814  -0.1035  -0.0796
    -0.0589  -0.0479  -0.0293   0.0277   0.0363   0.0603   0.0821   0.0915
     0.1066   0.1213   0.1429   0.1790   0.1888   0.2058   0.2250   0.2545
     0.2928   0.3207   0.3442   0.3816   0.4364   0.4686   0.4915   0.5804
     0.5979   0.6328   0.7322   0.8029   0.8318   0.8632   0.8877   0.9097
     0.9457   0.9688   0.9751   1.0360   1.0629   1.0766   1.0968   1.1225
     1.1608   1.1980   1.2069   1.2666   1.3097   1.3470   1.4657   1.4896
     1.5040   1.5335   1.5839   1.6204   1.6301   1.6453   1.6710   1.6978
     1.7108   1.7474   1.8162   1.8462   1.8756   1.8885   1.8990   1.9193
     1.9430   1.9572   2.0736   2.1046   2.1646   2.2302   2.2492   2.3322
     2.3633   2.3806   2.4398   2.4470   2.4747   2.5634   2.6055   2.6370
     2.6758   2.6885   2.6980   2.7041   2.7153   2.7879   2.8158   2.8189
     2.8540   2.8641   2.8900   2.9276   2.9362   2.9409   2.9525   2.9575
     3.0194   3.0466   3.1075   3.1176   3.1518   3.1752   3.1962   3.2053
     3.2568   3.2809   3.3386   3.9287   4.1985   4.2158   4.2665   4.3380
     4.6211   4.7826   4.8420   5.1411   5.1914   5.2293   5.2686   5.3607
     5.6215   5.7477   5.8407   6.0661   6.3587   6.4370   6.4885   6.6249
     6.8118   7.1004   7.2817   7.5260   7.5832   7.6232   8.3443   8.5961
     8.6146   8.6769   8.8614   9.1034   9.1952   9.2930   9.4516   9.4759
     9.6544   9.7165   9.8322  10.0000  10.0780  10.0856  10.2024  10.4284
    10.5659  10.8244  10.8511  10.9373  10.9669  11.0234  11.1145  11.1312

     occupation numbers 
     1.0000   1.0000   1.0000   1.0000   1.0000   1.0000   1.0000   1.0000
     1.0000   1.0000   1.0000   1.0000   1.0000   1.0000   1.0000   1.0000
     1.0000   1.0000   1.0000   1.0000   1.0000   1.0000   1.0000   1.0000
     1.0000   1.0000   1.0000   1.0000   1.0000   1.0000   1.0000   1.0000
     1.0000   1.0000   1.0000   1.0000   1.0000   1.0000   1.0000   1.0000
     1.0000   1.0000   1.0000   1.0000   1.0000   1.0000   1.0000   1.0000
     1.0000   1.0000   1.0000   1.0000   1.0000   1.0000   1.0000   1.0000
     1.0000   1.0000   1.0000   1.0000   1.0000   1.0000   1.0000   1.0000
     1.0000   1.0000   1.0000   1.0000   1.0000   1.0000   1.0000   1.0000
     1.0000   1.0000   1.0000   1.0000   1.0000   1.0000   1.0000   1.0000
     1.0000   1.0000   1.0000   1.0000   1.0000   1.0000   1.0000   1.0000
     1.0000   1.0000   1.0000   1.0000   1.0000   1.0000   1.0000   1.0000
     1.0000   1.0000   1.0000   1.0000   1.0000   1.0000   1.0000   1.0000
     1.0000   1.0000   1.0000   1.0000   1.0000   1.0000   1.0000   1.0000
     1.0000   1.0000   1.0000   1.0000   1.0000   1.0000   1.0000   1.0000
     1.0000   1.0000   1.0000   1.0000   1.0000   1.0000   1.0000   1.0000
     1.0000   1.0000   1.0000   1.0000   1.0000   1.0000   1.0000   1.0000
     1.0000   1.0000   1.0000   1.0000   1.0000   1.0000   1.0000   1.0000
     1.0000   1.0000   1.0000   1.0000   1.0000   1.0000   1.0000   1.0000
     1.0000   1.0000   1.0000   1.0000   1.0000   1.0000   1.0000   1.0000
     1.0000   1.0000   1.0000   1.0000   1.0000   1.0000   1.0000   1.0000
     1.0000   1.0000   1.0000   1.0000   1.0000   1.0000   1.0000   1.0000
     1.0000   1.0000   1.0000   1.0000   1.0000   1.0000   1.0000   1.0000
     1.0000   1.0000   1.0000   1.0000   1.0000   1.0000   1.0000   1.0000
     1.0000   1.0000   1.0000   1.0000   1.0000   1.0000   1.0000   1.0000
     1.0000   1.0000   1.0000   1.0000   1.0000   1.0000   1.0000   1.0000
     1.0000   1.0000   1.0000   1.0000   1.0000   1.0000   1.0000   1.0000
     1.0000   1.0000   1.0000   1.0000   1.0000   1.0000   1.0000   1.0000
     1.0000   1.0000   1.0000   1.0000   1.0000   1.0000   1.0000   1.0000
     1.0000   1.0000   1.0000   1.0000   1.0000   1.0000   1.0000   1.0000
     1.0000   1.0000   1.0000   1.0000   1.0000   1.0000   1.0000   1.0000
     1.0000   1.0000   1.0000   1.0000   1.0000   1.0000   1.0000   1.0000
     1.0000   1.0000   1.0000   1.0000   1.0000   1.0000   1.0000   1.0000
     1.0000   1.0000   1.0000   1.0000   1.0000   1.0000   1.0000   1.0000
     1.0000   1.0000   1.0000   1.0000   1.0000   1.0000   1.0000   1.0000
     1.0000   1.0000   1.0000   1.0000   1.0000   1.0000   1.0000   1.0000
     1.0000   1.0000   1.0000   1.0000   1.0000   1.0000   1.0000   1.0000
     1.0000   1.0000   1.0000   1.0000   1.0000   1.0000   1.0000   1.0000
     1.0000   1.0000   0.9999   0.9999   0.9998   0.9990   0.9977   0.9957
     0.9907   0.9881   0.9856   0.9837   0.9797   0.9189   0.8664   0.8591
     0.7514   0.7118   0.5950   0.4094   0.3684   0.3471   0.2965   0.2761
     0.0996   0.0603   0.0186   0.0153   0.0078   0.0049   0.0032   0.0027
     0.0010   0.0006   0.0002   0.0000   0.0000   0.0000   0.0000   0.0000
     0.0000   0.0000   0.0000   0.0000   0.0000   0.0000   0.0000   0.0000
     0.0000   0.0000   0.0000   0.0000   0.0000   0.0000   0.0000   0.0000
     0.0000   0.0000   0.0000   0.0000   0.0000   0.0000   0.0000   0.0000
     0.0000   0.0000   0.0000   0.0000   0.0000   0.0000   0.0000   0.0000
     0.0000   0.0000   0.0000   0.0000   0.0000   0.0000   0.0000   0.0000
     0.0000   0.0000   0.0000   0.0000   0.0000   0.0000   0.0000   0.0000

          k =-0.5000 0.2887 0.0000 ( 88178 PWs)   bands (ev):

   -95.5531 -95.5493 -95.5431 -95.5426 -95.5419 -95.5378 -95.5356 -95.5344
   -95.5229 -95.5181 -95.5180 -95.5158 -95.5138 -95.5135 -95.5099 -95.5086
   -95.5080 -95.4078 -95.1530 -95.1470 -95.1461 -95.1131 -95.1061 -95.1041
   -95.1012 -95.0992 -95.0942 -95.0920 -95.0892 -95.0887 -95.0850 -95.0813
   -95.0809 -94.9091 -94.9065 -94.9048 -49.8646 -49.8432 -49.8363 -49.8313
   -49.8180 -49.8137 -49.8119 -49.8103 -49.7942 -49.7920 -49.7906 -49.7877
   -49.7660 -49.7558 -49.7296 -49.7290 -49.6967 -49.6957 -49.6895 -49.6885
   -49.6856 -49.6787 -49.6772 -49.6718 -49.6673 -49.6577 -49.6535 -49.6436
   -49.6384 -49.6332 -49.6329 -49.6272 -49.6257 -49.6169 -49.6162 -49.6127
   -49.6079 -49.6066 -49.6029 -49.6000 -49.5951 -49.5923 -49.5904 -49.5881
   -49.5834 -49.5787 -49.5771 -49.5737 -49.5669 -49.5549 -49.5350 -49.5220
   -49.4982 -49.4958 -49.4821 -49.4801 -49.4724 -49.4616 -49.4427 -49.4424
   -49.4409 -49.4401 -49.4386 -49.4381 -49.3832 -49.3587 -49.3583 -49.3527
   -49.3219 -49.3147 -49.3031 -49.3028 -49.3002 -49.2997 -49.2969 -49.2701
   -49.2656 -49.2643 -49.2633 -49.2630 -49.2502 -49.2501 -49.2105 -49.2076
   -49.1730 -49.1427 -49.1288 -49.1212 -49.1193 -49.0919 -49.0616 -49.0532
   -49.0507 -49.0329 -49.0308 -49.0279 -49.0225 -49.0204 -49.0196 -49.0172
   -49.0119 -49.0111 -49.0070 -49.0023 -49.0019 -48.8238 -48.8183 -48.8160
   -11.9332  -5.3562  -5.3080  -4.1069  -4.0463  -3.8996  -3.8865  -3.4801
    -3.3184  -3.0428  -3.0132  -2.9779  -2.9666  -2.9495  -2.9373  -2.9285
    -2.9071  -2.8898  -2.8695  -2.8201  -2.7798  -2.7621  -2.7310  -2.7254
    -2.6264  -2.5380  -2.4024  -2.4000  -2.3643  -2.3618  -2.1390  -2.1347
    -2.1113  -2.0818  -2.0572  -2.0475  -1.9821  -1.9766  -1.8424  -1.8327
    -1.7602  -1.7485  -1.7437  -1.6669  -1.6607  -1.5328  -1.5317  -1.4970
    -1.4716  -1.4088  -1.3765  -1.2722  -1.2682  -1.2531  -1.1978  -1.1479
    -1.1385  -1.1118  -1.1073  -1.0039  -0.9900  -0.9309  -0.8904  -0.8663
    -0.8213  -0.8034  -0.6896  -0.6537  -0.6491  -0.6423  -0.6069  -0.5976
    -0.5917  -0.5830  -0.5437  -0.3728  -0.3520  -0.3304  -0.3288  -0.3248
    -0.3242  -0.2928  -0.2794  -0.2765  -0.2423  -0.2276  -0.1549  -0.1535
    -0.1090  -0.1040  -0.0906  -0.0598   0.0016   0.0605   0.1147   0.1360
     0.1467   0.1531   0.1637   0.1697   0.1863   0.2170   0.2567   0.2782
     0.3986   0.4151   0.4209   0.5117   0.5948   0.6472   0.7006   0.7198
     0.7405   0.7468   0.8160   0.8321   0.8443   0.8598   0.8648   0.8680
     0.8905   0.9044   0.9338   0.9492   0.9823   1.0321   1.0327   1.0567
     1.0606   1.1149   1.1719   1.2004   1.2152   1.2453   1.2770   1.4180
     1.4378   1.5775   1.6256   1.6412   1.6463   1.6478   1.6767   1.7743
     1.8027   1.8778   1.8860   1.8986   1.9038   1.9151   1.9345   2.0040
     2.0168   2.0382   2.0385   2.0575   2.1405   2.1605   2.2120   2.2501
     2.2911   2.3780   2.4257   2.4267   2.4356   2.5252   2.5420   2.6169
     2.6182   2.6302   2.6346   2.6733   2.6872   2.7101   2.7195   2.7331
     2.7806   2.9028   2.9107   2.9118   2.9270   2.9339   2.9403   2.9445
     2.9490   2.9676   2.9983   3.1658   3.1928   3.1978   3.2072   3.2103
     3.4131   3.4517   3.7183   3.7341   3.9116   4.3877   4.4416   4.7745
     4.7780   4.7806   4.7859   5.2515   5.2619   5.2742   5.2916   5.3142
     5.5997   5.7793   5.7835   5.8970   6.1671   6.2016   6.3296   6.3525
     6.3664   6.4097   8.2431   8.2445   8.2778   8.3014   8.5181   8.5485
     8.6276   8.7857   8.8151   8.8306   8.8590   8.8857   9.3217   9.4070
     9.4277   9.7520   9.7581   9.8225   9.8725  10.2878  10.3519  10.4389
    10.4677  10.6029  10.7868  10.8525  10.8837  10.8883  10.9958  11.0283

     occupation numbers 
     1.0000   1.0000   1.0000   1.0000   1.0000   1.0000   1.0000   1.0000
     1.0000   1.0000   1.0000   1.0000   1.0000   1.0000   1.0000   1.0000
     1.0000   1.0000   1.0000   1.0000   1.0000   1.0000   1.0000   1.0000
     1.0000   1.0000   1.0000   1.0000   1.0000   1.0000   1.0000   1.0000
     1.0000   1.0000   1.0000   1.0000   1.0000   1.0000   1.0000   1.0000
     1.0000   1.0000   1.0000   1.0000   1.0000   1.0000   1.0000   1.0000
     1.0000   1.0000   1.0000   1.0000   1.0000   1.0000   1.0000   1.0000
     1.0000   1.0000   1.0000   1.0000   1.0000   1.0000   1.0000   1.0000
     1.0000   1.0000   1.0000   1.0000   1.0000   1.0000   1.0000   1.0000
     1.0000   1.0000   1.0000   1.0000   1.0000   1.0000   1.0000   1.0000
     1.0000   1.0000   1.0000   1.0000   1.0000   1.0000   1.0000   1.0000
     1.0000   1.0000   1.0000   1.0000   1.0000   1.0000   1.0000   1.0000
     1.0000   1.0000   1.0000   1.0000   1.0000   1.0000   1.0000   1.0000
     1.0000   1.0000   1.0000   1.0000   1.0000   1.0000   1.0000   1.0000
     1.0000   1.0000   1.0000   1.0000   1.0000   1.0000   1.0000   1.0000
     1.0000   1.0000   1.0000   1.0000   1.0000   1.0000   1.0000   1.0000
     1.0000   1.0000   1.0000   1.0000   1.0000   1.0000   1.0000   1.0000
     1.0000   1.0000   1.0000   1.0000   1.0000   1.0000   1.0000   1.0000
     1.0000   1.0000   1.0000   1.0000   1.0000   1.0000   1.0000   1.0000
     1.0000   1.0000   1.0000   1.0000   1.0000   1.0000   1.0000   1.0000
     1.0000   1.0000   1.0000   1.0000   1.0000   1.0000   1.0000   1.0000
     1.0000   1.0000   1.0000   1.0000   1.0000   1.0000   1.0000   1.0000
     1.0000   1.0000   1.0000   1.0000   1.0000   1.0000   1.0000   1.0000
     1.0000   1.0000   1.0000   1.0000   1.0000   1.0000   1.0000   1.0000
     1.0000   1.0000   1.0000   1.0000   1.0000   1.0000   1.0000   1.0000
     1.0000   1.0000   1.0000   1.0000   1.0000   1.0000   1.0000   1.0000
     1.0000   1.0000   1.0000   1.0000   1.0000   1.0000   1.0000   1.0000
     1.0000   1.0000   1.0000   1.0000   1.0000   1.0000   1.0000   1.0000
     1.0000   1.0000   1.0000   1.0000   1.0000   1.0000   1.0000   1.0000
     1.0000   1.0000   1.0000   1.0000   1.0000   1.0000   1.0000   1.0000
     1.0000   1.0000   1.0000   1.0000   1.0000   1.0000   1.0000   1.0000
     1.0000   1.0000   1.0000   1.0000   1.0000   1.0000   1.0000   1.0000
     1.0000   1.0000   1.0000   1.0000   1.0000   1.0000   1.0000   1.0000
     1.0000   1.0000   1.0000   1.0000   1.0000   1.0000   1.0000   1.0000
     1.0000   1.0000   1.0000   1.0000   1.0000   1.0000   1.0000   1.0000
     1.0000   1.0000   1.0000   1.0000   1.0000   1.0000   1.0000   1.0000
     1.0000   1.0000   1.0000   1.0000   1.0000   1.0000   1.0000   1.0000
     1.0000   1.0000   1.0000   1.0000   1.0000   1.0000   1.0000   1.0000
     1.0000   1.0000   0.9999   0.9999   0.9999   0.9995   0.9994   0.9971
     0.9970   0.9963   0.9959   0.9912   0.9884   0.9817   0.9780   0.9713
     0.9292   0.5322   0.4930   0.4874   0.4121   0.3795   0.3496   0.3308
     0.3111   0.2374   0.1444   0.0059   0.0034   0.0031   0.0026   0.0024
     0.0000   0.0000   0.0000   0.0000   0.0000   0.0000   0.0000   0.0000
     0.0000   0.0000   0.0000   0.0000   0.0000   0.0000   0.0000   0.0000
     0.0000   0.0000   0.0000   0.0000   0.0000   0.0000   0.0000   0.0000
     0.0000   0.0000   0.0000   0.0000   0.0000   0.0000   0.0000   0.0000
     0.0000   0.0000   0.0000   0.0000   0.0000   0.0000   0.0000   0.0000
     0.0000   0.0000   0.0000   0.0000   0.0000   0.0000   0.0000   0.0000
     0.0000   0.0000   0.0000   0.0000   0.0000   0.0000   0.0000   0.0000

          k =-0.5000 0.4811 0.0000 ( 88140 PWs)   bands (ev):

   -95.5532 -95.5492 -95.5435 -95.5423 -95.5419 -95.5377 -95.5356 -95.5344
   -95.5229 -95.5181 -95.5180 -95.5157 -95.5140 -95.5133 -95.5096 -95.5089
   -95.5079 -95.4078 -95.1530 -95.1470 -95.1461 -95.1131 -95.1061 -95.1041
   -95.1014 -95.0987 -95.0952 -95.0909 -95.0895 -95.0889 -95.0850 -95.0814
   -95.0808 -94.9091 -94.9065 -94.9048 -49.8604 -49.8476 -49.8423 -49.8318
   -49.8216 -49.8154 -49.8083 -49.8000 -49.7937 -49.7881 -49.7857 -49.7819
   -49.7723 -49.7597 -49.7559 -49.7082 -49.7010 -49.6973 -49.6939 -49.6871
   -49.6845 -49.6789 -49.6732 -49.6659 -49.6603 -49.6572 -49.6509 -49.6461
   -49.6405 -49.6362 -49.6321 -49.6272 -49.6235 -49.6217 -49.6192 -49.6163
   -49.6123 -49.6066 -49.6022 -49.6009 -49.5965 -49.5915 -49.5875 -49.5850
   -49.5820 -49.5811 -49.5784 -49.5729 -49.5611 -49.5546 -49.5411 -49.5159
   -49.5008 -49.4933 -49.4850 -49.4775 -49.4712 -49.4678 -49.4564 -49.4505
   -49.4415 -49.4277 -49.4256 -49.4196 -49.3954 -49.3914 -49.3505 -49.3239
   -49.3229 -49.3167 -49.3093 -49.3086 -49.2947 -49.2909 -49.2878 -49.2830
   -49.2760 -49.2700 -49.2691 -49.2616 -49.2482 -49.2320 -49.2178 -49.2060
   -49.1705 -49.1467 -49.1321 -49.1221 -49.1110 -49.0944 -49.0616 -49.0532
   -49.0507 -49.0330 -49.0311 -49.0268 -49.0225 -49.0218 -49.0204 -49.0149
   -49.0124 -49.0114 -49.0070 -49.0025 -49.0017 -48.8238 -48.8183 -48.8160
   -11.9332  -5.5165  -4.9773  -4.4804  -4.2361  -3.7605  -3.4094  -3.3578
    -3.3469  -3.2417  -3.2038  -3.1438  -3.0908  -3.0283  -3.0155  -2.8991
    -2.8264  -2.8193  -2.7523  -2.7143  -2.6811  -2.6675  -2.6456  -2.6110
    -2.5555  -2.5179  -2.4584  -2.4430  -2.3836  -2.3415  -2.2894  -2.2270
    -2.2065  -2.1852  -2.1363  -2.1195  -2.0181  -1.9758  -1.8978  -1.8519
    -1.7159  -1.6591  -1.6407  -1.5736  -1.5556  -1.5454  -1.5303  -1.4507
    -1.4357  -1.3942  -1.3562  -1.3008  -1.2385  -1.2068  -1.1870  -1.1552
    -1.1345  -1.1073  -1.0586  -1.0315  -0.9902  -0.9440  -0.8864  -0.8631
    -0.8572  -0.8084  -0.7783  -0.6771  -0.6431  -0.6209  -0.5667  -0.5513
    -0.5443  -0.5169  -0.4852  -0.4679  -0.4317  -0.4061  -0.3739  -0.3571
    -0.2860  -0.2644  -0.2456  -0.2234  -0.2175  -0.1813  -0.1036  -0.0810
    -0.0602  -0.0485  -0.0294   0.0277   0.0364   0.0586   0.0824   0.0905
     0.1068   0.1212   0.1426   0.1800   0.1907   0.2071   0.2259   0.2554
     0.2921   0.3207   0.3434   0.3820   0.4359   0.4684   0.4915   0.5796
     0.5978   0.6326   0.7309   0.8027   0.8311   0.8639   0.8882   0.9099
     0.9448   0.9681   0.9751   1.0376   1.0639   1.0765   1.0971   1.1222
     1.1606   1.1978   1.2075   1.2665   1.3093   1.3467   1.4659   1.4885
     1.5040   1.5338   1.5827   1.6203   1.6297   1.6433   1.6723   1.6986
     1.7109   1.7466   1.8169   1.8468   1.8753   1.8894   1.8994   1.9200
     1.9435   1.9575   2.0730   2.1045   2.1664   2.2293   2.2487   2.3321
     2.3624   2.3797   2.4404   2.4471   2.4753   2.5638   2.6049   2.6368
     2.6768   2.6880   2.6984   2.7040   2.7160   2.7859   2.8149   2.8191
     2.8541   2.8646   2.8911   2.9272   2.9359   2.9405   2.9523   2.9563
     3.0189   3.0487   3.1051   3.1159   3.1518   3.1750   3.1986   3.2076
     3.2570   3.2822   3.3386   3.9285   4.1977   4.2150   4.2664   4.3379
     4.6205   4.7836   4.8423   5.1429   5.1919   5.2293   5.2691   5.3612
     5.6213   5.7480   5.8395   6.0671   6.3573   6.4373   6.4880   6.6244
     6.8127   7.0988   7.2834   7.5235   7.5853   7.6225   8.3435   8.5941
     8.6134   8.6786   8.8616   9.1029   9.1945   9.2932   9.4531   9.4762
     9.6541   9.7188   9.8380  10.0003  10.0784  10.0829  10.2027  10.4307
    10.5656  10.8226  10.8507  10.9371  10.9670  11.0225  11.1138  11.1318

     occupation numbers 
     1.0000   1.0000   1.0000   1.0000   1.0000   1.0000   1.0000   1.0000
     1.0000   1.0000   1.0000   1.0000   1.0000   1.0000   1.0000   1.0000
     1.0000   1.0000   1.0000   1.0000   1.0000   1.0000   1.0000   1.0000
     1.0000   1.0000   1.0000   1.0000   1.0000   1.0000   1.0000   1.0000
     1.0000   1.0000   1.0000   1.0000   1.0000   1.0000   1.0000   1.0000
     1.0000   1.0000   1.0000   1.0000   1.0000   1.0000   1.0000   1.0000
     1.0000   1.0000   1.0000   1.0000   1.0000   1.0000   1.0000   1.0000
     1.0000   1.0000   1.0000   1.0000   1.0000   1.0000   1.0000   1.0000
     1.0000   1.0000   1.0000   1.0000   1.0000   1.0000   1.0000   1.0000
     1.0000   1.0000   1.0000   1.0000   1.0000   1.0000   1.0000   1.0000
     1.0000   1.0000   1.0000   1.0000   1.0000   1.0000   1.0000   1.0000
     1.0000   1.0000   1.0000   1.0000   1.0000   1.0000   1.0000   1.0000
     1.0000   1.0000   1.0000   1.0000   1.0000   1.0000   1.0000   1.0000
     1.0000   1.0000   1.0000   1.0000   1.0000   1.0000   1.0000   1.0000
     1.0000   1.0000   1.0000   1.0000   1.0000   1.0000   1.0000   1.0000
     1.0000   1.0000   1.0000   1.0000   1.0000   1.0000   1.0000   1.0000
     1.0000   1.0000   1.0000   1.0000   1.0000   1.0000   1.0000   1.0000
     1.0000   1.0000   1.0000   1.0000   1.0000   1.0000   1.0000   1.0000
     1.0000   1.0000   1.0000   1.0000   1.0000   1.0000   1.0000   1.0000
     1.0000   1.0000   1.0000   1.0000   1.0000   1.0000   1.0000   1.0000
     1.0000   1.0000   1.0000   1.0000   1.0000   1.0000   1.0000   1.0000
     1.0000   1.0000   1.0000   1.0000   1.0000   1.0000   1.0000   1.0000
     1.0000   1.0000   1.0000   1.0000   1.0000   1.0000   1.0000   1.0000
     1.0000   1.0000   1.0000   1.0000   1.0000   1.0000   1.0000   1.0000
     1.0000   1.0000   1.0000   1.0000   1.0000   1.0000   1.0000   1.0000
     1.0000   1.0000   1.0000   1.0000   1.0000   1.0000   1.0000   1.0000
     1.0000   1.0000   1.0000   1.0000   1.0000   1.0000   1.0000   1.0000
     1.0000   1.0000   1.0000   1.0000   1.0000   1.0000   1.0000   1.0000
     1.0000   1.0000   1.0000   1.0000   1.0000   1.0000   1.0000   1.0000
     1.0000   1.0000   1.0000   1.0000   1.0000   1.0000   1.0000   1.0000
     1.0000   1.0000   1.0000   1.0000   1.0000   1.0000   1.0000   1.0000
     1.0000   1.0000   1.0000   1.0000   1.0000   1.0000   1.0000   1.0000
     1.0000   1.0000   1.0000   1.0000   1.0000   1.0000   1.0000   1.0000
     1.0000   1.0000   1.0000   1.0000   1.0000   1.0000   1.0000   1.0000
     1.0000   1.0000   1.0000   1.0000   1.0000   1.0000   1.0000   1.0000
     1.0000   1.0000   1.0000   1.0000   1.0000   1.0000   1.0000   1.0000
     1.0000   1.0000   1.0000   1.0000   1.0000   1.0000   1.0000   1.0000
     1.0000   1.0000   1.0000   1.0000   1.0000   1.0000   1.0000   1.0000
     1.0000   1.0000   0.9999   0.9999   0.9998   0.9990   0.9977   0.9957
     0.9905   0.9882   0.9855   0.9838   0.9795   0.9219   0.8686   0.8586
     0.7509   0.7095   0.5900   0.4112   0.3702   0.3486   0.2972   0.2807
     0.1004   0.0580   0.0195   0.0158   0.0078   0.0049   0.0031   0.0026
     0.0010   0.0006   0.0002   0.0000   0.0000   0.0000   0.0000   0.0000
     0.0000   0.0000   0.0000   0.0000   0.0000   0.0000   0.0000   0.0000
     0.0000   0.0000   0.0000   0.0000   0.0000   0.0000   0.0000   0.0000
     0.0000   0.0000   0.0000   0.0000   0.0000   0.0000   0.0000   0.0000
     0.0000   0.0000   0.0000   0.0000   0.0000   0.0000   0.0000   0.0000
     0.0000   0.0000   0.0000   0.0000   0.0000   0.0000   0.0000   0.0000
     0.0000   0.0000   0.0000   0.0000   0.0000   0.0000   0.0000   0.0000

          k =-0.5000 0.6736 0.0000 ( 88140 PWs)   bands (ev):

   -95.5532 -95.5491 -95.5435 -95.5423 -95.5419 -95.5377 -95.5356 -95.5344
   -95.5229 -95.5181 -95.5180 -95.5157 -95.5140 -95.5133 -95.5096 -95.5089
   -95.5079 -95.4078 -95.1530 -95.1470 -95.1461 -95.1131 -95.1061 -95.1041
   -95.1014 -95.0987 -95.0952 -95.0908 -95.0895 -95.0889 -95.0850 -95.0814
   -95.0808 -94.9091 -94.9065 -94.9048 -49.8603 -49.8476 -49.8423 -49.8318
   -49.8216 -49.8154 -49.8083 -49.8000 -49.7937 -49.7880 -49.7857 -49.7819
   -49.7723 -49.7597 -49.7559 -49.7082 -49.7010 -49.6973 -49.6939 -49.6872
   -49.6845 -49.6789 -49.6732 -49.6659 -49.6603 -49.6571 -49.6509 -49.6460
   -49.6405 -49.6362 -49.6321 -49.6272 -49.6235 -49.6217 -49.6192 -49.6163
   -49.6123 -49.6066 -49.6022 -49.6008 -49.5965 -49.5915 -49.5875 -49.5850
   -49.5820 -49.5811 -49.5784 -49.5729 -49.5611 -49.5546 -49.5411 -49.5159
   -49.5008 -49.4933 -49.4850 -49.4775 -49.4711 -49.4678 -49.4564 -49.4505
   -49.4415 -49.4277 -49.4256 -49.4196 -49.3954 -49.3914 -49.3505 -49.3239
   -49.3230 -49.3167 -49.3093 -49.3086 -49.2947 -49.2909 -49.2878 -49.2830
   -49.2760 -49.2700 -49.2691 -49.2616 -49.2482 -49.2320 -49.2178 -49.2060
   -49.1705 -49.1467 -49.1321 -49.1221 -49.1110 -49.0944 -49.0616 -49.0532
   -49.0507 -49.0330 -49.0311 -49.0268 -49.0225 -49.0218 -49.0204 -49.0149
   -49.0124 -49.0114 -49.0070 -49.0025 -49.0017 -48.8238 -48.8183 -48.8160
   -11.9332  -5.5165  -4.9773  -4.4804  -4.2361  -3.7605  -3.4094  -3.3578
    -3.3469  -3.2417  -3.2037  -3.1438  -3.0908  -3.0283  -3.0155  -2.8991
    -2.8264  -2.8193  -2.7523  -2.7143  -2.6811  -2.6675  -2.6456  -2.6110
    -2.5555  -2.5179  -2.4584  -2.4430  -2.3836  -2.3415  -2.2894  -2.2270
    -2.2065  -2.1852  -2.1363  -2.1195  -2.0181  -1.9758  -1.8978  -1.8519
    -1.7159  -1.6591  -1.6407  -1.5736  -1.5556  -1.5455  -1.5303  -1.4507
    -1.4357  -1.3942  -1.3562  -1.3008  -1.2385  -1.2068  -1.1871  -1.1552
    -1.1345  -1.1072  -1.0586  -1.0315  -0.9902  -0.9440  -0.8864  -0.8631
    -0.8573  -0.8084  -0.7783  -0.6771  -0.6430  -0.6209  -0.5668  -0.5514
    -0.5444  -0.5169  -0.4852  -0.4678  -0.4317  -0.4061  -0.3739  -0.3571
    -0.2860  -0.2644  -0.2456  -0.2234  -0.2175  -0.1813  -0.1036  -0.0810
    -0.0602  -0.0485  -0.0294   0.0277   0.0364   0.0586   0.0824   0.0905
     0.1067   0.1212   0.1426   0.1800   0.1906   0.2071   0.2260   0.2554
     0.2921   0.3207   0.3434   0.3820   0.4359   0.4684   0.4915   0.5795
     0.5978   0.6326   0.7309   0.8027   0.8311   0.8639   0.8882   0.9099
     0.9448   0.9681   0.9751   1.0376   1.0639   1.0766   1.0971   1.1222
     1.1606   1.1978   1.2075   1.2665   1.3093   1.3467   1.4659   1.4885
     1.5040   1.5338   1.5827   1.6203   1.6297   1.6434   1.6723   1.6986
     1.7109   1.7466   1.8169   1.8468   1.8753   1.8894   1.8994   1.9200
     1.9435   1.9575   2.0730   2.1045   2.1664   2.2293   2.2487   2.3321
     2.3624   2.3797   2.4404   2.4471   2.4753   2.5638   2.6049   2.6368
     2.6768   2.6880   2.6984   2.7040   2.7160   2.7859   2.8149   2.8191
     2.8541   2.8646   2.8911   2.9272   2.9359   2.9405   2.9523   2.9564
     3.0189   3.0486   3.1051   3.1159   3.1518   3.1750   3.1986   3.2076
     3.2570   3.2822   3.3386   3.9285   4.1977   4.2150   4.2664   4.3379
     4.6205   4.7836   4.8423   5.1429   5.1920   5.2293   5.2691   5.3612
     5.6213   5.7480   5.8395   6.0671   6.3574   6.4374   6.4880   6.6245
     6.8126   7.0988   7.2833   7.5235   7.5852   7.6225   8.3435   8.5941
     8.6134   8.6786   8.8615   9.1029   9.1945   9.2932   9.4532   9.4761
     9.6542   9.7188   9.8380  10.0002  10.0784  10.0830  10.2027  10.4307
    10.5656  10.8226  10.8507  10.9370  10.9670  11.0225  11.1139  11.1319

     occupation numbers 
     1.0000   1.0000   1.0000   1.0000   1.0000   1.0000   1.0000   1.0000
     1.0000   1.0000   1.0000   1.0000   1.0000   1.0000   1.0000   1.0000
     1.0000   1.0000   1.0000   1.0000   1.0000   1.0000   1.0000   1.0000
     1.0000   1.0000   1.0000   1.0000   1.0000   1.0000   1.0000   1.0000
     1.0000   1.0000   1.0000   1.0000   1.0000   1.0000   1.0000   1.0000
     1.0000   1.0000   1.0000   1.0000   1.0000   1.0000   1.0000   1.0000
     1.0000   1.0000   1.0000   1.0000   1.0000   1.0000   1.0000   1.0000
     1.0000   1.0000   1.0000   1.0000   1.0000   1.0000   1.0000   1.0000
     1.0000   1.0000   1.0000   1.0000   1.0000   1.0000   1.0000   1.0000
     1.0000   1.0000   1.0000   1.0000   1.0000   1.0000   1.0000   1.0000
     1.0000   1.0000   1.0000   1.0000   1.0000   1.0000   1.0000   1.0000
     1.0000   1.0000   1.0000   1.0000   1.0000   1.0000   1.0000   1.0000
     1.0000   1.0000   1.0000   1.0000   1.0000   1.0000   1.0000   1.0000
     1.0000   1.0000   1.0000   1.0000   1.0000   1.0000   1.0000   1.0000
     1.0000   1.0000   1.0000   1.0000   1.0000   1.0000   1.0000   1.0000
     1.0000   1.0000   1.0000   1.0000   1.0000   1.0000   1.0000   1.0000
     1.0000   1.0000   1.0000   1.0000   1.0000   1.0000   1.0000   1.0000
     1.0000   1.0000   1.0000   1.0000   1.0000   1.0000   1.0000   1.0000
     1.0000   1.0000   1.0000   1.0000   1.0000   1.0000   1.0000   1.0000
     1.0000   1.0000   1.0000   1.0000   1.0000   1.0000   1.0000   1.0000
     1.0000   1.0000   1.0000   1.0000   1.0000   1.0000   1.0000   1.0000
     1.0000   1.0000   1.0000   1.0000   1.0000   1.0000   1.0000   1.0000
     1.0000   1.0000   1.0000   1.0000   1.0000   1.0000   1.0000   1.0000
     1.0000   1.0000   1.0000   1.0000   1.0000   1.0000   1.0000   1.0000
     1.0000   1.0000   1.0000   1.0000   1.0000   1.0000   1.0000   1.0000
     1.0000   1.0000   1.0000   1.0000   1.0000   1.0000   1.0000   1.0000
     1.0000   1.0000   1.0000   1.0000   1.0000   1.0000   1.0000   1.0000
     1.0000   1.0000   1.0000   1.0000   1.0000   1.0000   1.0000   1.0000
     1.0000   1.0000   1.0000   1.0000   1.0000   1.0000   1.0000   1.0000
     1.0000   1.0000   1.0000   1.0000   1.0000   1.0000   1.0000   1.0000
     1.0000   1.0000   1.0000   1.0000   1.0000   1.0000   1.0000   1.0000
     1.0000   1.0000   1.0000   1.0000   1.0000   1.0000   1.0000   1.0000
     1.0000   1.0000   1.0000   1.0000   1.0000   1.0000   1.0000   1.0000
     1.0000   1.0000   1.0000   1.0000   1.0000   1.0000   1.0000   1.0000
     1.0000   1.0000   1.0000   1.0000   1.0000   1.0000   1.0000   1.0000
     1.0000   1.0000   1.0000   1.0000   1.0000   1.0000   1.0000   1.0000
     1.0000   1.0000   1.0000   1.0000   1.0000   1.0000   1.0000   1.0000
     1.0000   1.0000   1.0000   1.0000   1.0000   1.0000   1.0000   1.0000
     1.0000   1.0000   0.9999   0.9999   0.9998   0.9990   0.9977   0.9957
     0.9905   0.9882   0.9855   0.9838   0.9795   0.9219   0.8685   0.8587
     0.7508   0.7096   0.5901   0.4114   0.3700   0.3486   0.2974   0.2804
     0.1004   0.0580   0.0195   0.0158   0.0078   0.0049   0.0031   0.0026
     0.0010   0.0006   0.0002   0.0000   0.0000   0.0000   0.0000   0.0000
     0.0000   0.0000   0.0000   0.0000   0.0000   0.0000   0.0000   0.0000
     0.0000   0.0000   0.0000   0.0000   0.0000   0.0000   0.0000   0.0000
     0.0000   0.0000   0.0000   0.0000   0.0000   0.0000   0.0000   0.0000
     0.0000   0.0000   0.0000   0.0000   0.0000   0.0000   0.0000   0.0000
     0.0000   0.0000   0.0000   0.0000   0.0000   0.0000   0.0000   0.0000
     0.0000   0.0000   0.0000   0.0000   0.0000   0.0000   0.0000   0.0000

          k =-0.5000-0.2887 0.0000 ( 88178 PWs)   bands (ev):

   -95.5531 -95.5493 -95.5431 -95.5426 -95.5419 -95.5378 -95.5356 -95.5344
   -95.5229 -95.5181 -95.5180 -95.5158 -95.5138 -95.5135 -95.5098 -95.5086
   -95.5080 -95.4078 -95.1530 -95.1470 -95.1461 -95.1131 -95.1061 -95.1041
   -95.1012 -95.0992 -95.0942 -95.0920 -95.0892 -95.0887 -95.0850 -95.0813
   -95.0809 -94.9091 -94.9065 -94.9048 -49.8646 -49.8432 -49.8363 -49.8313
   -49.8180 -49.8137 -49.8119 -49.8102 -49.7942 -49.7920 -49.7906 -49.7877
   -49.7660 -49.7558 -49.7296 -49.7290 -49.6967 -49.6957 -49.6895 -49.6885
   -49.6856 -49.6787 -49.6772 -49.6718 -49.6673 -49.6577 -49.6535 -49.6436
   -49.6384 -49.6332 -49.6329 -49.6272 -49.6257 -49.6169 -49.6162 -49.6127
   -49.6079 -49.6066 -49.6029 -49.6000 -49.5951 -49.5923 -49.5904 -49.5881
   -49.5834 -49.5787 -49.5771 -49.5737 -49.5668 -49.5550 -49.5350 -49.5220
   -49.4982 -49.4958 -49.4821 -49.4801 -49.4724 -49.4615 -49.4427 -49.4424
   -49.4409 -49.4401 -49.4386 -49.4381 -49.3833 -49.3587 -49.3583 -49.3526
   -49.3219 -49.3147 -49.3030 -49.3028 -49.3002 -49.2997 -49.2969 -49.2701
   -49.2656 -49.2643 -49.2633 -49.2630 -49.2502 -49.2501 -49.2105 -49.2076
   -49.1730 -49.1427 -49.1288 -49.1212 -49.1193 -49.0919 -49.0615 -49.0533
   -49.0507 -49.0329 -49.0308 -49.0280 -49.0225 -49.0204 -49.0196 -49.0172
   -49.0119 -49.0111 -49.0070 -49.0023 -49.0019 -48.8238 -48.8183 -48.8160
   -11.9332  -5.3562  -5.3080  -4.1069  -4.0463  -3.8996  -3.8865  -3.4802
    -3.3184  -3.0428  -3.0132  -2.9779  -2.9666  -2.9495  -2.9373  -2.9285
    -2.9071  -2.8898  -2.8695  -2.8200  -2.7798  -2.7621  -2.7310  -2.7254
    -2.6264  -2.5380  -2.4024  -2.4000  -2.3643  -2.3618  -2.1390  -2.1347
    -2.1113  -2.0818  -2.0572  -2.0475  -1.9821  -1.9765  -1.8424  -1.8327
    -1.7602  -1.7485  -1.7437  -1.6669  -1.6607  -1.5328  -1.5317  -1.4970
    -1.4716  -1.4088  -1.3765  -1.2722  -1.2681  -1.2531  -1.1978  -1.1478
    -1.1384  -1.1118  -1.1073  -1.0039  -0.9900  -0.9309  -0.8904  -0.8663
    -0.8213  -0.8034  -0.6895  -0.6537  -0.6492  -0.6423  -0.6070  -0.5976
    -0.5917  -0.5830  -0.5438  -0.3728  -0.3520  -0.3304  -0.3289  -0.3248
    -0.3242  -0.2928  -0.2794  -0.2765  -0.2423  -0.2276  -0.1549  -0.1534
    -0.1090  -0.1039  -0.0906  -0.0597   0.0016   0.0605   0.1147   0.1359
     0.1466   0.1531   0.1636   0.1697   0.1862   0.2169   0.2568   0.2783
     0.3986   0.4150   0.4208   0.5117   0.5948   0.6472   0.7005   0.7198
     0.7405   0.7468   0.8160   0.8320   0.8444   0.8599   0.8649   0.8680
     0.8905   0.9044   0.9338   0.9491   0.9823   1.0321   1.0326   1.0567
     1.0606   1.1149   1.1719   1.2004   1.2151   1.2453   1.2770   1.4180
     1.4378   1.5776   1.6257   1.6412   1.6463   1.6478   1.6767   1.7743
     1.8027   1.8778   1.8860   1.8987   1.9039   1.9151   1.9345   2.0041
     2.0168   2.0382   2.0385   2.0576   2.1405   2.1605   2.2119   2.2501
     2.2911   2.3779   2.4257   2.4267   2.4356   2.5252   2.5421   2.6169
     2.6182   2.6302   2.6346   2.6733   2.6872   2.7100   2.7195   2.7331
     2.7806   2.9029   2.9107   2.9118   2.9270   2.9340   2.9404   2.9443
     2.9492   2.9676   2.9983   3.1658   3.1929   3.1978   3.2072   3.2103
     3.4131   3.4517   3.7183   3.7342   3.9115   4.3876   4.4416   4.7745
     4.7780   4.7806   4.7859   5.2515   5.2619   5.2742   5.2916   5.3142
     5.5998   5.7793   5.7836   5.8970   6.1670   6.2016   6.3295   6.3525
     6.3664   6.4097   8.2431   8.2445   8.2778   8.3015   8.5181   8.5486
     8.6275   8.7857   8.8151   8.8306   8.8590   8.8858   9.3216   9.4070
     9.4277   9.7521   9.7581   9.8225   9.8726  10.2879  10.3519  10.4388
    10.4677  10.6028  10.7869  10.8526  10.8838  10.8883  10.9956  11.0284

     occupation numbers 
     1.0000   1.0000   1.0000   1.0000   1.0000   1.0000   1.0000   1.0000
     1.0000   1.0000   1.0000   1.0000   1.0000   1.0000   1.0000   1.0000
     1.0000   1.0000   1.0000   1.0000   1.0000   1.0000   1.0000   1.0000
     1.0000   1.0000   1.0000   1.0000   1.0000   1.0000   1.0000   1.0000
     1.0000   1.0000   1.0000   1.0000   1.0000   1.0000   1.0000   1.0000
     1.0000   1.0000   1.0000   1.0000   1.0000   1.0000   1.0000   1.0000
     1.0000   1.0000   1.0000   1.0000   1.0000   1.0000   1.0000   1.0000
     1.0000   1.0000   1.0000   1.0000   1.0000   1.0000   1.0000   1.0000
     1.0000   1.0000   1.0000   1.0000   1.0000   1.0000   1.0000   1.0000
     1.0000   1.0000   1.0000   1.0000   1.0000   1.0000   1.0000   1.0000
     1.0000   1.0000   1.0000   1.0000   1.0000   1.0000   1.0000   1.0000
     1.0000   1.0000   1.0000   1.0000   1.0000   1.0000   1.0000   1.0000
     1.0000   1.0000   1.0000   1.0000   1.0000   1.0000   1.0000   1.0000
     1.0000   1.0000   1.0000   1.0000   1.0000   1.0000   1.0000   1.0000
     1.0000   1.0000   1.0000   1.0000   1.0000   1.0000   1.0000   1.0000
     1.0000   1.0000   1.0000   1.0000   1.0000   1.0000   1.0000   1.0000
     1.0000   1.0000   1.0000   1.0000   1.0000   1.0000   1.0000   1.0000
     1.0000   1.0000   1.0000   1.0000   1.0000   1.0000   1.0000   1.0000
     1.0000   1.0000   1.0000   1.0000   1.0000   1.0000   1.0000   1.0000
     1.0000   1.0000   1.0000   1.0000   1.0000   1.0000   1.0000   1.0000
     1.0000   1.0000   1.0000   1.0000   1.0000   1.0000   1.0000   1.0000
     1.0000   1.0000   1.0000   1.0000   1.0000   1.0000   1.0000   1.0000
     1.0000   1.0000   1.0000   1.0000   1.0000   1.0000   1.0000   1.0000
     1.0000   1.0000   1.0000   1.0000   1.0000   1.0000   1.0000   1.0000
     1.0000   1.0000   1.0000   1.0000   1.0000   1.0000   1.0000   1.0000
     1.0000   1.0000   1.0000   1.0000   1.0000   1.0000   1.0000   1.0000
     1.0000   1.0000   1.0000   1.0000   1.0000   1.0000   1.0000   1.0000
     1.0000   1.0000   1.0000   1.0000   1.0000   1.0000   1.0000   1.0000
     1.0000   1.0000   1.0000   1.0000   1.0000   1.0000   1.0000   1.0000
     1.0000   1.0000   1.0000   1.0000   1.0000   1.0000   1.0000   1.0000
     1.0000   1.0000   1.0000   1.0000   1.0000   1.0000   1.0000   1.0000
     1.0000   1.0000   1.0000   1.0000   1.0000   1.0000   1.0000   1.0000
     1.0000   1.0000   1.0000   1.0000   1.0000   1.0000   1.0000   1.0000
     1.0000   1.0000   1.0000   1.0000   1.0000   1.0000   1.0000   1.0000
     1.0000   1.0000   1.0000   1.0000   1.0000   1.0000   1.0000   1.0000
     1.0000   1.0000   1.0000   1.0000   1.0000   1.0000   1.0000   1.0000
     1.0000   1.0000   1.0000   1.0000   1.0000   1.0000   1.0000   1.0000
     1.0000   1.0000   1.0000   1.0000   1.0000   1.0000   1.0000   1.0000
     1.0000   1.0000   0.9999   0.9999   0.9999   0.9995   0.9994   0.9971
     0.9970   0.9963   0.9959   0.9912   0.9884   0.9817   0.9780   0.9713
     0.9292   0.5320   0.4928   0.4874   0.4123   0.3791   0.3492   0.3320
     0.3106   0.2373   0.1443   0.0059   0.0034   0.0031   0.0026   0.0024
     0.0000   0.0000   0.0000   0.0000   0.0000   0.0000   0.0000   0.0000
     0.0000   0.0000   0.0000   0.0000   0.0000   0.0000   0.0000   0.0000
     0.0000   0.0000   0.0000   0.0000   0.0000   0.0000   0.0000   0.0000
     0.0000   0.0000   0.0000   0.0000   0.0000   0.0000   0.0000   0.0000
     0.0000   0.0000   0.0000   0.0000   0.0000   0.0000   0.0000   0.0000
     0.0000   0.0000   0.0000   0.0000   0.0000   0.0000   0.0000   0.0000
     0.0000   0.0000   0.0000   0.0000   0.0000   0.0000   0.0000   0.0000

     the Fermi energy is     2.9093 ev

!    total energy              =  -33081.81567366 Ry
     total all-electron energy =  -1325975.501324 Ry
     estimated scf accuracy    <       0.00000073 Ry
     smearing contrib. (-TS)   =      -0.05224074 Ry
     internal energy E=F+TS    =  -33081.76343292 Ry

     The total energy is F=E-TS. E is the sum of the following terms:
     one-electron contribution =  -90645.31496065 Ry
     hartree contribution      =   45391.49250182 Ry
     xc contribution           =   -1381.02530251 Ry
     ewald contribution        =   37704.89263437 Ry
     electric field correction =       0.00578787 Ry
     one-center paw contrib.   =  -24151.81409383 Ry
      -> PAW hartree energy AE =     350.75221800 Ry
      -> PAW hartree energy PS =    -349.06846155 Ry
      -> PAW xc energy AE      =   -1416.47609355 Ry
      -> PAW xc energy PS      =      73.56645563 Ry
      -> total E_H with PAW    =   45393.17625827 Ry
      -> total E_XC with PAW   =   -2723.93494043 Ry

     total magnetization       =     1.97 Bohr mag/cell
     absolute magnetization    =     2.00 Bohr mag/cell

     convergence has been achieved in  65 iterations

     negative rho (up, down):  6.214E-04 5.923E-04

     Forces acting on atoms (cartesian axes, Ry/au):

     atom    1 type  1   force =     0.00034865   -0.00029213   -0.00461106
     atom    2 type  1   force =    -0.00036049   -0.00029930   -0.00461196
     atom    3 type  1   force =     0.00001039   -0.00016566   -0.00383324
     atom    4 type  1   force =    -0.00001387   -0.00074637   -0.00374022
     atom    5 type  1   force =    -0.00005150    0.00001729   -0.00388276
     atom    6 type  1   force =     0.00006156    0.00001168   -0.00387382
     atom    7 type  1   force =     0.00062083    0.00030290   -0.00373498
     atom    8 type  1   force =     0.00000098    0.00035176   -0.00468379
     atom    9 type  1   force =    -0.00062487    0.00028879   -0.00373049
     atom   10 type  1   force =    -0.00001997    0.00251674    0.00209062
     atom   11 type  1   force =     0.00077169    0.00044320    0.00717502
     atom   12 type  1   force =    -0.00074748    0.00044539    0.00718094
     atom   13 type  1   force =     0.00126817   -0.00053853    0.00331968
     atom   14 type  1   force =     0.00001273   -0.00079271    0.00692502
     atom   15 type  1   force =    -0.00127545   -0.00055810    0.00331698
     atom   16 type  1   force =    -0.00218226   -0.00101758    0.00223328
     atom   17 type  1   force =     0.00217580   -0.00103709    0.00221953
     atom   18 type  1   force =     0.00001302    0.00175367    0.00356825
     atom   19 type  1   force =    -0.00267478   -0.00316979    0.00033972
     atom   20 type  1   force =     0.00264691   -0.00317027    0.00032220
     atom   21 type  1   force =     0.00003277    0.00012979    0.02027760
     atom   22 type  1   force =    -0.00000669   -0.00018282    0.00216055
     atom   23 type  1   force =     0.00374899   -0.00068415    0.00056831
     atom   24 type  1   force =    -0.00374697   -0.00071938    0.00059240
     atom   25 type  1   force =     0.00151631    0.00367890   -0.00021386
     atom   26 type  1   force =    -0.00002325   -0.00010614    0.00357457
     atom   27 type  1   force =    -0.00149919    0.00366994   -0.00021391
     atom   28 type  1   force =    -0.01124848    0.00662588    0.00432640
     atom   29 type  1   force =     0.01123351    0.00661420    0.00434901
     atom   30 type  1   force =     0.00001532    0.02636818   -0.01835946
     atom   31 type  1   force =    -0.00003074   -0.00060764    0.00587340
     atom   32 type  1   force =     0.02297261   -0.01303814   -0.01817281
     atom   33 type  1   force =    -0.02295367   -0.01304681   -0.01819572
     atom   34 type  1   force =     0.00059077    0.00023658    0.00615247
     atom   35 type  1   force =     0.00000194   -0.01348392    0.00395712
     atom   36 type  1   force =    -0.00059223    0.00020374    0.00614629
     atom   37 type  2   force =     0.00000893   -0.00000210   -0.00481129
     The non-local contrib.  to forces
     atom    1 type  1   force =    -0.00031677    0.00018592   -0.08735166
     atom    2 type  1   force =     0.00030741    0.00017840   -0.08735711
     atom    3 type  1   force =     0.00001062   -0.00005564   -0.08732578
     atom    4 type  1   force =    -0.00001196    0.00100734   -0.08684396
     atom    5 type  1   force =    -0.00005166    0.00003812   -0.08728061
     atom    6 type  1   force =     0.00006355    0.00003355   -0.08726936
     atom    7 type  1   force =    -0.00086796   -0.00045548   -0.08680351
     atom    8 type  1   force =     0.00000206   -0.00032842   -0.08733406
     atom    9 type  1   force =     0.00086647   -0.00046891   -0.08679951
     atom   10 type  1   force =    -0.00001999    0.00305606   -0.00484918
     atom   11 type  1   force =     0.00061835    0.00047882   -0.00197261
     atom   12 type  1   force =    -0.00059193    0.00048296   -0.00196374
     atom   13 type  1   force =    -0.00024388    0.00033297   -0.00564881
     atom   14 type  1   force =     0.00001551   -0.00064379   -0.00212957
     atom   15 type  1   force =     0.00023499    0.00031393   -0.00565010
     atom   16 type  1   force =    -0.00257418   -0.00123751   -0.00462670
     atom   17 type  1   force =     0.00257040   -0.00125870   -0.00463854
     atom   18 type  1   force =     0.00001216   -0.00003940   -0.00543401
     atom   19 type  1   force =     0.00531565   -0.00371464    0.00671370
     atom   20 type  1   force =    -0.00534130   -0.00371678    0.00669632
     atom   21 type  1   force =     0.00003542    0.00019088    0.02455670
     atom   22 type  1   force =    -0.00000524   -0.00018516    0.01433877
     atom   23 type  1   force =     0.00017725    0.00654318    0.00692774
     atom   24 type  1   force =    -0.00017606    0.00650757    0.00695253
     atom   25 type  1   force =     0.00606395   -0.00296544    0.00606772
     atom   26 type  1   force =    -0.00002103    0.00002874    0.01677524
     atom   27 type  1   force =    -0.00604707   -0.00297162    0.00606695
     atom   28 type  1   force =    -0.00768347    0.00453718    0.08389849
     atom   29 type  1   force =     0.00766772    0.00452716    0.08391058
     atom   30 type  1   force =     0.00001267    0.04278539    0.09730897
     atom   31 type  1   force =    -0.00003658    0.00426761    0.08085416
     atom   32 type  1   force =     0.03753131   -0.02135861    0.09711507
     atom   33 type  1   force =    -0.03751677   -0.02136763    0.09709443
     atom   34 type  1   force =    -0.00386450   -0.00239265    0.08089277
     atom   35 type  1   force =    -0.00000041   -0.00983585    0.08403114
     atom   36 type  1   force =     0.00386014   -0.00242926    0.08089714
     atom   37 type  2   force =    -0.00005288   -0.00007750   -0.05139357
     The ionic contribution  to forces
     atom    1 type  1   force =    -0.05426678    0.02936848 -326.98940912
     atom    2 type  1   force =     0.05426476    0.02944021 -326.98940031
     atom    3 type  1   force =     0.00000317    0.07705128 -326.89482000
     atom    4 type  1   force =     0.00005621   -0.03192285 -327.03209822
     atom    5 type  1   force =     0.06819133   -0.04059430 -326.89934229
     atom    6 type  1   force =    -0.06824741   -0.04063089 -326.89943879
     atom    7 type  1   force =     0.02682370    0.01842043 -327.02909199
     atom    8 type  1   force =    -0.00006367   -0.05944646 -326.99198310
     atom    9 type  1   force =    -0.02675922    0.01844889 -327.02921210
     atom   10 type  1   force =     0.00047094    0.32794083 -111.24359747
     atom   11 type  1   force =     0.39411139    0.21490533 -110.53569703
     atom   12 type  1   force =    -0.39441914    0.21471559 -110.53581471
     atom   13 type  1   force =     0.45808883   -0.25523447 -111.44789814
     atom   14 type  1   force =    -0.00032763   -0.46073036 -110.55371230
     atom   15 type  1   force =    -0.45746013   -0.25534469 -111.44841671
     atom   16 type  1   force =    -0.30359828   -0.14506770 -111.22309801
     atom   17 type  1   force =     0.30348798   -0.14443983 -111.22393152
     atom   18 type  1   force =     0.00038839    0.55268951 -111.42939212
     atom   19 type  1   force =    -1.53432205   -0.59602367  106.83003760
     atom   20 type  1   force =     1.53354934   -0.59717657  106.83160432
     atom   21 type  1   force =     0.00120203    0.02733862  112.16922717
     atom   22 type  1   force =    -0.00039001   -0.01520749  103.88535063
     atom   23 type  1   force =     1.27409847   -1.02577096  106.83526146
     atom   24 type  1   force =    -1.27381556   -1.02731054  106.83296838
     atom   25 type  1   force =    -0.22356430    1.61582006  106.93836108
     atom   26 type  1   force =    -0.00036261   -0.00426403  102.55891299
     atom   27 type  1   force =     0.22367318    1.61620009  106.93788363
     atom   28 type  1   force =    -1.44911108    0.86161816  318.37633162
     atom   29 type  1   force =     1.44860462    0.85989841  318.37569309
     atom   30 type  1   force =     0.00059719    5.02173281  324.69715682
     atom   31 type  1   force =    -0.00314397   -0.45823666  318.98353341
     atom   32 type  1   force =     4.37941744   -2.46665252  324.49350911
     atom   33 type  1   force =    -4.37710879   -2.46616773  324.48987521
     atom   34 type  1   force =     0.41584404    0.18967600  318.93054690
     atom   35 type  1   force =     0.00113909   -1.77473865  318.42742499
     atom   36 type  1   force =    -0.41709975    0.18698686  318.93163978
     atom   37 type  2   force =     0.00004829    0.00270881   96.87103571
     The local contribution  to forces
     atom    1 type  1   force =     0.05486308   -0.02993663  326.97317146
     atom    2 type  1   force =    -0.05491899   -0.03005503  326.97312399
     atom    3 type  1   force =     0.00005260   -0.07737962  326.87958722
     atom    4 type  1   force =    -0.00012691    0.03027620  327.01647745
     atom    5 type  1   force =    -0.06822675    0.04071095  326.88393212
     atom    6 type  1   force =     0.06834852    0.04072216  326.88408143
     atom    7 type  1   force =    -0.02536149   -0.01761657  327.01352621
     atom    8 type  1   force =     0.00007529    0.06010021  326.97566187
     atom    9 type  1   force =     0.02528062   -0.01771821  327.01365351
     atom   10 type  1   force =    -0.00060511   -0.32857223  111.16069549
     atom   11 type  1   force =    -0.39408751   -0.21526705  110.45506806
     atom   12 type  1   force =     0.39452692   -0.21506021  110.45524066
     atom   13 type  1   force =    -0.45660964    0.25460501  111.36713159
     atom   14 type  1   force =     0.00040538    0.46101248  110.47294629
     atom   15 type  1   force =     0.45589855    0.25460976  111.36767070
     atom   16 type  1   force =     0.30387363    0.14526471  111.14016847
     atom   17 type  1   force =    -0.30381414    0.14451222  111.14096401
     atom   18 type  1   force =    -0.00033876   -0.55091131  111.34878115
     atom   19 type  1   force =     1.52620065    0.59642321 -106.92860220
     atom   20 type  1   force =    -1.52557221    0.59762468 -106.93014409
     atom   21 type  1   force =    -0.00105567   -0.02752197 -112.26456901
     atom   22 type  1   force =     0.00035705    0.01546592 -103.98999831
     atom   23 type  1   force =    -1.27047414    1.01881985 -106.93384582
     atom   24 type  1   force =     1.27022334    1.02021080 -106.93156378
     atom   25 type  1   force =     0.21904303   -1.60918595 -107.03685301
     atom   26 type  1   force =     0.00025107    0.00401476 -102.66424745
     atom   27 type  1   force =    -0.21903786   -1.60966937 -107.03637476
     atom   28 type  1   force =     1.44520749   -0.85947259 -318.53962489
     atom   29 type  1   force =    -1.44479169   -0.85778006 -318.53888971
     atom   30 type  1   force =    -0.00051671   -5.03836192 -324.89631674
     atom   31 type  1   force =     0.00307662    0.45342293 -319.14203328
     atom   32 type  1   force =    -4.39403825    2.47505807 -324.69220444
     atom   33 type  1   force =     4.39179250    2.47451561 -324.68866450
     atom   34 type  1   force =    -0.41142836   -0.18684700 -319.08891744
     atom   35 type  1   force =    -0.00116119    1.77094194 -318.59121462
     atom   36 type  1   force =     0.41271000   -0.18425211 -319.09000520
     atom   37 type  2   force =     0.00001237   -0.00264001  -96.85487632
     The core correction contribution to forces
     atom    1 type  1   force =     0.00003677   -0.00001054    0.00754152
     atom    2 type  1   force =    -0.00003635   -0.00001039    0.00754136
     atom    3 type  1   force =     0.00000019    0.00007570    0.00728355
     atom    4 type  1   force =     0.00000017    0.00000742    0.00727994
     atom    5 type  1   force =     0.00005564   -0.00002312    0.00728522
     atom    6 type  1   force =    -0.00005542   -0.00002319    0.00728549
     atom    7 type  1   force =     0.00000403    0.00001387    0.00728198
     atom    8 type  1   force =     0.00000017    0.00005345    0.00755255
     atom    9 type  1   force =    -0.00000366    0.00001386    0.00728223
     atom   10 type  1   force =     0.00000010   -0.00003938   -0.00157230
     atom   11 type  1   force =     0.00014131    0.00010190   -0.00177461
     atom   12 type  1   force =    -0.00014082    0.00010203   -0.00177409
     atom   13 type  1   force =    -0.00010645    0.00007756   -0.00174617
     atom   14 type  1   force =     0.00000034   -0.00015557   -0.00175716
     atom   15 type  1   force =     0.00010664    0.00007745   -0.00174555
     atom   16 type  1   force =     0.00004866    0.00003151   -0.00157220
     atom   17 type  1   force =    -0.00004838    0.00003136   -0.00157192
     atom   18 type  1   force =     0.00000022   -0.00012687   -0.00175925
     atom   19 type  1   force =     0.00022344    0.00003747    0.00174547
     atom   20 type  1   force =    -0.00022364    0.00003762    0.00174643
     atom   21 type  1   force =    -0.00000010   -0.00000244    0.00061730
     atom   22 type  1   force =     0.00000006   -0.00000345    0.00191493
     atom   23 type  1   force =    -0.00015478    0.00016967    0.00173332
     atom   24 type  1   force =     0.00015442    0.00016970    0.00173272
     atom   25 type  1   force =     0.00007815   -0.00022591    0.00175449
     atom   26 type  1   force =    -0.00000005   -0.00001101    0.00170906
     atom   27 type  1   force =    -0.00007831   -0.00022586    0.00175464
     atom   28 type  1   force =     0.00035644   -0.00022507   -0.00611007
     atom   29 type  1   force =    -0.00035686   -0.00022486   -0.00610983
     atom   30 type  1   force =    -0.00000034   -0.00001021   -0.00615225
     atom   31 type  1   force =    -0.00000023   -0.00004786   -0.00621666
     atom   32 type  1   force =     0.00000671   -0.00002040   -0.00612980
     atom   33 type  1   force =    -0.00000766   -0.00002056   -0.00612950
     atom   34 type  1   force =     0.00002270   -0.00000314   -0.00621011
     atom   35 type  1   force =    -0.00000041    0.00038408   -0.00610791
     atom   36 type  1   force =    -0.00002305   -0.00000318   -0.00620991
     atom   37 type  2   force =     0.00000045    0.00000108    0.00050493
     The Hubbard contrib.    to forces
     atom    1 type  1   force =     0.00000000    0.00000000    0.00000000
     atom    2 type  1   force =     0.00000000    0.00000000    0.00000000
     atom    3 type  1   force =     0.00000000    0.00000000    0.00000000
     atom    4 type  1   force =     0.00000000    0.00000000    0.00000000
     atom    5 type  1   force =     0.00000000    0.00000000    0.00000000
     atom    6 type  1   force =     0.00000000    0.00000000    0.00000000
     atom    7 type  1   force =     0.00000000    0.00000000    0.00000000
     atom    8 type  1   force =     0.00000000    0.00000000    0.00000000
     atom    9 type  1   force =     0.00000000    0.00000000    0.00000000
     atom   10 type  1   force =     0.00000000    0.00000000    0.00000000
     atom   11 type  1   force =     0.00000000    0.00000000    0.00000000
     atom   12 type  1   force =     0.00000000    0.00000000    0.00000000
     atom   13 type  1   force =     0.00000000    0.00000000    0.00000000
     atom   14 type  1   force =     0.00000000    0.00000000    0.00000000
     atom   15 type  1   force =     0.00000000    0.00000000    0.00000000
     atom   16 type  1   force =     0.00000000    0.00000000    0.00000000
     atom   17 type  1   force =     0.00000000    0.00000000    0.00000000
     atom   18 type  1   force =     0.00000000    0.00000000    0.00000000
     atom   19 type  1   force =     0.00000000    0.00000000    0.00000000
     atom   20 type  1   force =     0.00000000    0.00000000    0.00000000
     atom   21 type  1   force =     0.00000000    0.00000000    0.00000000
     atom   22 type  1   force =     0.00000000    0.00000000    0.00000000
     atom   23 type  1   force =     0.00000000    0.00000000    0.00000000
     atom   24 type  1   force =     0.00000000    0.00000000    0.00000000
     atom   25 type  1   force =     0.00000000    0.00000000    0.00000000
     atom   26 type  1   force =     0.00000000    0.00000000    0.00000000
     atom   27 type  1   force =     0.00000000    0.00000000    0.00000000
     atom   28 type  1   force =     0.00000000    0.00000000    0.00000000
     atom   29 type  1   force =     0.00000000    0.00000000    0.00000000
     atom   30 type  1   force =     0.00000000    0.00000000    0.00000000
     atom   31 type  1   force =     0.00000000    0.00000000    0.00000000
     atom   32 type  1   force =     0.00000000    0.00000000    0.00000000
     atom   33 type  1   force =     0.00000000    0.00000000    0.00000000
     atom   34 type  1   force =     0.00000000    0.00000000    0.00000000
     atom   35 type  1   force =     0.00000000    0.00000000    0.00000000
     atom   36 type  1   force =     0.00000000    0.00000000    0.00000000
     atom   37 type  2   force =     0.00000000    0.00000000    0.00000000
     The SCF correction term to forces
     atom    1 type  1   force =     0.00000000    0.00000000    0.00000000
     atom    2 type  1   force =     0.00000000    0.00000000    0.00000000
     atom    3 type  1   force =    -0.00000000    0.00000000    0.00000000
     atom    4 type  1   force =     0.00000000   -0.00000000    0.00000000
     atom    5 type  1   force =    -0.00000000   -0.00000000    0.00000000
     atom    6 type  1   force =    -0.00000000   -0.00000000    0.00000000
     atom    7 type  1   force =     0.00000000   -0.00000000    0.00000000
     atom    8 type  1   force =    -0.00000000   -0.00000000    0.00000000
     atom    9 type  1   force =    -0.00000000    0.00000000    0.00000000
     atom   10 type  1   force =     0.00000000    0.00000000    0.00000000
     atom   11 type  1   force =    -0.00000000    0.00000000    0.00000000
     atom   12 type  1   force =    -0.00000000    0.00000000    0.00000000
     atom   13 type  1   force =     0.00000000   -0.00000000    0.00000000
     atom   14 type  1   force =    -0.00000000   -0.00000000    0.00000000
     atom   15 type  1   force =    -0.00000000   -0.00000000    0.00000000
     atom   16 type  1   force =     0.00000000   -0.00000000    0.00000000
     atom   17 type  1   force =    -0.00000000    0.00000000    0.00000000
     atom   18 type  1   force =    -0.00000000    0.00000000    0.00000000
     atom   19 type  1   force =    -0.00009235    0.00010799   -0.00052109
     atom   20 type  1   force =     0.00023484    0.00006095   -0.00054703
     atom   21 type  1   force =    -0.00014879    0.00012487   -0.00052081
     atom   22 type  1   force =     0.00003156   -0.00025248   -0.00041171
     atom   23 type  1   force =     0.00010230   -0.00044572   -0.00047463
     atom   24 type  1   force =    -0.00013300   -0.00029674   -0.00046370
     atom   25 type  1   force =    -0.00010439    0.00023630   -0.00051039
     atom   26 type  1   force =     0.00010949    0.00012556   -0.00054151
     atom   27 type  1   force =    -0.00000902    0.00033686   -0.00051062
     atom   28 type  1   force =    -0.00001774    0.00016836   -0.00113499
     atom   29 type  1   force =     0.00010983    0.00019372   -0.00122138
     atom   30 type  1   force =    -0.00007738    0.00022228   -0.00132251
     atom   31 type  1   force =     0.00007353   -0.00001351   -0.00123047
     atom   32 type  1   force =     0.00005552   -0.00006452   -0.00142899
     atom   33 type  1   force =    -0.00011283   -0.00000633   -0.00133760
     atom   34 type  1   force =     0.00001699   -0.00019646   -0.00112590
     atom   35 type  1   force =     0.00002497   -0.00023528   -0.00114273
     atom   36 type  1   force =    -0.00003946   -0.00009841   -0.00114177
     atom   37 type  2   force =     0.00000081    0.00000569    0.00001909

     Total force =     0.065749     Total SCF correction =     0.004122

     Writing all to output data dir ./output/pt-o-4p0.save/ :
     XML data file, charge density, pseudopotentials, collected wavefunctions

     init_run     :    342.70s CPU    346.09s WALL (       1 calls)
     electrons    :  65374.48s CPU  65744.16s WALL (       1 calls)
     forces       :    196.57s CPU    197.15s WALL (       1 calls)

     Called by init_run:
     wfcinit      :    332.72s CPU    335.58s WALL (       1 calls)
     wfcinit:atom :      1.06s CPU      1.58s WALL (      40 calls)
     wfcinit:wfcr :    327.42s CPU    329.17s WALL (      40 calls)
     potinit      :      4.95s CPU      5.15s WALL (       1 calls)
     hinit0       :      0.81s CPU      0.84s WALL (       1 calls)

     Called by electrons:
     c_bands      :  58863.69s CPU  59181.72s WALL (      65 calls)
     sum_band     :   5842.28s CPU   5878.51s WALL (      65 calls)
     v_of_rho     :    143.91s CPU    144.46s WALL (      66 calls)
     v_h          :      4.61s CPU      4.63s WALL (      66 calls)
     v_xc         :    136.67s CPU    137.11s WALL (      67 calls)
     newd         :    183.82s CPU    197.68s WALL (      66 calls)
     PAW_pot      :    213.13s CPU    213.49s WALL (      66 calls)
     mix_rho      :    124.46s CPU    124.88s WALL (      65 calls)

     Called by c_bands:
     init_us_2    :    373.77s CPU    375.28s WALL (    5280 calls)
     cegterg      :  58027.46s CPU  58341.87s WALL (    2600 calls)

     Called by sum_band:
     sum_band:wei :      1.56s CPU      1.56s WALL (      65 calls)
     sum_band:loo :   5499.17s CPU   5515.74s WALL (      65 calls)
     sum_band:buf :     74.55s CPU     75.02s WALL (    2600 calls)
     sum_band:ini :    183.74s CPU    184.38s WALL (    2600 calls)
     sum_band:cal :   2595.93s CPU   2598.69s WALL (    2600 calls)
     sum_band:bec :     13.86s CPU     13.91s WALL (    2600 calls)
     addusdens    :    331.22s CPU    350.83s WALL (      65 calls)
                                        0.00s GPU  (      65 calls)
     addusd:skk   :      3.50s CPU      5.54s WALL (     130 calls)
                                        0.00s GPU  (     130 calls)

     Called by *egterg:
     cdiaghg      :   3190.27s CPU   3194.00s WALL (    8552 calls)
     cegterg:over :   6043.12s CPU   6051.36s WALL (    5952 calls)
     cegterg:upda :   3788.10s CPU   3826.84s WALL (    5952 calls)
     cegterg:last :   8059.99s CPU   8070.96s WALL (    4035 calls)
     cdiaghg:chol :    165.57s CPU    165.84s WALL (    8552 calls)
     cdiaghg:inve :     50.06s CPU     50.15s WALL (    8552 calls)
     cdiaghg:para :    539.40s CPU    540.30s WALL (   17104 calls)
     h_psi        :  29352.32s CPU  29508.05s WALL (    8592 calls)
     s_psi        :   5246.61s CPU   5252.56s WALL (    8592 calls)
     g_psi        :     82.33s CPU     82.50s WALL (    5952 calls)

     Called by h_psi:
     h_psi:calbec :   5464.67s CPU   5472.18s WALL (    8592 calls)
     vloc_psi     :  18487.54s CPU  18570.01s WALL (    8592 calls)
     add_vuspsi   :   5288.97s CPU   5295.78s WALL (    8592 calls)

     General routines
     calbec       :   8235.89s CPU   8246.38s WALL (   11352 calls)
     fft          :     81.50s CPU     81.74s WALL (    1663 calls)
     ffts         :     48.86s CPU     49.03s WALL (    8134 calls)
     fftw         :  13747.42s CPU  13804.55s WALL ( 5163716 calls)
     interpolate  :      7.44s CPU      7.47s WALL (     132 calls)

     Parallel routines

     PAW routines
     PAW_pot      :    213.13s CPU    213.49s WALL (      66 calls)

     PWSCF        :     18h18m CPU     18h26m WALL


   This run was terminated on:   3:33: 2  10Jun2026            

=------------------------------------------------------------------------------=
   JOB DONE.
=------------------------------------------------------------------------------=
