
     Program PWSCF v.7.4.1 starts on 27Jul2026 at  9:14:31 

     This program is part of the open-source Quantum ESPRESSO suite
     for quantum simulation of materials; please cite
         "P. Giannozzi et al., J. Phys.:Condens. Matter 21 395502 (2009);
         "P. Giannozzi et al., J. Phys.:Condens. Matter 29 465901 (2017);
         "P. Giannozzi et al., J. Chem. Phys. 152 154105 (2020);
          URL http://www.quantum-espresso.org", 
     in publications or presentations arising from this work. More details at
     http://www.quantum-espresso.org/quote

     Parallel version (MPI), running on    20 processors

     MPI processes distributed on     1 nodes
     422248 MiB available memory on the printing compute node when the environment starts

     Reading input from n-ni100-0.5A.in
Warning: card &CELL ignored
Warning: card / ignored

     Current dimensions of program PWSCF are:
     Max number of different atomic species (ntypx) = 10
     Max number of k-points (npk) =  40000
     Max angular momentum in pseudopotentials (lmaxx) =  4
     file N.pbe-n-kjpaw_psl.1.0.0.UPF: wavefunction(s)  2S renormalized

     IMPORTANT: XC functional enforced from input :
     Exchange-correlation= RPBE
                           (   1   4  44   4   0   0   0)
     Any further DFT definition will be discarded
     Please, verify this is what you really want

     Message from routine setup:
     using ibrav=0 with symmetry is DISCOURAGED, use correct ibrav instead

     R & G space division:  proc/nbgrp/npool/nimage =      20
     Subspace diagonalization in iterative solution of the eigenvalue problem:
     one sub-group per band group will be used
     custom distributed-memory algorithm (size of sub-group:  2*  2 procs)


     Parallelization info
     --------------------
     sticks:   dense  smooth     PW     G-vecs:    dense   smooth      PW
     Min         213      85     24                53165    13445    2006
     Max         215      86     25                53176    13460    2023
     Sum        4281    1709    489              1063469   269015   40189

     Using Slab Decomposition



     bravais-lattice index     =            0
     lattice parameter (alat)  =       9.4658  a.u.
     unit-cell volume          =    4286.0189 (a.u.)^3
     number of atoms/cell      =           17
     number of atomic types    =            2
     number of electrons       =       293.00
     number of Kohn-Sham states=          176
     kinetic-energy cutoff     =      60.0000  Ry
     charge density cutoff     =     600.0000  Ry
     scf convergence threshold =      1.0E-06
     mixing beta               =       0.5000
     number of iterations used =           20  TF        mixing
     Exchange-correlation= RPBE
                           (   1   4  44   4   0   0   0)

     celldm(1)=   9.465780  celldm(2)=   0.000000  celldm(3)=   0.000000
     celldm(4)=   0.000000  celldm(5)=   0.000000  celldm(6)=   0.000000

     crystal axes: (cart. coord. in units of alat)
               a(1) = (   1.000000   0.000000   0.000000 )  
               a(2) = (   0.000000   1.000000   0.000000 )  
               a(3) = (   0.000000   0.000000   5.053413 )  

     reciprocal axes: (cart. coord. in units 2 pi/alat)
               b(1) = (  1.000000  0.000000  0.000000 )  
               b(2) = (  0.000000  1.000000  0.000000 )  
               b(3) = (  0.000000  0.000000  0.197886 )  


     PseudoPot. # 1 for Ni read from file:
     ./pseudo/ni_pbe_v1.4.uspp.F.UPF
     MD5 check sum: 849734e1fde98a49bebfeab896d3cd68
     Pseudo is Ultrasoft + core correction, Zval = 18.0
     Generated by new atomic code, or converted to UPF format
     Using radial grid of  865 points,  6 beta functions with: 
                l(1) =   0
                l(2) =   0
                l(3) =   1
                l(4) =   1
                l(5) =   2
                l(6) =   2
     Q(r) pseudized with 10 coefficients,  rinner =    0.980   0.980   0.980
                                                       0.980   0.980

     PseudoPot. # 2 for N  read from file:
     ./pseudo/N.pbe-n-kjpaw_psl.1.0.0.UPF
     MD5 check sum: c39a4aec4ba7352d52c1696935a53a89
     Pseudo is Projector augmented-wave + core cor, Zval =  5.0
     Generated using &quot;atomic&quot; code by A. Dal Corso  v.6.3
     Shape of augmentation charge: PSQ
     Using radial grid of 1085 points,  4 beta functions with: 
                l(1) =   0
                l(2) =   0
                l(3) =   1
                l(4) =   1
     Q(r) pseudized with 0 coefficients 


     atomic species   valence    mass     pseudopotential
     Ni               18.00    58.69340     Ni( 1.00)
     N                 5.00    14.00700     N ( 1.00)

     Starting magnetic structure 
     atomic species   magnetization
     Ni              0.500
     N               0.000

      8 Sym. Ops. (no inversion) found ( 6 have fractional translation)


                                    s                        frac. trans.

      isym =  1     identity                                     

 cryst.   s( 1) = (     1          0          0      )
                  (     0          1          0      )
                  (     0          0          1      )

 cart.    s( 1) = (  1.0000000  0.0000000  0.0000000 )
                  (  0.0000000  1.0000000  0.0000000 )
                  (  0.0000000  0.0000000  1.0000000 )


      isym =  2     180 deg rotation - cart. axis [0,0,1]        

 cryst.   s( 2) = (    -1          0          0      )    f =( -0.5000000 )
                  (     0         -1          0      )       ( -0.5000000 )
                  (     0          0          1      )       (  0.0000000 )

 cart.    s( 2) = ( -1.0000000  0.0000000  0.0000000 )    f =( -0.5000000 )
                  (  0.0000000 -1.0000000  0.0000000 )       ( -0.5000000 )
                  (  0.0000000  0.0000000  1.0000000 )       (  0.0000000 )


      isym =  3      90 deg rotation - cart. axis [0,0,-1]       

 cryst.   s( 3) = (     0         -1          0      )    f =(  0.0000000 )
                  (     1          0          0      )       ( -0.5000000 )
                  (     0          0          1      )       (  0.0000000 )

 cart.    s( 3) = (  0.0000000  1.0000000  0.0000000 )    f =(  0.0000000 )
                  ( -1.0000000  0.0000000  0.0000000 )       ( -0.5000000 )
                  (  0.0000000  0.0000000  1.0000000 )       (  0.0000000 )


      isym =  4      90 deg rotation - cart. axis [0,0,1]        

 cryst.   s( 4) = (     0          1          0      )    f =( -0.5000000 )
                  (    -1          0          0      )       (  0.0000000 )
                  (     0          0          1      )       (  0.0000000 )

 cart.    s( 4) = (  0.0000000 -1.0000000  0.0000000 )    f =( -0.5000000 )
                  (  1.0000000  0.0000000  0.0000000 )       (  0.0000000 )
                  (  0.0000000  0.0000000  1.0000000 )       (  0.0000000 )


      isym =  5     inv. 180 deg rotation - cart. axis [0,1,0]   

 cryst.   s( 5) = (     1          0          0      )    f =(  0.0000000 )
                  (     0         -1          0      )       ( -0.5000000 )
                  (     0          0          1      )       (  0.0000000 )

 cart.    s( 5) = (  1.0000000  0.0000000  0.0000000 )    f =(  0.0000000 )
                  (  0.0000000 -1.0000000  0.0000000 )       ( -0.5000000 )
                  (  0.0000000  0.0000000  1.0000000 )       (  0.0000000 )


      isym =  6     inv. 180 deg rotation - cart. axis [1,0,0]   

 cryst.   s( 6) = (    -1          0          0      )    f =( -0.5000000 )
                  (     0          1          0      )       (  0.0000000 )
                  (     0          0          1      )       (  0.0000000 )

 cart.    s( 6) = ( -1.0000000  0.0000000  0.0000000 )    f =( -0.5000000 )
                  (  0.0000000  1.0000000  0.0000000 )       (  0.0000000 )
                  (  0.0000000  0.0000000  1.0000000 )       (  0.0000000 )


      isym =  7     inv. 180 deg rotation - cart. axis [1,1,0]   

 cryst.   s( 7) = (     0         -1          0      )    f =( -0.5000000 )
                  (    -1          0          0      )       ( -0.5000000 )
                  (     0          0          1      )       (  0.0000000 )

 cart.    s( 7) = (  0.0000000 -1.0000000  0.0000000 )    f =( -0.5000000 )
                  ( -1.0000000  0.0000000  0.0000000 )       ( -0.5000000 )
                  (  0.0000000  0.0000000  1.0000000 )       (  0.0000000 )


      isym =  8     inv. 180 deg rotation - cart. axis [1,-1,0]  

 cryst.   s( 8) = (     0          1          0      )
                  (     1          0          0      )
                  (     0          0          1      )

 cart.    s( 8) = (  0.0000000  1.0000000  0.0000000 )
                  (  1.0000000  0.0000000  0.0000000 )
                  (  0.0000000  0.0000000  1.0000000 )


   Cartesian axes

     site n.     atom                  positions (alat units)
         1        Ni     tau(   1) = (   0.2500000   0.2500000   0.3992753  )
         2        Ni     tau(   2) = (   0.7500000   0.2500000   0.3992753  )
         3        Ni     tau(   3) = (   0.2500000   0.7500000   0.3992753  )
         4        Ni     tau(   4) = (   0.7500000   0.7500000   0.3992753  )
         5        Ni     tau(   5) = (   0.0000000   0.0000000   0.7528287  )
         6        Ni     tau(   6) = (   0.5000000   0.0000000   0.7528287  )
         7        Ni     tau(   7) = (   0.0000000   0.5000000   0.7528287  )
         8        Ni     tau(   8) = (   0.5000000   0.5000000   0.7528287  )
         9        Ni     tau(   9) = (   0.2500000   0.2500000   1.1013438  )
        10        Ni     tau(  10) = (   0.7500000   0.2500000   1.1076682  )
        11        Ni     tau(  11) = (   0.2500000   0.7500000   1.1076682  )
        12        Ni     tau(  12) = (   0.7500000   0.7500000   1.1167030  )
        13        Ni     tau(  13) = (  -0.0023997  -0.0023997   1.4715263  )
        14        Ni     tau(  14) = (   0.5023997  -0.0023997   1.4715263  )
        15        Ni     tau(  15) = (  -0.0023997   0.5023997   1.4715263  )
        16        Ni     tau(  16) = (   0.5023997   0.5023997   1.4715263  )
        17        N      tau(  17) = (   0.2500000   0.2500000   1.5713452  )

     Fixed atoms
     site n.  direction
         1    0   0   0
         2    0   0   0
         3    0   0   0
         4    0   0   0
         5    0   0   0
         6    0   0   0
         7    0   0   0
         8    0   0   0
         9    1   1   1
        10    1   1   1
        11    1   1   1
        12    1   1   1
        13    1   1   1
        14    1   1   1
        15    1   1   1
        16    1   1   1
        17    0   0   0

   Crystallographic axes

     site n.     atom                  positions (cryst. coord.)
         1        Ni     tau(   1) = (  0.2500000  0.2500000  0.0790110  )
         2        Ni     tau(   2) = (  0.7500000  0.2500000  0.0790110  )
         3        Ni     tau(   3) = (  0.2500000  0.7500000  0.0790110  )
         4        Ni     tau(   4) = (  0.7500000  0.7500000  0.0790110  )
         5        Ni     tau(   5) = (  0.0000000  0.0000000  0.1489743  )
         6        Ni     tau(   6) = (  0.5000000  0.0000000  0.1489743  )
         7        Ni     tau(   7) = (  0.0000000  0.5000000  0.1489743  )
         8        Ni     tau(   8) = (  0.5000000  0.5000000  0.1489743  )
         9        Ni     tau(   9) = (  0.2500000  0.2500000  0.2179406  )
        10        Ni     tau(  10) = (  0.7500000  0.2500000  0.2191921  )
        11        Ni     tau(  11) = (  0.2500000  0.7500000  0.2191921  )
        12        Ni     tau(  12) = (  0.7500000  0.7500000  0.2209799  )
        13        Ni     tau(  13) = ( -0.0023997 -0.0023997  0.2911945  )
        14        Ni     tau(  14) = (  0.5023997 -0.0023997  0.2911945  )
        15        Ni     tau(  15) = ( -0.0023997  0.5023997  0.2911945  )
        16        Ni     tau(  16) = (  0.5023997  0.5023997  0.2911945  )
        17        N      tau(  17) = (  0.2500000  0.2500000  0.3109473  )

     number of k points=    15  Fermi-Dirac smearing, width (Ry)=  0.0037
                       cart. coord. in units 2pi/alat
        k(    1) = (   0.0000000   0.0000000   0.0000000), wk =   0.0156250
        k(    2) = (   0.0000000   0.1250000   0.0000000), wk =   0.0625000
        k(    3) = (   0.0000000   0.2500000   0.0000000), wk =   0.0625000
        k(    4) = (   0.0000000   0.3750000   0.0000000), wk =   0.0625000
        k(    5) = (   0.0000000  -0.5000000   0.0000000), wk =   0.0312500
        k(    6) = (   0.1250000   0.1250000   0.0000000), wk =   0.0625000
        k(    7) = (   0.1250000   0.2500000   0.0000000), wk =   0.1250000
        k(    8) = (   0.1250000   0.3750000   0.0000000), wk =   0.1250000
        k(    9) = (   0.1250000  -0.5000000   0.0000000), wk =   0.0625000
        k(   10) = (   0.2500000   0.2500000   0.0000000), wk =   0.0625000
        k(   11) = (   0.2500000   0.3750000   0.0000000), wk =   0.1250000
        k(   12) = (   0.2500000  -0.5000000   0.0000000), wk =   0.0625000
        k(   13) = (   0.3750000   0.3750000   0.0000000), wk =   0.0625000
        k(   14) = (   0.3750000  -0.5000000   0.0000000), wk =   0.0625000
        k(   15) = (  -0.5000000  -0.5000000   0.0000000), wk =   0.0156250

                       cryst. coord.
        k(    1) = (   0.0000000   0.0000000   0.0000000), wk =   0.0156250
        k(    2) = (   0.0000000   0.1250000   0.0000000), wk =   0.0625000
        k(    3) = (   0.0000000   0.2500000   0.0000000), wk =   0.0625000
        k(    4) = (   0.0000000   0.3750000   0.0000000), wk =   0.0625000
        k(    5) = (   0.0000000  -0.5000000   0.0000000), wk =   0.0312500
        k(    6) = (   0.1250000   0.1250000   0.0000000), wk =   0.0625000
        k(    7) = (   0.1250000   0.2500000   0.0000000), wk =   0.1250000
        k(    8) = (   0.1250000   0.3750000   0.0000000), wk =   0.1250000
        k(    9) = (   0.1250000  -0.5000000   0.0000000), wk =   0.0625000
        k(   10) = (   0.2500000   0.2500000   0.0000000), wk =   0.0625000
        k(   11) = (   0.2500000   0.3750000   0.0000000), wk =   0.1250000
        k(   12) = (   0.2500000  -0.5000000   0.0000000), wk =   0.0625000
        k(   13) = (   0.3750000   0.3750000   0.0000000), wk =   0.0625000
        k(   14) = (   0.3750000  -0.5000000   0.0000000), wk =   0.0625000
        k(   15) = (  -0.5000000  -0.5000000   0.0000000), wk =   0.0156250

     Dense  grid:  1063469 G-vectors     FFT dimensions: (  80,  80, 375)

     Smooth grid:   269015 G-vectors     FFT dimensions: (  48,  48, 240)

     Dynamical RAM for                 wfc:       4.51 MB

     Dynamical RAM for     wfc (w. buffer):     139.95 MB

     Dynamical RAM for           str. fact:       1.62 MB

     Dynamical RAM for           local pot:       0.00 MB

     Dynamical RAM for          nlocal pot:       7.59 MB

     Dynamical RAM for                qrad:       3.93 MB

     Dynamical RAM for          rho,v,vnew:      10.43 MB

     Dynamical RAM for               rhoin:       3.48 MB

     Dynamical RAM for            rho*nmix:      64.91 MB

     Dynamical RAM for           G-vectors:       3.15 MB

     Dynamical RAM for          h,s,v(r/c):       0.35 MB

     Dynamical RAM for          <psi|beta>:       0.79 MB

     Dynamical RAM for      wfcinit/wfcrot:       9.74 MB

     Dynamical RAM for           addusdens:     164.71 MB

     Dynamical RAM for          addusforce:     189.17 MB

     Dynamical RAM for         addusstress:     164.30 MB

     Estimated static dynamical RAM per process >     178.15 MB

     Estimated max dynamical RAM per process >     432.23 MB

     Estimated total dynamical RAM >       8.44 GB

     Check: negative core charge=   -0.000005
     Generating pointlists ...
     new r_m :   0.1529 (alat units)  1.4472 (a.u.) for type    1
     new r_m :   0.1529 (alat units)  1.4472 (a.u.) for type    2

     Initial potential from superposition of free atoms

     starting charge     261.0000, renormalised to     293.0000

     negative rho (up, down):  3.674E-04 1.226E-04
     Starting wfcs are  212 randomized atomic wfcs
     Checking if some PAW data can be deallocated... 
       PAW data deallocated on   19 nodes for type:  2

     total cpu time spent up to now is       37.7 secs

     per-process dynamical memory:   223.4 Mb

     Self-consistent Calculation

     iteration #  1     ecut=    60.00 Ry     beta= 0.50
     CG style diagonalization

---- Real-time Memory Report at c_bands before calling an iterative solver
           244 MiB given to the printing process from OS
           218 MiB allocation reported by mallinfo(arena+hblkhd)
        418423 MiB available memory on the node where the printing process lives
------------------
     c_bands:  2 eigenvalues not converged
     c_bands:  1 eigenvalues not converged
     c_bands:  3 eigenvalues not converged
     c_bands:  3 eigenvalues not converged
     c_bands:  1 eigenvalues not converged
     c_bands:  5 eigenvalues not converged
     c_bands:  3 eigenvalues not converged
     c_bands:  3 eigenvalues not converged
     c_bands:  5 eigenvalues not converged
     c_bands:  2 eigenvalues not converged
     c_bands:  3 eigenvalues not converged
     c_bands:  2 eigenvalues not converged
     c_bands:  3 eigenvalues not converged
     c_bands:  1 eigenvalues not converged
     c_bands:  3 eigenvalues not converged
     c_bands:  3 eigenvalues not converged
     c_bands:  1 eigenvalues not converged
     c_bands:  2 eigenvalues not converged
     c_bands:  3 eigenvalues not converged
     c_bands:  3 eigenvalues not converged
     c_bands:  2 eigenvalues not converged
     c_bands:  2 eigenvalues not converged
     c_bands:  4 eigenvalues not converged
     c_bands:  1 eigenvalues not converged
     c_bands:  3 eigenvalues not converged
     ethr =  1.00E-04,  avg # of iterations = 21.4

     negative rho (up, down):  7.574E-02 1.375E-01

     total cpu time spent up to now is     2520.2 secs

     total energy              =   -5286.64300846 Ry
     estimated scf accuracy    <    5140.88381509 Ry

     total magnetization       =    13.96 Bohr mag/cell
     absolute magnetization    =    14.52 Bohr mag/cell

     iteration #  2     ecut=    60.00 Ry     beta= 0.50
     CG style diagonalization

---- Real-time Memory Report at c_bands before calling an iterative solver
           423 MiB given to the printing process from OS
           262 MiB allocation reported by mallinfo(arena+hblkhd)
        417052 MiB available memory on the node where the printing process lives
------------------
     ethr =  1.00E-02,  avg # of iterations =  7.4

     negative rho (up, down):  3.782E-02 5.372E-02

     total cpu time spent up to now is     3345.3 secs

     total energy              =   -5480.36602091 Ry
     estimated scf accuracy    <     208.42290380 Ry

     total magnetization       =     0.55 Bohr mag/cell
     absolute magnetization    =     6.01 Bohr mag/cell

     iteration #  3     ecut=    60.00 Ry     beta= 0.50
     CG style diagonalization

---- Real-time Memory Report at c_bands before calling an iterative solver
           429 MiB given to the printing process from OS
           262 MiB allocation reported by mallinfo(arena+hblkhd)
        416867 MiB available memory on the node where the printing process lives
------------------
     ethr =  1.00E-02,  avg # of iterations =  4.6

     negative rho (up, down):  3.610E-02 5.085E-02

     total cpu time spent up to now is     3815.6 secs

     total energy              =   -5512.77325731 Ry
     estimated scf accuracy    <     119.60972014 Ry

     total magnetization       =    22.80 Bohr mag/cell
     absolute magnetization    =    25.95 Bohr mag/cell

     iteration #  4     ecut=    60.00 Ry     beta= 0.50
     CG style diagonalization

---- Real-time Memory Report at c_bands before calling an iterative solver
           430 MiB given to the printing process from OS
           263 MiB allocation reported by mallinfo(arena+hblkhd)
        416888 MiB available memory on the node where the printing process lives
------------------
     ethr =  1.00E-02,  avg # of iterations =  3.4

     negative rho (up, down):  3.132E-02 4.036E-02

     total cpu time spent up to now is     4145.3 secs

     total energy              =   -5517.50517181 Ry
     estimated scf accuracy    <      67.06914529 Ry

     total magnetization       =    19.01 Bohr mag/cell
     absolute magnetization    =    21.41 Bohr mag/cell

     iteration #  5     ecut=    60.00 Ry     beta= 0.50
     CG style diagonalization

---- Real-time Memory Report at c_bands before calling an iterative solver
           431 MiB given to the printing process from OS
           264 MiB allocation reported by mallinfo(arena+hblkhd)
        416922 MiB available memory on the node where the printing process lives
------------------
     ethr =  1.00E-02,  avg # of iterations =  3.1

     negative rho (up, down):  2.559E-02 3.045E-02

     total cpu time spent up to now is     4431.1 secs

     total energy              =   -5520.98605262 Ry
     estimated scf accuracy    <      57.88895861 Ry

     total magnetization       =    15.70 Bohr mag/cell
     absolute magnetization    =    18.25 Bohr mag/cell

     iteration #  6     ecut=    60.00 Ry     beta= 0.50
     CG style diagonalization

---- Real-time Memory Report at c_bands before calling an iterative solver
           432 MiB given to the printing process from OS
           265 MiB allocation reported by mallinfo(arena+hblkhd)
        416940 MiB available memory on the node where the printing process lives
------------------
     ethr =  1.00E-02,  avg # of iterations =  3.0

     negative rho (up, down):  2.372E-02 2.322E-02

     total cpu time spent up to now is     4706.9 secs

     total energy              =   -5520.73494518 Ry
     estimated scf accuracy    <      44.59193498 Ry

     total magnetization       =    12.45 Bohr mag/cell
     absolute magnetization    =    15.84 Bohr mag/cell

     iteration #  7     ecut=    60.00 Ry     beta= 0.50
     CG style diagonalization

---- Real-time Memory Report at c_bands before calling an iterative solver
           432 MiB given to the printing process from OS
           266 MiB allocation reported by mallinfo(arena+hblkhd)
        416958 MiB available memory on the node where the printing process lives
------------------
     ethr =  1.00E-02,  avg # of iterations =  3.0

     negative rho (up, down):  2.319E-02 1.995E-02

     total cpu time spent up to now is     4983.0 secs

     total energy              =   -5521.57772116 Ry
     estimated scf accuracy    <       2.57968977 Ry

     total magnetization       =    12.62 Bohr mag/cell
     absolute magnetization    =    15.04 Bohr mag/cell

     iteration #  8     ecut=    60.00 Ry     beta= 0.50
     CG style diagonalization

---- Real-time Memory Report at c_bands before calling an iterative solver
           433 MiB given to the printing process from OS
           267 MiB allocation reported by mallinfo(arena+hblkhd)
        416976 MiB available memory on the node where the printing process lives
------------------
     ethr =  8.80E-04,  avg # of iterations =  3.1

     negative rho (up, down):  2.275E-02 1.940E-02

     total cpu time spent up to now is     5274.1 secs

     total energy              =   -5521.61191039 Ry
     estimated scf accuracy    <       1.26845806 Ry

     total magnetization       =    11.29 Bohr mag/cell
     absolute magnetization    =    13.57 Bohr mag/cell

     iteration #  9     ecut=    60.00 Ry     beta= 0.50
     CG style diagonalization

---- Real-time Memory Report at c_bands before calling an iterative solver
           434 MiB given to the printing process from OS
           268 MiB allocation reported by mallinfo(arena+hblkhd)
        416967 MiB available memory on the node where the printing process lives
------------------
     ethr =  4.33E-04,  avg # of iterations =  3.0

     negative rho (up, down):  2.059E-02 1.823E-02

     total cpu time spent up to now is     5554.5 secs

     total energy              =   -5521.61455384 Ry
     estimated scf accuracy    <       0.56611199 Ry

     total magnetization       =    10.95 Bohr mag/cell
     absolute magnetization    =    13.10 Bohr mag/cell

     iteration # 10     ecut=    60.00 Ry     beta= 0.50
     CG style diagonalization

---- Real-time Memory Report at c_bands before calling an iterative solver
           435 MiB given to the printing process from OS
           269 MiB allocation reported by mallinfo(arena+hblkhd)
        416995 MiB available memory on the node where the printing process lives
------------------
     ethr =  1.93E-04,  avg # of iterations =  3.1

     negative rho (up, down):  1.984E-02 1.772E-02

     total cpu time spent up to now is     5837.5 secs

     total energy              =   -5521.59047904 Ry
     estimated scf accuracy    <       2.92966850 Ry

     total magnetization       =     9.92 Bohr mag/cell
     absolute magnetization    =    11.87 Bohr mag/cell

     iteration # 11     ecut=    60.00 Ry     beta= 0.50
     CG style diagonalization

---- Real-time Memory Report at c_bands before calling an iterative solver
           436 MiB given to the printing process from OS
           270 MiB allocation reported by mallinfo(arena+hblkhd)
        416981 MiB available memory on the node where the printing process lives
------------------
     ethr =  1.93E-04,  avg # of iterations =  3.0

     negative rho (up, down):  1.933E-02 1.718E-02

     total cpu time spent up to now is     6115.0 secs

     total energy              =   -5521.64884372 Ry
     estimated scf accuracy    <       3.09201916 Ry

     total magnetization       =     9.35 Bohr mag/cell
     absolute magnetization    =    11.21 Bohr mag/cell

     iteration # 12     ecut=    60.00 Ry     beta= 0.50
     CG style diagonalization

---- Real-time Memory Report at c_bands before calling an iterative solver
           437 MiB given to the printing process from OS
           271 MiB allocation reported by mallinfo(arena+hblkhd)
        416972 MiB available memory on the node where the printing process lives
------------------
     ethr =  1.93E-04,  avg # of iterations =  3.0

     negative rho (up, down):  1.891E-02 1.650E-02

     total cpu time spent up to now is     6389.9 secs

     total energy              =   -5521.62310903 Ry
     estimated scf accuracy    <       2.25354855 Ry

     total magnetization       =     8.99 Bohr mag/cell
     absolute magnetization    =    10.69 Bohr mag/cell

     iteration # 13     ecut=    60.00 Ry     beta= 0.50
     CG style diagonalization

---- Real-time Memory Report at c_bands before calling an iterative solver
           438 MiB given to the printing process from OS
           272 MiB allocation reported by mallinfo(arena+hblkhd)
        416976 MiB available memory on the node where the printing process lives
------------------
     ethr =  1.93E-04,  avg # of iterations =  3.0

     negative rho (up, down):  1.698E-02 1.568E-02

     total cpu time spent up to now is     6666.2 secs

     total energy              =   -5521.62625420 Ry
     estimated scf accuracy    <       0.43907049 Ry

     total magnetization       =     8.71 Bohr mag/cell
     absolute magnetization    =    10.31 Bohr mag/cell

     iteration # 14     ecut=    60.00 Ry     beta= 0.50
     CG style diagonalization

---- Real-time Memory Report at c_bands before calling an iterative solver
           439 MiB given to the printing process from OS
           272 MiB allocation reported by mallinfo(arena+hblkhd)
        416908 MiB available memory on the node where the printing process lives
------------------
     ethr =  1.50E-04,  avg # of iterations =  3.0

     negative rho (up, down):  1.616E-02 1.546E-02

     total cpu time spent up to now is     6943.9 secs

     total energy              =   -5521.62202287 Ry
     estimated scf accuracy    <       0.53049652 Ry

     total magnetization       =     8.40 Bohr mag/cell
     absolute magnetization    =     9.78 Bohr mag/cell

     iteration # 15     ecut=    60.00 Ry     beta= 0.50
     CG style diagonalization

---- Real-time Memory Report at c_bands before calling an iterative solver
           440 MiB given to the printing process from OS
           273 MiB allocation reported by mallinfo(arena+hblkhd)
        416906 MiB available memory on the node where the printing process lives
------------------
     ethr =  1.50E-04,  avg # of iterations =  3.0

     negative rho (up, down):  1.453E-02 1.466E-02

     total cpu time spent up to now is     7219.9 secs

     total energy              =   -5521.61776468 Ry
     estimated scf accuracy    <       0.42920082 Ry

     total magnetization       =     8.11 Bohr mag/cell
     absolute magnetization    =     9.40 Bohr mag/cell

     iteration # 16     ecut=    60.00 Ry     beta= 0.50
     CG style diagonalization

---- Real-time Memory Report at c_bands before calling an iterative solver
           441 MiB given to the printing process from OS
           274 MiB allocation reported by mallinfo(arena+hblkhd)
        416887 MiB available memory on the node where the printing process lives
------------------
     ethr =  1.46E-04,  avg # of iterations =  3.0

     negative rho (up, down):  1.417E-02 1.451E-02

     total cpu time spent up to now is     7496.9 secs

     total energy              =   -5521.62146821 Ry
     estimated scf accuracy    <       0.54783228 Ry

     total magnetization       =     8.33 Bohr mag/cell
     absolute magnetization    =     9.51 Bohr mag/cell

     iteration # 17     ecut=    60.00 Ry     beta= 0.50
     CG style diagonalization

---- Real-time Memory Report at c_bands before calling an iterative solver
           442 MiB given to the printing process from OS
           275 MiB allocation reported by mallinfo(arena+hblkhd)
        416897 MiB available memory on the node where the printing process lives
------------------
     ethr =  1.46E-04,  avg # of iterations =  3.0

     negative rho (up, down):  1.361E-02 1.386E-02

     total cpu time spent up to now is     7774.8 secs

     total energy              =   -5521.61779665 Ry
     estimated scf accuracy    <       0.52229292 Ry

     total magnetization       =     8.30 Bohr mag/cell
     absolute magnetization    =     9.45 Bohr mag/cell

     iteration # 18     ecut=    60.00 Ry     beta= 0.50
     CG style diagonalization

---- Real-time Memory Report at c_bands before calling an iterative solver
           442 MiB given to the printing process from OS
           276 MiB allocation reported by mallinfo(arena+hblkhd)
        416874 MiB available memory on the node where the printing process lives
------------------
     ethr =  1.46E-04,  avg # of iterations =  3.0

     negative rho (up, down):  1.458E-02 1.353E-02

     total cpu time spent up to now is     8050.3 secs

     total energy              =   -5521.61356814 Ry
     estimated scf accuracy    <       0.26859542 Ry

     total magnetization       =     8.54 Bohr mag/cell
     absolute magnetization    =     9.71 Bohr mag/cell

     iteration # 19     ecut=    60.00 Ry     beta= 0.50
     CG style diagonalization

---- Real-time Memory Report at c_bands before calling an iterative solver
           443 MiB given to the printing process from OS
           277 MiB allocation reported by mallinfo(arena+hblkhd)
        416862 MiB available memory on the node where the printing process lives
------------------
     ethr =  9.17E-05,  avg # of iterations =  3.1

     negative rho (up, down):  2.656E-02 2.354E-02

     total cpu time spent up to now is     8334.7 secs

     total energy              =   -5521.61152293 Ry
     estimated scf accuracy    <       0.05098125 Ry

     total magnetization       =     8.88 Bohr mag/cell
     absolute magnetization    =    10.17 Bohr mag/cell

     iteration # 20     ecut=    60.00 Ry     beta= 0.50
     CG style diagonalization

---- Real-time Memory Report at c_bands before calling an iterative solver
           444 MiB given to the printing process from OS
           278 MiB allocation reported by mallinfo(arena+hblkhd)
        416845 MiB available memory on the node where the printing process lives
------------------
     c_bands:  1 eigenvalues not converged
     c_bands:  1 eigenvalues not converged
     c_bands:  2 eigenvalues not converged
     c_bands:  1 eigenvalues not converged
     c_bands:  1 eigenvalues not converged
     c_bands:  1 eigenvalues not converged
     c_bands:  1 eigenvalues not converged
     c_bands:  2 eigenvalues not converged
     ethr =  1.74E-05,  avg # of iterations =  3.2

     negative rho (up, down):  3.429E-02 3.144E-02

     total cpu time spent up to now is     8644.2 secs

     total energy              =   -5521.61384474 Ry
     estimated scf accuracy    <       0.11049706 Ry

     total magnetization       =     9.09 Bohr mag/cell
     absolute magnetization    =    10.56 Bohr mag/cell

     iteration # 21     ecut=    60.00 Ry     beta= 0.50
     CG style diagonalization

---- Real-time Memory Report at c_bands before calling an iterative solver
           445 MiB given to the printing process from OS
           279 MiB allocation reported by mallinfo(arena+hblkhd)
        416872 MiB available memory on the node where the printing process lives
------------------
     c_bands:  1 eigenvalues not converged
     ethr =  1.74E-05,  avg # of iterations =  3.1

     negative rho (up, down):  4.454E-02 4.215E-02

     total cpu time spent up to now is     8931.9 secs

     total energy              =   -5521.61463191 Ry
     estimated scf accuracy    <       0.05223994 Ry

     total magnetization       =     9.20 Bohr mag/cell
     absolute magnetization    =    10.67 Bohr mag/cell

     iteration # 22     ecut=    60.00 Ry     beta= 0.50
     CG style diagonalization

---- Real-time Memory Report at c_bands before calling an iterative solver
           446 MiB given to the printing process from OS
           280 MiB allocation reported by mallinfo(arena+hblkhd)
        416882 MiB available memory on the node where the printing process lives
------------------
     ethr =  1.74E-05,  avg # of iterations =  3.1

     negative rho (up, down):  5.001E-02 4.900E-02

     total cpu time spent up to now is     9219.2 secs

     total energy              =   -5521.61016530 Ry
     estimated scf accuracy    <       0.15771412 Ry

     total magnetization       =     9.36 Bohr mag/cell
     absolute magnetization    =    10.86 Bohr mag/cell

     iteration # 23     ecut=    60.00 Ry     beta= 0.50
     CG style diagonalization

---- Real-time Memory Report at c_bands before calling an iterative solver
           447 MiB given to the printing process from OS
           280 MiB allocation reported by mallinfo(arena+hblkhd)
        416876 MiB available memory on the node where the printing process lives
------------------
     c_bands:  1 eigenvalues not converged
     c_bands:  1 eigenvalues not converged
     ethr =  1.74E-05,  avg # of iterations =  3.1

     negative rho (up, down):  5.098E-02 5.013E-02

     total cpu time spent up to now is     9521.4 secs

     total energy              =   -5521.61044114 Ry
     estimated scf accuracy    <       0.20373164 Ry

     total magnetization       =     9.44 Bohr mag/cell
     absolute magnetization    =    10.85 Bohr mag/cell

     iteration # 24     ecut=    60.00 Ry     beta= 0.50
     CG style diagonalization

---- Real-time Memory Report at c_bands before calling an iterative solver
           447 MiB given to the printing process from OS
           280 MiB allocation reported by mallinfo(arena+hblkhd)
        416880 MiB available memory on the node where the printing process lives
------------------
     c_bands:  1 eigenvalues not converged
     ethr =  1.74E-05,  avg # of iterations =  3.0

     negative rho (up, down):  5.266E-02 5.197E-02

     total cpu time spent up to now is     9803.1 secs

     total energy              =   -5521.61154246 Ry
     estimated scf accuracy    <       0.02821573 Ry

     total magnetization       =     9.24 Bohr mag/cell
     absolute magnetization    =    10.63 Bohr mag/cell

     iteration # 25     ecut=    60.00 Ry     beta= 0.50
     CG style diagonalization

---- Real-time Memory Report at c_bands before calling an iterative solver
           447 MiB given to the printing process from OS
           280 MiB allocation reported by mallinfo(arena+hblkhd)
        416896 MiB available memory on the node where the printing process lives
------------------
     c_bands:  1 eigenvalues not converged
     c_bands:  1 eigenvalues not converged
     ethr =  9.63E-06,  avg # of iterations =  3.1

     negative rho (up, down):  5.078E-02 5.012E-02

     total cpu time spent up to now is    10109.0 secs

     total energy              =   -5521.61206741 Ry
     estimated scf accuracy    <       0.03910503 Ry

     total magnetization       =     9.18 Bohr mag/cell
     absolute magnetization    =    10.59 Bohr mag/cell

     iteration # 26     ecut=    60.00 Ry     beta= 0.50
     CG style diagonalization

---- Real-time Memory Report at c_bands before calling an iterative solver
           447 MiB given to the printing process from OS
           280 MiB allocation reported by mallinfo(arena+hblkhd)
        416845 MiB available memory on the node where the printing process lives
------------------
     ethr =  9.63E-06,  avg # of iterations =  3.1

     negative rho (up, down):  4.366E-02 4.333E-02

     total cpu time spent up to now is    10390.8 secs

     total energy              =   -5521.60802213 Ry
     estimated scf accuracy    <       0.13052230 Ry

     total magnetization       =     9.10 Bohr mag/cell
     absolute magnetization    =    10.53 Bohr mag/cell

     iteration # 27     ecut=    60.00 Ry     beta= 0.50
     CG style diagonalization

---- Real-time Memory Report at c_bands before calling an iterative solver
           447 MiB given to the printing process from OS
           280 MiB allocation reported by mallinfo(arena+hblkhd)
        416858 MiB available memory on the node where the printing process lives
------------------
     c_bands:  1 eigenvalues not converged
     c_bands:  1 eigenvalues not converged
     ethr =  9.63E-06,  avg # of iterations =  3.1

     negative rho (up, down):  3.964E-02 3.951E-02

     total cpu time spent up to now is    10685.7 secs

     total energy              =   -5521.60924063 Ry
     estimated scf accuracy    <       0.02014599 Ry

     total magnetization       =     9.05 Bohr mag/cell
     absolute magnetization    =    10.47 Bohr mag/cell

     iteration # 28     ecut=    60.00 Ry     beta= 0.50
     CG style diagonalization

---- Real-time Memory Report at c_bands before calling an iterative solver
           447 MiB given to the printing process from OS
           280 MiB allocation reported by mallinfo(arena+hblkhd)
        416874 MiB available memory on the node where the printing process lives
------------------
     c_bands:  1 eigenvalues not converged
     ethr =  6.88E-06,  avg # of iterations =  3.1

     negative rho (up, down):  3.207E-02 3.211E-02

     total cpu time spent up to now is    10975.7 secs

     total energy              =   -5521.60761074 Ry
     estimated scf accuracy    <       0.00661330 Ry

     total magnetization       =     9.07 Bohr mag/cell
     absolute magnetization    =    10.51 Bohr mag/cell

     iteration # 29     ecut=    60.00 Ry     beta= 0.50
     CG style diagonalization

---- Real-time Memory Report at c_bands before calling an iterative solver
           447 MiB given to the printing process from OS
           280 MiB allocation reported by mallinfo(arena+hblkhd)
        416881 MiB available memory on the node where the printing process lives
------------------
     c_bands:  1 eigenvalues not converged
     c_bands:  1 eigenvalues not converged
     c_bands:  2 eigenvalues not converged
     ethr =  2.26E-06,  avg # of iterations =  3.3

     negative rho (up, down):  3.112E-02 3.099E-02

     total cpu time spent up to now is    11287.9 secs

     total energy              =   -5521.60728636 Ry
     estimated scf accuracy    <       0.00561237 Ry

     total magnetization       =     9.19 Bohr mag/cell
     absolute magnetization    =    10.60 Bohr mag/cell

     iteration # 30     ecut=    60.00 Ry     beta= 0.50
     CG style diagonalization

---- Real-time Memory Report at c_bands before calling an iterative solver
           447 MiB given to the printing process from OS
           280 MiB allocation reported by mallinfo(arena+hblkhd)
        416899 MiB available memory on the node where the printing process lives
------------------
     c_bands:  1 eigenvalues not converged
     c_bands:  1 eigenvalues not converged
     c_bands:  1 eigenvalues not converged
     c_bands:  1 eigenvalues not converged
     c_bands:  1 eigenvalues not converged
     c_bands:  1 eigenvalues not converged
     c_bands:  1 eigenvalues not converged
     ethr =  1.92E-06,  avg # of iterations =  3.2

     negative rho (up, down):  2.564E-02 2.529E-02

     total cpu time spent up to now is    11594.7 secs

     total energy              =   -5521.60693177 Ry
     estimated scf accuracy    <       0.00294885 Ry

     total magnetization       =     9.17 Bohr mag/cell
     absolute magnetization    =    10.56 Bohr mag/cell

     iteration # 31     ecut=    60.00 Ry     beta= 0.50
     CG style diagonalization

---- Real-time Memory Report at c_bands before calling an iterative solver
           447 MiB given to the printing process from OS
           280 MiB allocation reported by mallinfo(arena+hblkhd)
        416885 MiB available memory on the node where the printing process lives
------------------
     c_bands:  1 eigenvalues not converged
     c_bands:  1 eigenvalues not converged
     c_bands:  1 eigenvalues not converged
     c_bands:  1 eigenvalues not converged
     c_bands:  1 eigenvalues not converged
     c_bands:  1 eigenvalues not converged
     ethr =  1.01E-06,  avg # of iterations =  3.3

     negative rho (up, down):  1.903E-02 1.873E-02

     total cpu time spent up to now is    11907.9 secs

     total energy              =   -5521.60675387 Ry
     estimated scf accuracy    <       0.00222460 Ry

     total magnetization       =     9.20 Bohr mag/cell
     absolute magnetization    =    10.61 Bohr mag/cell

     iteration # 32     ecut=    60.00 Ry     beta= 0.50
     CG style diagonalization

---- Real-time Memory Report at c_bands before calling an iterative solver
           447 MiB given to the printing process from OS
           280 MiB allocation reported by mallinfo(arena+hblkhd)
        416896 MiB available memory on the node where the printing process lives
------------------
     c_bands:  1 eigenvalues not converged
     c_bands:  1 eigenvalues not converged
     c_bands:  1 eigenvalues not converged
     ethr =  7.59E-07,  avg # of iterations =  3.2

     negative rho (up, down):  1.578E-02 1.558E-02

     total cpu time spent up to now is    12213.4 secs

     total energy              =   -5521.60659798 Ry
     estimated scf accuracy    <       0.00378661 Ry

     total magnetization       =     9.27 Bohr mag/cell
     absolute magnetization    =    10.71 Bohr mag/cell

     iteration # 33     ecut=    60.00 Ry     beta= 0.50
     CG style diagonalization

---- Real-time Memory Report at c_bands before calling an iterative solver
           447 MiB given to the printing process from OS
           280 MiB allocation reported by mallinfo(arena+hblkhd)
        416899 MiB available memory on the node where the printing process lives
------------------
     c_bands:  1 eigenvalues not converged
     ethr =  7.59E-07,  avg # of iterations =  3.2

     negative rho (up, down):  1.557E-02 1.536E-02

     total cpu time spent up to now is    12514.7 secs

     total energy              =   -5521.60656749 Ry
     estimated scf accuracy    <       0.00230303 Ry

     total magnetization       =     9.26 Bohr mag/cell
     absolute magnetization    =    10.73 Bohr mag/cell

     iteration # 34     ecut=    60.00 Ry     beta= 0.50
     CG style diagonalization

---- Real-time Memory Report at c_bands before calling an iterative solver
           447 MiB given to the printing process from OS
           280 MiB allocation reported by mallinfo(arena+hblkhd)
        416905 MiB available memory on the node where the printing process lives
------------------
     c_bands:  1 eigenvalues not converged
     ethr =  7.59E-07,  avg # of iterations =  3.2

     negative rho (up, down):  1.142E-02 1.127E-02

     total cpu time spent up to now is    12813.0 secs

     total energy              =   -5521.60633910 Ry
     estimated scf accuracy    <       0.00108983 Ry

     total magnetization       =     9.25 Bohr mag/cell
     absolute magnetization    =    10.71 Bohr mag/cell

     iteration # 35     ecut=    60.00 Ry     beta= 0.50
     CG style diagonalization

---- Real-time Memory Report at c_bands before calling an iterative solver
           447 MiB given to the printing process from OS
           280 MiB allocation reported by mallinfo(arena+hblkhd)
        416918 MiB available memory on the node where the printing process lives
------------------
     c_bands:  1 eigenvalues not converged
     ethr =  3.72E-07,  avg # of iterations =  3.1

     negative rho (up, down):  9.247E-03 9.103E-03

     total cpu time spent up to now is    13107.2 secs

     total energy              =   -5521.60616277 Ry
     estimated scf accuracy    <       0.00102794 Ry

     total magnetization       =     9.23 Bohr mag/cell
     absolute magnetization    =    10.68 Bohr mag/cell

     iteration # 36     ecut=    60.00 Ry     beta= 0.50
     CG style diagonalization

---- Real-time Memory Report at c_bands before calling an iterative solver
           447 MiB given to the printing process from OS
           280 MiB allocation reported by mallinfo(arena+hblkhd)
        416927 MiB available memory on the node where the printing process lives
------------------
     ethr =  3.51E-07,  avg # of iterations =  3.2

     negative rho (up, down):  5.720E-03 5.614E-03

     total cpu time spent up to now is    13409.3 secs

     total energy              =   -5521.60602515 Ry
     estimated scf accuracy    <       0.00138577 Ry

     total magnetization       =     9.21 Bohr mag/cell
     absolute magnetization    =    10.65 Bohr mag/cell

     iteration # 37     ecut=    60.00 Ry     beta= 0.50
     CG style diagonalization

---- Real-time Memory Report at c_bands before calling an iterative solver
           447 MiB given to the printing process from OS
           280 MiB allocation reported by mallinfo(arena+hblkhd)
        416931 MiB available memory on the node where the printing process lives
------------------
     ethr =  3.51E-07,  avg # of iterations =  3.2

     negative rho (up, down):  4.383E-03 4.337E-03

     total cpu time spent up to now is    13710.5 secs

     total energy              =   -5521.60597120 Ry
     estimated scf accuracy    <       0.00072866 Ry

     total magnetization       =     9.19 Bohr mag/cell
     absolute magnetization    =    10.62 Bohr mag/cell

     iteration # 38     ecut=    60.00 Ry     beta= 0.50
     CG style diagonalization

---- Real-time Memory Report at c_bands before calling an iterative solver
           447 MiB given to the printing process from OS
           280 MiB allocation reported by mallinfo(arena+hblkhd)
        416902 MiB available memory on the node where the printing process lives
------------------
     ethr =  2.49E-07,  avg # of iterations =  3.1

     negative rho (up, down):  3.576E-03 3.579E-03

     total cpu time spent up to now is    14000.3 secs

     total energy              =   -5521.60600876 Ry
     estimated scf accuracy    <       0.00042231 Ry

     total magnetization       =     9.20 Bohr mag/cell
     absolute magnetization    =    10.62 Bohr mag/cell

     iteration # 39     ecut=    60.00 Ry     beta= 0.50
     CG style diagonalization

---- Real-time Memory Report at c_bands before calling an iterative solver
           447 MiB given to the printing process from OS
           280 MiB allocation reported by mallinfo(arena+hblkhd)
        416919 MiB available memory on the node where the printing process lives
------------------
     ethr =  1.44E-07,  avg # of iterations =  3.1

     negative rho (up, down):  4.409E-03 4.342E-03

     total cpu time spent up to now is    14293.0 secs

     total energy              =   -5521.60596116 Ry
     estimated scf accuracy    <       0.00064073 Ry

     total magnetization       =     9.21 Bohr mag/cell
     absolute magnetization    =    10.64 Bohr mag/cell

     iteration # 40     ecut=    60.00 Ry     beta= 0.50
     CG style diagonalization

---- Real-time Memory Report at c_bands before calling an iterative solver
           447 MiB given to the printing process from OS
           280 MiB allocation reported by mallinfo(arena+hblkhd)
        416922 MiB available memory on the node where the printing process lives
------------------
     ethr =  1.44E-07,  avg # of iterations =  3.1

     negative rho (up, down):  5.335E-03 5.296E-03

     total cpu time spent up to now is    14586.7 secs

     total energy              =   -5521.60598603 Ry
     estimated scf accuracy    <       0.00050213 Ry

     total magnetization       =     9.21 Bohr mag/cell
     absolute magnetization    =    10.64 Bohr mag/cell

     iteration # 41     ecut=    60.00 Ry     beta= 0.50
     CG style diagonalization

---- Real-time Memory Report at c_bands before calling an iterative solver
           447 MiB given to the printing process from OS
           280 MiB allocation reported by mallinfo(arena+hblkhd)
        416938 MiB available memory on the node where the printing process lives
------------------
     ethr =  1.44E-07,  avg # of iterations =  3.2

     negative rho (up, down):  4.650E-03 4.617E-03

     total cpu time spent up to now is    14887.9 secs

     total energy              =   -5521.60604208 Ry
     estimated scf accuracy    <       0.00031442 Ry

     total magnetization       =     9.22 Bohr mag/cell
     absolute magnetization    =    10.65 Bohr mag/cell

     iteration # 42     ecut=    60.00 Ry     beta= 0.50
     CG style diagonalization

---- Real-time Memory Report at c_bands before calling an iterative solver
           447 MiB given to the printing process from OS
           280 MiB allocation reported by mallinfo(arena+hblkhd)
        416938 MiB available memory on the node where the printing process lives
------------------
     ethr =  1.07E-07,  avg # of iterations =  3.2

     negative rho (up, down):  4.039E-03 4.031E-03

     total cpu time spent up to now is    15187.8 secs

     total energy              =   -5521.60601069 Ry
     estimated scf accuracy    <       0.00048766 Ry

     total magnetization       =     9.22 Bohr mag/cell
     absolute magnetization    =    10.66 Bohr mag/cell

     iteration # 43     ecut=    60.00 Ry     beta= 0.50
     CG style diagonalization

---- Real-time Memory Report at c_bands before calling an iterative solver
           447 MiB given to the printing process from OS
           280 MiB allocation reported by mallinfo(arena+hblkhd)
        416942 MiB available memory on the node where the printing process lives
------------------
     ethr =  1.07E-07,  avg # of iterations =  3.1

     negative rho (up, down):  3.335E-03 3.337E-03

     total cpu time spent up to now is    15481.9 secs

     total energy              =   -5521.60603819 Ry
     estimated scf accuracy    <       0.00033170 Ry

     total magnetization       =     9.23 Bohr mag/cell
     absolute magnetization    =    10.66 Bohr mag/cell

     iteration # 44     ecut=    60.00 Ry     beta= 0.50
     CG style diagonalization

---- Real-time Memory Report at c_bands before calling an iterative solver
           447 MiB given to the printing process from OS
           280 MiB allocation reported by mallinfo(arena+hblkhd)
        416952 MiB available memory on the node where the printing process lives
------------------
     ethr =  1.07E-07,  avg # of iterations =  3.1

     negative rho (up, down):  3.327E-03 3.334E-03

     total cpu time spent up to now is    15777.4 secs

     total energy              =   -5521.60604768 Ry
     estimated scf accuracy    <       0.00023651 Ry

     total magnetization       =     9.23 Bohr mag/cell
     absolute magnetization    =    10.67 Bohr mag/cell

     iteration # 45     ecut=    60.00 Ry     beta= 0.50
     CG style diagonalization

---- Real-time Memory Report at c_bands before calling an iterative solver
           447 MiB given to the printing process from OS
           280 MiB allocation reported by mallinfo(arena+hblkhd)
        416956 MiB available memory on the node where the printing process lives
------------------
     ethr =  8.07E-08,  avg # of iterations =  3.1

     negative rho (up, down):  3.698E-03 3.712E-03

     total cpu time spent up to now is    16064.9 secs

     total energy              =   -5521.60608948 Ry
     estimated scf accuracy    <       0.00023819 Ry

     total magnetization       =     9.22 Bohr mag/cell
     absolute magnetization    =    10.66 Bohr mag/cell

     iteration # 46     ecut=    60.00 Ry     beta= 0.50
     CG style diagonalization

---- Real-time Memory Report at c_bands before calling an iterative solver
           447 MiB given to the printing process from OS
           280 MiB allocation reported by mallinfo(arena+hblkhd)
        416953 MiB available memory on the node where the printing process lives
------------------
     c_bands:  1 eigenvalues not converged
     ethr =  8.07E-08,  avg # of iterations =  3.1

     negative rho (up, down):  4.013E-03 4.016E-03

     total cpu time spent up to now is    16354.1 secs

     total energy              =   -5521.60612920 Ry
     estimated scf accuracy    <       0.00013275 Ry

     total magnetization       =     9.21 Bohr mag/cell
     absolute magnetization    =    10.64 Bohr mag/cell

     iteration # 47     ecut=    60.00 Ry     beta= 0.50
     CG style diagonalization

---- Real-time Memory Report at c_bands before calling an iterative solver
           447 MiB given to the printing process from OS
           280 MiB allocation reported by mallinfo(arena+hblkhd)
        416955 MiB available memory on the node where the printing process lives
------------------
     ethr =  4.53E-08,  avg # of iterations =  3.1

     negative rho (up, down):  3.360E-03 3.361E-03

     total cpu time spent up to now is    16640.1 secs

     total energy              =   -5521.60616896 Ry
     estimated scf accuracy    <       0.00026687 Ry

     total magnetization       =     9.19 Bohr mag/cell
     absolute magnetization    =    10.62 Bohr mag/cell

     iteration # 48     ecut=    60.00 Ry     beta= 0.50
     CG style diagonalization

---- Real-time Memory Report at c_bands before calling an iterative solver
           447 MiB given to the printing process from OS
           280 MiB allocation reported by mallinfo(arena+hblkhd)
        416953 MiB available memory on the node where the printing process lives
------------------
     ethr =  4.53E-08,  avg # of iterations =  3.1

     negative rho (up, down):  3.368E-03 3.368E-03

     total cpu time spent up to now is    16929.5 secs

     total energy              =   -5521.60620405 Ry
     estimated scf accuracy    <       0.00011100 Ry

     total magnetization       =     9.19 Bohr mag/cell
     absolute magnetization    =    10.62 Bohr mag/cell

     iteration # 49     ecut=    60.00 Ry     beta= 0.50
     CG style diagonalization

---- Real-time Memory Report at c_bands before calling an iterative solver
           447 MiB given to the printing process from OS
           280 MiB allocation reported by mallinfo(arena+hblkhd)
        416953 MiB available memory on the node where the printing process lives
------------------
     ethr =  3.79E-08,  avg # of iterations =  3.1

     negative rho (up, down):  3.367E-03 3.384E-03

     total cpu time spent up to now is    17218.5 secs

     total energy              =   -5521.60624264 Ry
     estimated scf accuracy    <       0.00029227 Ry

     total magnetization       =     9.19 Bohr mag/cell
     absolute magnetization    =    10.62 Bohr mag/cell

     iteration # 50     ecut=    60.00 Ry     beta= 0.50
     CG style diagonalization

---- Real-time Memory Report at c_bands before calling an iterative solver
           447 MiB given to the printing process from OS
           280 MiB allocation reported by mallinfo(arena+hblkhd)
        416950 MiB available memory on the node where the printing process lives
------------------
     ethr =  3.79E-08,  avg # of iterations =  3.1

     negative rho (up, down):  3.577E-03 3.600E-03

     total cpu time spent up to now is    17508.5 secs

     total energy              =   -5521.60626357 Ry
     estimated scf accuracy    <       0.00009065 Ry

     total magnetization       =     9.21 Bohr mag/cell
     absolute magnetization    =    10.64 Bohr mag/cell

     iteration # 51     ecut=    60.00 Ry     beta= 0.50
     CG style diagonalization

---- Real-time Memory Report at c_bands before calling an iterative solver
           447 MiB given to the printing process from OS
           280 MiB allocation reported by mallinfo(arena+hblkhd)
        416954 MiB available memory on the node where the printing process lives
------------------
     ethr =  3.09E-08,  avg # of iterations =  3.1

     negative rho (up, down):  2.879E-03 2.883E-03

     total cpu time spent up to now is    17795.4 secs

     total energy              =   -5521.60627160 Ry
     estimated scf accuracy    <       0.00013698 Ry

     total magnetization       =     9.22 Bohr mag/cell
     absolute magnetization    =    10.66 Bohr mag/cell

     iteration # 52     ecut=    60.00 Ry     beta= 0.50
     CG style diagonalization

---- Real-time Memory Report at c_bands before calling an iterative solver
           447 MiB given to the printing process from OS
           280 MiB allocation reported by mallinfo(arena+hblkhd)
        416956 MiB available memory on the node where the printing process lives
------------------
     ethr =  3.09E-08,  avg # of iterations =  3.0

     negative rho (up, down):  2.388E-03 2.388E-03

     total cpu time spent up to now is    18076.7 secs

     total energy              =   -5521.60627234 Ry
     estimated scf accuracy    <       0.00005920 Ry

     total magnetization       =     9.22 Bohr mag/cell
     absolute magnetization    =    10.66 Bohr mag/cell

     iteration # 53     ecut=    60.00 Ry     beta= 0.50
     CG style diagonalization

---- Real-time Memory Report at c_bands before calling an iterative solver
           447 MiB given to the printing process from OS
           280 MiB allocation reported by mallinfo(arena+hblkhd)
        416949 MiB available memory on the node where the printing process lives
------------------
     ethr =  2.02E-08,  avg # of iterations =  3.0

     negative rho (up, down):  1.631E-03 1.624E-03

     total cpu time spent up to now is    18358.0 secs

     total energy              =   -5521.60627946 Ry
     estimated scf accuracy    <       0.00001827 Ry

     total magnetization       =     9.22 Bohr mag/cell
     absolute magnetization    =    10.66 Bohr mag/cell

     iteration # 54     ecut=    60.00 Ry     beta= 0.50
     CG style diagonalization

---- Real-time Memory Report at c_bands before calling an iterative solver
           447 MiB given to the printing process from OS
           280 MiB allocation reported by mallinfo(arena+hblkhd)
        416948 MiB available memory on the node where the printing process lives
------------------
     ethr =  6.24E-09,  avg # of iterations =  3.1

     negative rho (up, down):  1.384E-03 1.380E-03

     total cpu time spent up to now is    18651.9 secs

     total energy              =   -5521.60628847 Ry
     estimated scf accuracy    <       0.00004039 Ry

     total magnetization       =     9.22 Bohr mag/cell
     absolute magnetization    =    10.66 Bohr mag/cell

     iteration # 55     ecut=    60.00 Ry     beta= 0.50
     CG style diagonalization

---- Real-time Memory Report at c_bands before calling an iterative solver
           447 MiB given to the printing process from OS
           280 MiB allocation reported by mallinfo(arena+hblkhd)
        416944 MiB available memory on the node where the printing process lives
------------------
     ethr =  6.24E-09,  avg # of iterations =  3.0

     negative rho (up, down):  1.092E-03 1.105E-03

     total cpu time spent up to now is    18928.8 secs

     total energy              =   -5521.60629502 Ry
     estimated scf accuracy    <       0.00003444 Ry

     total magnetization       =     9.22 Bohr mag/cell
     absolute magnetization    =    10.66 Bohr mag/cell

     iteration # 56     ecut=    60.00 Ry     beta= 0.50
     CG style diagonalization

---- Real-time Memory Report at c_bands before calling an iterative solver
           447 MiB given to the printing process from OS
           280 MiB allocation reported by mallinfo(arena+hblkhd)
        416949 MiB available memory on the node where the printing process lives
------------------
     ethr =  6.24E-09,  avg # of iterations =  3.0

     negative rho (up, down):  7.889E-04 8.160E-04

     total cpu time spent up to now is    19206.2 secs

     total energy              =   -5521.60630374 Ry
     estimated scf accuracy    <       0.00000478 Ry

     total magnetization       =     9.22 Bohr mag/cell
     absolute magnetization    =    10.66 Bohr mag/cell

     iteration # 57     ecut=    60.00 Ry     beta= 0.50
     CG style diagonalization

---- Real-time Memory Report at c_bands before calling an iterative solver
           447 MiB given to the printing process from OS
           280 MiB allocation reported by mallinfo(arena+hblkhd)
        416952 MiB available memory on the node where the printing process lives
------------------
     ethr =  1.63E-09,  avg # of iterations =  3.0

     negative rho (up, down):  5.164E-04 5.573E-04

     total cpu time spent up to now is    19487.3 secs

     total energy              =   -5521.60630592 Ry
     estimated scf accuracy    <       0.00000249 Ry

     total magnetization       =     9.22 Bohr mag/cell
     absolute magnetization    =    10.65 Bohr mag/cell

     iteration # 58     ecut=    60.00 Ry     beta= 0.50
     CG style diagonalization

---- Real-time Memory Report at c_bands before calling an iterative solver
           447 MiB given to the printing process from OS
           280 MiB allocation reported by mallinfo(arena+hblkhd)
        416954 MiB available memory on the node where the printing process lives
------------------
     ethr =  8.51E-10,  avg # of iterations =  3.1

     negative rho (up, down):  4.115E-04 4.630E-04

     total cpu time spent up to now is    19776.8 secs

     total energy              =   -5521.60630893 Ry
     estimated scf accuracy    <       0.00000400 Ry

     total magnetization       =     9.22 Bohr mag/cell
     absolute magnetization    =    10.66 Bohr mag/cell

     iteration # 59     ecut=    60.00 Ry     beta= 0.50
     CG style diagonalization

---- Real-time Memory Report at c_bands before calling an iterative solver
           447 MiB given to the printing process from OS
           280 MiB allocation reported by mallinfo(arena+hblkhd)
        416960 MiB available memory on the node where the printing process lives
------------------
     ethr =  8.51E-10,  avg # of iterations =  3.0

     negative rho (up, down):  3.925E-04 4.485E-04

     total cpu time spent up to now is    20060.4 secs

     total energy              =   -5521.60630964 Ry
     estimated scf accuracy    <       0.00000276 Ry

     total magnetization       =     9.22 Bohr mag/cell
     absolute magnetization    =    10.66 Bohr mag/cell

     iteration # 60     ecut=    60.00 Ry     beta= 0.50
     CG style diagonalization

---- Real-time Memory Report at c_bands before calling an iterative solver
           447 MiB given to the printing process from OS
           280 MiB allocation reported by mallinfo(arena+hblkhd)
        416949 MiB available memory on the node where the printing process lives
------------------
     ethr =  8.51E-10,  avg # of iterations =  3.0

     negative rho (up, down):  3.272E-04 3.904E-04

     Magnetic moment per site  (integrated on atomic sphere of radius R)
     atom   1 (R=0.153)  charge= 15.1452  magn=  0.7525
     atom   2 (R=0.153)  charge= 15.1449  magn=  0.7602
     atom   3 (R=0.153)  charge= 15.1449  magn=  0.7602
     atom   4 (R=0.153)  charge= 15.1445  magn=  0.7674
     atom   5 (R=0.153)  charge= 15.1250  magn=  0.7200
     atom   6 (R=0.153)  charge= 15.1250  magn=  0.7200
     atom   7 (R=0.153)  charge= 15.1250  magn=  0.7200
     atom   8 (R=0.153)  charge= 15.1250  magn=  0.7200
     atom   9 (R=0.153)  charge= 15.1403  magn=  0.7044
     atom  10 (R=0.153)  charge= 15.1278  magn=  0.7085
     atom  11 (R=0.153)  charge= 15.1278  magn=  0.7085
     atom  12 (R=0.153)  charge= 15.1267  magn=  0.6030
     atom  13 (R=0.153)  charge= 15.1464  magn=  0.2324
     atom  14 (R=0.153)  charge= 15.1464  magn=  0.2324
     atom  15 (R=0.153)  charge= 15.1464  magn=  0.2324
     atom  16 (R=0.153)  charge= 15.1464  magn=  0.2324
     atom  17 (R=0.153)  charge=  3.8681  magn=  0.0198

     total cpu time spent up to now is    20340.0 secs

     End of self-consistent calculation

 ------ SPIN UP ------------


          k = 0.0000 0.0000 0.0000 ( 33665 PWs)   bands (ev):

  -102.1958-102.1847-102.1847-102.1748-102.0779-102.0698-102.0642-101.9833
  -101.8169-101.7953-101.7944-101.7781-101.6312-101.6208-101.6208-101.6104
   -62.6519 -62.6253 -62.6253 -62.6221 -62.5775 -62.5774 -62.5774 -62.5744
   -62.5106 -62.5035 -62.5035 -62.4942 -62.4861 -62.4787 -62.4781 -62.4633
   -62.4633 -62.4588 -62.4588 -62.4356 -62.3751 -62.3751 -62.3615 -62.3615
   -62.3509 -62.3228 -62.3228 -62.3071 -62.3010 -62.3010 -62.2933 -62.2933
   -62.1986 -62.1986 -62.1910 -62.1910 -62.0800 -62.0456 -62.0439 -62.0282
   -61.9695 -61.9079 -61.9079 -61.8552 -61.7810 -61.7671 -61.7671 -61.7565
   -13.9751  -6.5522  -4.7136  -4.4386  -4.4386  -3.5730  -2.9346  -2.8566
    -2.8566  -2.8403  -2.6759  -2.6338  -2.5573  -2.3673  -2.2695  -2.2226
    -2.2226  -2.1246  -2.0192  -1.9057  -1.7658  -1.5950  -1.5950  -1.3849
    -1.3849  -1.2393  -1.1366  -0.9756  -0.9756  -0.9277  -0.8952  -0.7894
    -0.7875  -0.7179  -0.7179  -0.5931  -0.5931  -0.5422  -0.5362  -0.5344
    -0.5151  -0.5151  -0.4791  -0.4225  -0.4225  -0.1888  -0.1888  -0.0882
    -0.0556  -0.0219   0.0116   0.0721   0.0721   0.1916   0.3547   0.3547
     0.3964   0.5201   0.5375   0.5676   0.5789   0.5789   0.6074   0.6323
     0.6550   0.6982   0.6982   0.7007   0.7549   0.7549   0.8412   0.8856
     0.8856   0.9009   0.9324   0.9615   1.0561   1.0561   1.0756   1.0860
     1.1227   1.1520   1.1794   1.3509   1.4601   1.9599   1.9599   2.1476
     2.2102   2.2102   2.3732   2.4644   2.5620   2.5620   2.5794   4.3834
     5.2421   5.2421   5.9116   5.9717   6.0623   6.1025   6.6135   6.9262
     6.9262   7.0037   7.5428   8.5650   8.6321   8.6321   8.8182   9.1266

     occupation numbers 
     1.0000   1.0000   1.0000   1.0000   1.0000   1.0000   1.0000   1.0000
     1.0000   1.0000   1.0000   1.0000   1.0000   1.0000   1.0000   1.0000
     1.0000   1.0000   1.0000   1.0000   1.0000   1.0000   1.0000   1.0000
     1.0000   1.0000   1.0000   1.0000   1.0000   1.0000   1.0000   1.0000
     1.0000   1.0000   1.0000   1.0000   1.0000   1.0000   1.0000   1.0000
     1.0000   1.0000   1.0000   1.0000   1.0000   1.0000   1.0000   1.0000
     1.0000   1.0000   1.0000   1.0000   1.0000   1.0000   1.0000   1.0000
     1.0000   1.0000   1.0000   1.0000   1.0000   1.0000   1.0000   1.0000
     1.0000   1.0000   1.0000   1.0000   1.0000   1.0000   1.0000   1.0000
     1.0000   1.0000   1.0000   1.0000   1.0000   1.0000   1.0000   1.0000
     1.0000   1.0000   1.0000   1.0000   1.0000   1.0000   1.0000   1.0000
     1.0000   1.0000   1.0000   1.0000   1.0000   1.0000   1.0000   1.0000
     1.0000   1.0000   1.0000   1.0000   1.0000   1.0000   1.0000   1.0000
     1.0000   1.0000   1.0000   1.0000   1.0000   1.0000   1.0000   1.0000
     1.0000   1.0000   1.0000   1.0000   1.0000   1.0000   1.0000   1.0000
     1.0000   1.0000   1.0000   1.0000   1.0000   1.0000   1.0000   1.0000
     1.0000   1.0000   1.0000   1.0000   1.0000   1.0000   1.0000   1.0000
     1.0000   1.0000   1.0000   1.0000   1.0000   1.0000   1.0000   1.0000
     1.0000   0.9999   0.9999   0.9964   0.9693   0.0014   0.0014   0.0000
     0.0000   0.0000   0.0000   0.0000   0.0000   0.0000   0.0000   0.0000
     0.0000   0.0000   0.0000   0.0000   0.0000   0.0000   0.0000   0.0000
     0.0000   0.0000   0.0000   0.0000   0.0000   0.0000   0.0000   0.0000

          k = 0.0000 0.1250 0.0000 ( 33695 PWs)   bands (ev):

  -102.1954-102.1852-102.1844-102.1752-102.0776-102.0698-102.0644-101.9834
  -101.8167-101.7953-101.7943-101.7784-101.6308-101.6212-101.6204-101.6108
   -62.6501 -62.6258 -62.6224 -62.6197 -62.5780 -62.5761 -62.5758 -62.5753
   -62.5121 -62.5065 -62.5031 -62.4973 -62.4881 -62.4782 -62.4777 -62.4629
   -62.4600 -62.4581 -62.4562 -62.4337 -62.3784 -62.3735 -62.3657 -62.3610
   -62.3493 -62.3253 -62.3233 -62.3085 -62.3007 -62.2974 -62.2936 -62.2897
   -62.2024 -62.1983 -62.1948 -62.1913 -62.0799 -62.0455 -62.0439 -62.0284
   -61.9673 -61.9103 -61.9061 -61.8573 -61.7805 -61.7677 -61.7668 -61.7569
   -13.9704  -6.4612  -4.7352  -4.4001  -4.3967  -3.5703  -3.0546  -2.8617
    -2.7951  -2.7935  -2.6431  -2.5849  -2.5264  -2.3159  -2.2395  -2.2063
    -2.1982  -2.1096  -1.9894  -1.8702  -1.7421  -1.6100  -1.5867  -1.4010
    -1.3775  -1.2229  -1.1764  -1.0355  -1.0143  -0.8952  -0.8705  -0.8110
    -0.7870  -0.7639  -0.7626  -0.6492  -0.5870  -0.5795  -0.5759  -0.5229
    -0.5228  -0.5060  -0.4434  -0.4171  -0.4128  -0.2149  -0.1967  -0.1963
    -0.0333  -0.0257   0.0363   0.0503   0.1586   0.2513   0.2609   0.3284
     0.3741   0.4103   0.4438   0.4885   0.5181   0.5477   0.5907   0.5925
     0.6141   0.7034   0.7079   0.7393   0.7546   0.8208   0.8260   0.8390
     0.8686   0.8831   0.9108   0.9375   1.0041   1.0200   1.0462   1.0673
     1.0899   1.1377   1.1432   1.2690   1.3531   1.5645   1.6517   1.9602
     2.0403   2.4783   2.4832   2.6390   2.6505   2.8299   3.5955   4.4844
     5.0679   5.0809   5.9596   6.0677   6.1600   6.2001   6.4976   6.7648
     6.8677   7.1682   7.6311   8.4339   8.4655   8.6627   8.7808   8.9481

     occupation numbers 
     1.0000   1.0000   1.0000   1.0000   1.0000   1.0000   1.0000   1.0000
     1.0000   1.0000   1.0000   1.0000   1.0000   1.0000   1.0000   1.0000
     1.0000   1.0000   1.0000   1.0000   1.0000   1.0000   1.0000   1.0000
     1.0000   1.0000   1.0000   1.0000   1.0000   1.0000   1.0000   1.0000
     1.0000   1.0000   1.0000   1.0000   1.0000   1.0000   1.0000   1.0000
     1.0000   1.0000   1.0000   1.0000   1.0000   1.0000   1.0000   1.0000
     1.0000   1.0000   1.0000   1.0000   1.0000   1.0000   1.0000   1.0000
     1.0000   1.0000   1.0000   1.0000   1.0000   1.0000   1.0000   1.0000
     1.0000   1.0000   1.0000   1.0000   1.0000   1.0000   1.0000   1.0000
     1.0000   1.0000   1.0000   1.0000   1.0000   1.0000   1.0000   1.0000
     1.0000   1.0000   1.0000   1.0000   1.0000   1.0000   1.0000   1.0000
     1.0000   1.0000   1.0000   1.0000   1.0000   1.0000   1.0000   1.0000
     1.0000   1.0000   1.0000   1.0000   1.0000   1.0000   1.0000   1.0000
     1.0000   1.0000   1.0000   1.0000   1.0000   1.0000   1.0000   1.0000
     1.0000   1.0000   1.0000   1.0000   1.0000   1.0000   1.0000   1.0000
     1.0000   1.0000   1.0000   1.0000   1.0000   1.0000   1.0000   1.0000
     1.0000   1.0000   1.0000   1.0000   1.0000   1.0000   1.0000   1.0000
     1.0000   1.0000   1.0000   1.0000   1.0000   1.0000   1.0000   1.0000
     1.0000   0.9999   0.9999   0.9993   0.9963   0.7965   0.4063   0.0014
     0.0003   0.0000   0.0000   0.0000   0.0000   0.0000   0.0000   0.0000
     0.0000   0.0000   0.0000   0.0000   0.0000   0.0000   0.0000   0.0000
     0.0000   0.0000   0.0000   0.0000   0.0000   0.0000   0.0000   0.0000

          k = 0.0000 0.2500 0.0000 ( 33669 PWs)   bands (ev):

  -102.1942-102.1864-102.1833-102.1763-102.0769-102.0698-102.0650-101.9835
  -101.8163-101.7955-101.7940-101.7789-101.6297-101.6223-101.6193-101.6119
   -62.6458 -62.6274 -62.6147 -62.6125 -62.5797 -62.5796 -62.5722 -62.5689
   -62.5218 -62.5083 -62.5080 -62.5014 -62.4910 -62.4780 -62.4764 -62.4621
   -62.4567 -62.4510 -62.4489 -62.4282 -62.3870 -62.3763 -62.3698 -62.3587
   -62.3467 -62.3319 -62.3255 -62.3117 -62.3000 -62.2942 -62.2872 -62.2794
   -62.2130 -62.2054 -62.1976 -62.1920 -62.0797 -62.0453 -62.0440 -62.0286
   -61.9611 -61.9173 -61.9008 -61.8633 -61.7791 -61.7693 -61.7657 -61.7582
   -13.9591  -6.1956  -4.8227  -4.3018  -4.2470  -3.7103  -3.3117  -2.7960
    -2.6713  -2.6277  -2.5455  -2.4662  -2.4384  -2.1903  -2.1540  -2.1450
    -2.1342  -2.0936  -1.9310  -1.7710  -1.6843  -1.6695  -1.5631  -1.4278
    -1.3559  -1.3196  -1.1828  -1.1655  -1.1041  -0.9361  -0.8750  -0.8266
    -0.8082  -0.7978  -0.7757  -0.7123  -0.6468  -0.6079  -0.5582  -0.5440
    -0.4830  -0.4719  -0.4599  -0.4356  -0.4107  -0.3830  -0.1911  -0.1808
    -0.0354   0.0041   0.0101   0.0226   0.0455   0.1335   0.1565   0.2297
     0.2623   0.3380   0.3765   0.3814   0.4417   0.4445   0.4997   0.5206
     0.5505   0.5888   0.6407   0.6889   0.7297   0.7423   0.7574   0.8003
     0.8159   0.8307   0.8443   0.8641   0.9479   0.9482   0.9749   1.0006
     1.0542   1.0599   1.1173   1.1175   1.1946   1.2814   1.5227   1.8114
     2.1664   2.7794   2.8706   2.9902   3.0418   3.1161   4.4797   4.6636
     4.7010   4.9254   5.8129   6.3229   6.3427   6.3746   6.4660   6.5688
     7.1397   7.4735   7.8234   7.8937   8.0893   8.4841   8.9457   9.0095

     occupation numbers 
     1.0000   1.0000   1.0000   1.0000   1.0000   1.0000   1.0000   1.0000
     1.0000   1.0000   1.0000   1.0000   1.0000   1.0000   1.0000   1.0000
     1.0000   1.0000   1.0000   1.0000   1.0000   1.0000   1.0000   1.0000
     1.0000   1.0000   1.0000   1.0000   1.0000   1.0000   1.0000   1.0000
     1.0000   1.0000   1.0000   1.0000   1.0000   1.0000   1.0000   1.0000
     1.0000   1.0000   1.0000   1.0000   1.0000   1.0000   1.0000   1.0000
     1.0000   1.0000   1.0000   1.0000   1.0000   1.0000   1.0000   1.0000
     1.0000   1.0000   1.0000   1.0000   1.0000   1.0000   1.0000   1.0000
     1.0000   1.0000   1.0000   1.0000   1.0000   1.0000   1.0000   1.0000
     1.0000   1.0000   1.0000   1.0000   1.0000   1.0000   1.0000   1.0000
     1.0000   1.0000   1.0000   1.0000   1.0000   1.0000   1.0000   1.0000
     1.0000   1.0000   1.0000   1.0000   1.0000   1.0000   1.0000   1.0000
     1.0000   1.0000   1.0000   1.0000   1.0000   1.0000   1.0000   1.0000
     1.0000   1.0000   1.0000   1.0000   1.0000   1.0000   1.0000   1.0000
     1.0000   1.0000   1.0000   1.0000   1.0000   1.0000   1.0000   1.0000
     1.0000   1.0000   1.0000   1.0000   1.0000   1.0000   1.0000   1.0000
     1.0000   1.0000   1.0000   1.0000   1.0000   1.0000   1.0000   1.0000
     1.0000   1.0000   1.0000   1.0000   1.0000   1.0000   1.0000   1.0000
     1.0000   1.0000   1.0000   1.0000   0.9998   0.9991   0.9003   0.0273
     0.0000   0.0000   0.0000   0.0000   0.0000   0.0000   0.0000   0.0000
     0.0000   0.0000   0.0000   0.0000   0.0000   0.0000   0.0000   0.0000
     0.0000   0.0000   0.0000   0.0000   0.0000   0.0000   0.0000   0.0000

          k = 0.0000 0.3750 0.0000 ( 33614 PWs)   bands (ev):

  -102.1924-102.1882-102.1817-102.1779-102.0761-102.0699-102.0656-101.9836
  -101.8159-101.7959-101.7935-101.7795-101.6281-101.6240-101.6177-101.6136
   -62.6408 -62.6301 -62.6048 -62.6024 -62.5858 -62.5830 -62.5652 -62.5578
   -62.5368 -62.5241 -62.5077 -62.4993 -62.4938 -62.4776 -62.4755 -62.4615
   -62.4555 -62.4419 -62.4363 -62.4197 -62.3993 -62.3904 -62.3671 -62.3533
   -62.3448 -62.3393 -62.3304 -62.3144 -62.2990 -62.2950 -62.2724 -62.2645
   -62.2282 -62.2205 -62.1966 -62.1930 -62.0795 -62.0452 -62.0439 -62.0289
   -61.9516 -61.9274 -61.8929 -61.8720 -61.7770 -61.7717 -61.7641 -61.7600
   -13.9477  -5.7856  -4.9500  -4.3441  -4.1948  -3.8641  -3.3057  -2.8994
    -2.4393  -2.4126  -2.3905  -2.3163  -2.3122  -2.1540  -2.1123  -2.0645
    -2.0050  -1.9892  -1.9303  -1.8310  -1.6450  -1.6370  -1.5230  -1.4551
    -1.4030  -1.3704  -1.3452  -1.1933  -1.1064  -0.9634  -0.9586  -0.9432
    -0.8355  -0.7845  -0.7282  -0.7209  -0.7087  -0.6532  -0.5751  -0.5466
    -0.5109  -0.4828  -0.4737  -0.4496  -0.3782  -0.2921  -0.2728  -0.2065
    -0.1560  -0.1306  -0.1137  -0.0211   0.0216   0.0255   0.0747   0.1799
     0.1818   0.2387   0.2770   0.2924   0.3141   0.3351   0.3700   0.4192
     0.4545   0.4909   0.5107   0.5527   0.5888   0.6760   0.7009   0.7318
     0.7923   0.7956   0.8165   0.8227   0.9039   0.9195   0.9618   0.9816
     1.0337   1.0370   1.0511   1.1019   1.1216   1.3181   1.5253   1.9340
     2.2572   2.7862   3.2091   3.2180   3.4693   3.8437   4.1790   4.2409
     4.6946   5.2615   5.6444   5.9270   6.6997   6.8248   6.9064   7.0093
     7.2393   7.3588   7.6927   7.9159   8.1650   8.3517   8.4227   9.2454

     occupation numbers 
     1.0000   1.0000   1.0000   1.0000   1.0000   1.0000   1.0000   1.0000
     1.0000   1.0000   1.0000   1.0000   1.0000   1.0000   1.0000   1.0000
     1.0000   1.0000   1.0000   1.0000   1.0000   1.0000   1.0000   1.0000
     1.0000   1.0000   1.0000   1.0000   1.0000   1.0000   1.0000   1.0000
     1.0000   1.0000   1.0000   1.0000   1.0000   1.0000   1.0000   1.0000
     1.0000   1.0000   1.0000   1.0000   1.0000   1.0000   1.0000   1.0000
     1.0000   1.0000   1.0000   1.0000   1.0000   1.0000   1.0000   1.0000
     1.0000   1.0000   1.0000   1.0000   1.0000   1.0000   1.0000   1.0000
     1.0000   1.0000   1.0000   1.0000   1.0000   1.0000   1.0000   1.0000
     1.0000   1.0000   1.0000   1.0000   1.0000   1.0000   1.0000   1.0000
     1.0000   1.0000   1.0000   1.0000   1.0000   1.0000   1.0000   1.0000
     1.0000   1.0000   1.0000   1.0000   1.0000   1.0000   1.0000   1.0000
     1.0000   1.0000   1.0000   1.0000   1.0000   1.0000   1.0000   1.0000
     1.0000   1.0000   1.0000   1.0000   1.0000   1.0000   1.0000   1.0000
     1.0000   1.0000   1.0000   1.0000   1.0000   1.0000   1.0000   1.0000
     1.0000   1.0000   1.0000   1.0000   1.0000   1.0000   1.0000   1.0000
     1.0000   1.0000   1.0000   1.0000   1.0000   1.0000   1.0000   1.0000
     1.0000   1.0000   1.0000   1.0000   1.0000   1.0000   1.0000   1.0000
     1.0000   1.0000   1.0000   1.0000   1.0000   0.9982   0.8956   0.0024
     0.0000   0.0000   0.0000   0.0000   0.0000   0.0000   0.0000   0.0000
     0.0000   0.0000   0.0000   0.0000   0.0000   0.0000   0.0000   0.0000
     0.0000   0.0000   0.0000   0.0000   0.0000   0.0000   0.0000   0.0000

          k = 0.0000-0.5000 0.0000 ( 33596 PWs)   bands (ev):

  -102.1904-102.1902-102.1798-102.1798-102.0758-102.0699-102.0659-101.9836
  -101.8157-101.7961-101.7932-101.7798-101.6265-101.6255-101.6162-101.6151
   -62.6377 -62.6324 -62.5972 -62.5952 -62.5919 -62.5870 -62.5571 -62.5485
   -62.5448 -62.5391 -62.5075 -62.4972 -62.4960 -62.4774 -62.4753 -62.4612
   -62.4551 -62.4381 -62.4253 -62.4112 -62.4102 -62.4006 -62.3664 -62.3487
   -62.3436 -62.3431 -62.3346 -62.3152 -62.2985 -62.2955 -62.2615 -62.2533
   -62.2394 -62.2317 -62.1959 -62.1937 -62.0795 -62.0451 -62.0439 -62.0290
   -61.9425 -61.9368 -61.8853 -61.8799 -61.7751 -61.7737 -61.7626 -61.7616
   -13.9429  -5.4181  -5.1304  -4.6096  -4.1473  -3.7504  -3.2410  -3.0271
    -2.2945  -2.2794  -2.2661  -2.2650  -2.2165  -2.1479  -2.1405  -2.0867
    -2.0196  -1.9536  -1.8900  -1.7566  -1.7375  -1.6922  -1.5366  -1.5345
    -1.3606  -1.2272  -1.2254  -1.1932  -1.1677  -1.1411  -1.0529  -1.0236
    -0.9402  -0.7329  -0.7083  -0.6373  -0.6338  -0.6231  -0.6093  -0.6037
    -0.5784  -0.5776  -0.4731  -0.4576  -0.2842  -0.2776  -0.2770  -0.2612
    -0.2585  -0.0757  -0.0252  -0.0216   0.0136   0.0172   0.0333   0.0543
     0.0697   0.1431   0.1741   0.1840   0.2754   0.2801   0.4085   0.4167
     0.4296   0.4318   0.4636   0.5226   0.5273   0.5784   0.5801   0.7203
     0.7689   0.7963   0.8184   0.8724   0.9246   0.9625   0.9768   0.9806
     1.0126   1.0467   1.0701   1.0797   1.0997   1.2023   1.7161   1.9366
     2.2899   2.6564   3.5102   3.5847   3.7187   3.8186   3.8769   4.3280
     4.6192   4.9752   5.5385   6.4012   6.5021   6.6590   7.2065   7.3456
     7.4492   7.4904   7.5283   7.6389   7.9976   8.3861   8.4666   8.7515

     occupation numbers 
     1.0000   1.0000   1.0000   1.0000   1.0000   1.0000   1.0000   1.0000
     1.0000   1.0000   1.0000   1.0000   1.0000   1.0000   1.0000   1.0000
     1.0000   1.0000   1.0000   1.0000   1.0000   1.0000   1.0000   1.0000
     1.0000   1.0000   1.0000   1.0000   1.0000   1.0000   1.0000   1.0000
     1.0000   1.0000   1.0000   1.0000   1.0000   1.0000   1.0000   1.0000
     1.0000   1.0000   1.0000   1.0000   1.0000   1.0000   1.0000   1.0000
     1.0000   1.0000   1.0000   1.0000   1.0000   1.0000   1.0000   1.0000
     1.0000   1.0000   1.0000   1.0000   1.0000   1.0000   1.0000   1.0000
     1.0000   1.0000   1.0000   1.0000   1.0000   1.0000   1.0000   1.0000
     1.0000   1.0000   1.0000   1.0000   1.0000   1.0000   1.0000   1.0000
     1.0000   1.0000   1.0000   1.0000   1.0000   1.0000   1.0000   1.0000
     1.0000   1.0000   1.0000   1.0000   1.0000   1.0000   1.0000   1.0000
     1.0000   1.0000   1.0000   1.0000   1.0000   1.0000   1.0000   1.0000
     1.0000   1.0000   1.0000   1.0000   1.0000   1.0000   1.0000   1.0000
     1.0000   1.0000   1.0000   1.0000   1.0000   1.0000   1.0000   1.0000
     1.0000   1.0000   1.0000   1.0000   1.0000   1.0000   1.0000   1.0000
     1.0000   1.0000   1.0000   1.0000   1.0000   1.0000   1.0000   1.0000
     1.0000   1.0000   1.0000   1.0000   1.0000   1.0000   1.0000   1.0000
     1.0000   1.0000   1.0000   1.0000   1.0000   0.9998   0.1587   0.0023
     0.0000   0.0000   0.0000   0.0000   0.0000   0.0000   0.0000   0.0000
     0.0000   0.0000   0.0000   0.0000   0.0000   0.0000   0.0000   0.0000
     0.0000   0.0000   0.0000   0.0000   0.0000   0.0000   0.0000   0.0000

          k = 0.1250 0.1250 0.0000 ( 33677 PWs)   bands (ev):

  -102.1950-102.1848-102.1848-102.1756-102.0773-102.0698-102.0647-101.9834
  -101.8166-101.7952-101.7944-101.7786-101.6304-101.6208-101.6208-101.6112
   -62.6483 -62.6231 -62.6228 -62.6173 -62.5771 -62.5763 -62.5756 -62.5745
   -62.5130 -62.5068 -62.5056 -62.4995 -62.4909 -62.4779 -62.4772 -62.4597
   -62.4595 -62.4557 -62.4554 -62.4318 -62.3772 -62.3765 -62.3660 -62.3642
   -62.3477 -62.3268 -62.3248 -62.3099 -62.2971 -62.2971 -62.2899 -62.2899
   -62.2022 -62.2020 -62.1951 -62.1951 -62.0798 -62.0454 -62.0440 -62.0285
   -61.9652 -61.9086 -61.9084 -61.8594 -61.7800 -61.7674 -61.7673 -61.7574
   -13.9660  -6.3705  -4.7281  -4.4344  -4.3036  -3.5561  -3.0535  -2.9435
    -2.7890  -2.7412  -2.6232  -2.5456  -2.4891  -2.2626  -2.2098  -2.1844
    -2.1764  -2.0829  -1.9733  -1.8378  -1.7194  -1.6161  -1.5714  -1.4019
    -1.3713  -1.2134  -1.2075  -1.1693  -0.9355  -0.8938  -0.8482  -0.8378
    -0.8160  -0.8160  -0.7437  -0.6850  -0.6513  -0.6007  -0.5653  -0.5466
    -0.5212  -0.4603  -0.4509  -0.4319  -0.3915  -0.3060  -0.2118  -0.1966
    -0.0321   0.0188   0.0502   0.0590   0.0849   0.2098   0.2232   0.2711
     0.3710   0.3719   0.3922   0.4347   0.4717   0.4894   0.5455   0.5753
     0.6581   0.6958   0.7299   0.7364   0.7838   0.7930   0.8015   0.8293
     0.8429   0.8712   0.8785   0.8985   0.9029   0.9855   1.0323   1.0617
     1.0823   1.1059   1.1971   1.2700   1.2999   1.4503   1.6644   1.6820
     1.8293   2.2465   2.3111   2.7916   3.1639   3.6246   3.7695   4.2482
     4.6542   5.6757   5.7647   6.1638   6.2687   6.2761   6.3580   6.8253
     7.1321   7.1897   7.6386   7.8488   8.4680   8.7163   9.0906   9.2731

     occupation numbers 
     1.0000   1.0000   1.0000   1.0000   1.0000   1.0000   1.0000   1.0000
     1.0000   1.0000   1.0000   1.0000   1.0000   1.0000   1.0000   1.0000
     1.0000   1.0000   1.0000   1.0000   1.0000   1.0000   1.0000   1.0000
     1.0000   1.0000   1.0000   1.0000   1.0000   1.0000   1.0000   1.0000
     1.0000   1.0000   1.0000   1.0000   1.0000   1.0000   1.0000   1.0000
     1.0000   1.0000   1.0000   1.0000   1.0000   1.0000   1.0000   1.0000
     1.0000   1.0000   1.0000   1.0000   1.0000   1.0000   1.0000   1.0000
     1.0000   1.0000   1.0000   1.0000   1.0000   1.0000   1.0000   1.0000
     1.0000   1.0000   1.0000   1.0000   1.0000   1.0000   1.0000   1.0000
     1.0000   1.0000   1.0000   1.0000   1.0000   1.0000   1.0000   1.0000
     1.0000   1.0000   1.0000   1.0000   1.0000   1.0000   1.0000   1.0000
     1.0000   1.0000   1.0000   1.0000   1.0000   1.0000   1.0000   1.0000
     1.0000   1.0000   1.0000   1.0000   1.0000   1.0000   1.0000   1.0000
     1.0000   1.0000   1.0000   1.0000   1.0000   1.0000   1.0000   1.0000
     1.0000   1.0000   1.0000   1.0000   1.0000   1.0000   1.0000   1.0000
     1.0000   1.0000   1.0000   1.0000   1.0000   1.0000   1.0000   1.0000
     1.0000   1.0000   1.0000   1.0000   1.0000   1.0000   1.0000   1.0000
     1.0000   1.0000   1.0000   1.0000   1.0000   1.0000   1.0000   1.0000
     1.0000   1.0000   0.9998   0.9993   0.9987   0.9746   0.3468   0.2717
     0.0192   0.0000   0.0000   0.0000   0.0000   0.0000   0.0000   0.0000
     0.0000   0.0000   0.0000   0.0000   0.0000   0.0000   0.0000   0.0000
     0.0000   0.0000   0.0000   0.0000   0.0000   0.0000   0.0000   0.0000

          k = 0.1250 0.2500 0.0000 ( 33628 PWs)   bands (ev):

  -102.1938-102.1860-102.1837-102.1767-102.0766-102.0698-102.0653-101.9835
  -101.8162-101.7953-101.7941-101.7791-101.6293-101.6219-101.6197-101.6123
   -62.6437 -62.6246 -62.6153 -62.6103 -62.5808 -62.5776 -62.5712 -62.5692
   -62.5214 -62.5094 -62.5087 -62.5045 -62.4948 -62.4776 -62.4760 -62.4588
   -62.4543 -62.4505 -62.4486 -62.4263 -62.3856 -62.3758 -62.3732 -62.3627
   -62.3450 -62.3331 -62.3270 -62.3134 -62.2964 -62.2905 -62.2869 -62.2796
   -62.2128 -62.2056 -62.2014 -62.1958 -62.0797 -62.0452 -62.0440 -62.0287
   -61.9589 -61.9154 -61.9032 -61.8655 -61.7786 -61.7690 -61.7663 -61.7587
   -13.9551  -6.1058  -4.7710  -4.3737  -4.1459  -3.6499  -3.2969  -2.8583
    -2.6983  -2.6105  -2.5545  -2.4523  -2.3790  -2.1469  -2.1277  -2.1122
    -2.1032  -2.0474  -1.9362  -1.7508  -1.6519  -1.6447  -1.5427  -1.4111
    -1.3561  -1.3458  -1.2874  -1.1702  -1.0256  -0.9561  -0.9149  -0.8776
    -0.8495  -0.7706  -0.7662  -0.7053  -0.6470  -0.6461  -0.5828  -0.5534
    -0.5138  -0.4761  -0.4666  -0.4470  -0.4088  -0.3926  -0.2167  -0.1894
    -0.0737  -0.0183  -0.0103   0.0033   0.0345   0.0923   0.1331   0.1864
     0.2499   0.2730   0.3217   0.3759   0.4374   0.4554   0.5030   0.5146
     0.5713   0.5959   0.6364   0.6753   0.6952   0.7468   0.7563   0.7789
     0.7875   0.8175   0.8330   0.8785   0.9020   0.9377   0.9491   1.0024
     1.0243   1.0745   1.0787   1.0870   1.1618   1.3430   1.5253   1.7218
     1.8741   2.1046   2.8079   3.1144   3.3618   3.6542   3.9937   4.6964
     4.8089   5.4733   5.8323   6.3319   6.4518   6.5017   6.5893   6.7026
     7.2764   7.3317   7.6224   8.0382   8.4278   8.7307   8.9324   9.0766

     occupation numbers 
     1.0000   1.0000   1.0000   1.0000   1.0000   1.0000   1.0000   1.0000
     1.0000   1.0000   1.0000   1.0000   1.0000   1.0000   1.0000   1.0000
     1.0000   1.0000   1.0000   1.0000   1.0000   1.0000   1.0000   1.0000
     1.0000   1.0000   1.0000   1.0000   1.0000   1.0000   1.0000   1.0000
     1.0000   1.0000   1.0000   1.0000   1.0000   1.0000   1.0000   1.0000
     1.0000   1.0000   1.0000   1.0000   1.0000   1.0000   1.0000   1.0000
     1.0000   1.0000   1.0000   1.0000   1.0000   1.0000   1.0000   1.0000
     1.0000   1.0000   1.0000   1.0000   1.0000   1.0000   1.0000   1.0000
     1.0000   1.0000   1.0000   1.0000   1.0000   1.0000   1.0000   1.0000
     1.0000   1.0000   1.0000   1.0000   1.0000   1.0000   1.0000   1.0000
     1.0000   1.0000   1.0000   1.0000   1.0000   1.0000   1.0000   1.0000
     1.0000   1.0000   1.0000   1.0000   1.0000   1.0000   1.0000   1.0000
     1.0000   1.0000   1.0000   1.0000   1.0000   1.0000   1.0000   1.0000
     1.0000   1.0000   1.0000   1.0000   1.0000   1.0000   1.0000   1.0000
     1.0000   1.0000   1.0000   1.0000   1.0000   1.0000   1.0000   1.0000
     1.0000   1.0000   1.0000   1.0000   1.0000   1.0000   1.0000   1.0000
     1.0000   1.0000   1.0000   1.0000   1.0000   1.0000   1.0000   1.0000
     1.0000   1.0000   1.0000   1.0000   1.0000   1.0000   1.0000   1.0000
     1.0000   1.0000   1.0000   1.0000   0.9999   0.9970   0.8955   0.1442
     0.0079   0.0001   0.0000   0.0000   0.0000   0.0000   0.0000   0.0000
     0.0000   0.0000   0.0000   0.0000   0.0000   0.0000   0.0000   0.0000
     0.0000   0.0000   0.0000   0.0000   0.0000   0.0000   0.0000   0.0000

          k = 0.1250 0.3750 0.0000 ( 33622 PWs)   bands (ev):

  -102.1920-102.1878-102.1821-102.1783-102.0758-102.0698-102.0659-101.9836
  -101.8158-101.7957-101.7936-101.7797-101.6277-101.6236-101.6181-101.6140
   -62.6384 -62.6273 -62.6055 -62.6002 -62.5868 -62.5811 -62.5642 -62.5582
   -62.5362 -62.5248 -62.5086 -62.5028 -62.4976 -62.4770 -62.4753 -62.4582
   -62.4533 -62.4415 -62.4359 -62.4181 -62.3984 -62.3892 -62.3708 -62.3578
   -62.3426 -62.3407 -62.3312 -62.3164 -62.2954 -62.2914 -62.2722 -62.2647
   -62.2279 -62.2208 -62.2003 -62.1968 -62.0795 -62.0451 -62.0440 -62.0290
   -61.9495 -61.9255 -61.8952 -61.8743 -61.7766 -61.7713 -61.7647 -61.7605
   -13.9442  -5.6975  -4.8781  -4.3107  -4.2020  -3.7955  -3.2774  -2.8779
    -2.5918  -2.4707  -2.3614  -2.3157  -2.2109  -2.1145  -2.0721  -2.0382
    -1.9660  -1.9545  -1.9136  -1.7715  -1.6518  -1.5998  -1.5351  -1.4503
    -1.4223  -1.3764  -1.3127  -1.1594  -1.1235  -1.0273  -0.9918  -0.9774
    -0.8809  -0.8103  -0.7818  -0.7000  -0.6747  -0.6516  -0.5958  -0.5558
    -0.5315  -0.5253  -0.4989  -0.4584  -0.3871  -0.2916  -0.2806  -0.2209
    -0.1627  -0.1412  -0.1036  -0.0544  -0.0233   0.0403   0.0596   0.1435
     0.1910   0.2356   0.2703   0.2859   0.3167   0.3311   0.3422   0.4038
     0.4648   0.4712   0.5003   0.5673   0.6146   0.6361   0.6669   0.6978
     0.7160   0.7495   0.8153   0.8592   0.8958   0.9228   0.9293   0.9821
     0.9974   1.0120   1.0278   1.0709   1.0921   1.3698   1.5603   1.8543
     2.0132   2.2039   2.9749   3.2105   3.4492   3.6644   4.4116   4.6607
     5.0080   5.4758   5.6490   6.0675   6.7982   6.9067   7.0408   7.0889
     7.2926   7.6938   7.8908   7.9624   8.3127   8.3849   8.4606   8.6717

     occupation numbers 
     1.0000   1.0000   1.0000   1.0000   1.0000   1.0000   1.0000   1.0000
     1.0000   1.0000   1.0000   1.0000   1.0000   1.0000   1.0000   1.0000
     1.0000   1.0000   1.0000   1.0000   1.0000   1.0000   1.0000   1.0000
     1.0000   1.0000   1.0000   1.0000   1.0000   1.0000   1.0000   1.0000
     1.0000   1.0000   1.0000   1.0000   1.0000   1.0000   1.0000   1.0000
     1.0000   1.0000   1.0000   1.0000   1.0000   1.0000   1.0000   1.0000
     1.0000   1.0000   1.0000   1.0000   1.0000   1.0000   1.0000   1.0000
     1.0000   1.0000   1.0000   1.0000   1.0000   1.0000   1.0000   1.0000
     1.0000   1.0000   1.0000   1.0000   1.0000   1.0000   1.0000   1.0000
     1.0000   1.0000   1.0000   1.0000   1.0000   1.0000   1.0000   1.0000
     1.0000   1.0000   1.0000   1.0000   1.0000   1.0000   1.0000   1.0000
     1.0000   1.0000   1.0000   1.0000   1.0000   1.0000   1.0000   1.0000
     1.0000   1.0000   1.0000   1.0000   1.0000   1.0000   1.0000   1.0000
     1.0000   1.0000   1.0000   1.0000   1.0000   1.0000   1.0000   1.0000
     1.0000   1.0000   1.0000   1.0000   1.0000   1.0000   1.0000   1.0000
     1.0000   1.0000   1.0000   1.0000   1.0000   1.0000   1.0000   1.0000
     1.0000   1.0000   1.0000   1.0000   1.0000   1.0000   1.0000   1.0000
     1.0000   1.0000   1.0000   1.0000   1.0000   1.0000   1.0000   1.0000
     1.0000   1.0000   1.0000   1.0000   1.0000   0.9948   0.8096   0.0118
     0.0005   0.0000   0.0000   0.0000   0.0000   0.0000   0.0000   0.0000
     0.0000   0.0000   0.0000   0.0000   0.0000   0.0000   0.0000   0.0000
     0.0000   0.0000   0.0000   0.0000   0.0000   0.0000   0.0000   0.0000

          k = 0.1250-0.5000 0.0000 ( 33600 PWs)   bands (ev):

  -102.1900-102.1898-102.1802-102.1802-102.0754-102.0699-102.0662-101.9837
  -101.8156-101.7958-101.7934-101.7800-101.6261-101.6251-101.6166-101.6155
   -62.6352 -62.6296 -62.5979 -62.5929 -62.5927 -62.5853 -62.5562 -62.5478
   -62.5451 -62.5398 -62.5083 -62.5006 -62.5001 -62.4767 -62.4751 -62.4580
   -62.4529 -62.4377 -62.4245 -62.4110 -62.4093 -62.3986 -62.3701 -62.3538
   -62.3448 -62.3408 -62.3349 -62.3174 -62.2949 -62.2919 -62.2612 -62.2536
   -62.2391 -62.2320 -62.1997 -62.1975 -62.0794 -62.0450 -62.0439 -62.0291
   -61.9405 -61.9348 -61.8876 -61.8822 -61.7747 -61.7733 -61.7631 -61.7621
   -13.9397  -5.3313  -5.0508  -4.5406  -4.1833  -3.6959  -3.1842  -3.0088
    -2.5086  -2.4140  -2.2010  -2.1976  -2.1631  -2.1202  -2.0598  -1.9983
    -1.9843  -1.9294  -1.8439  -1.7417  -1.7246  -1.6813  -1.5487  -1.5324
    -1.3363  -1.2279  -1.2087  -1.1792  -1.1789  -1.1253  -1.0918  -1.0784
    -0.9917  -0.7878  -0.7529  -0.6955  -0.6906  -0.6236  -0.6124  -0.5928
    -0.5744  -0.5394  -0.4993  -0.4826  -0.3320  -0.2702  -0.2685  -0.2597
    -0.2107  -0.1191  -0.0352  -0.0309  -0.0033   0.0018   0.0468   0.0550
     0.1040   0.1112   0.1358   0.2225   0.2335   0.2713   0.3421   0.3734
     0.4453   0.4478   0.5058   0.5198   0.5393   0.5716   0.5826   0.6435
     0.6720   0.7383   0.8278   0.8599   0.9016   0.9425   0.9566   0.9585
     1.0010   1.0229   1.0331   1.0532   1.1405   1.2583   1.7509   1.8032
     2.0066   2.5409   2.6571   3.0872   3.6451   4.2310   4.3363   4.5144
     4.9974   5.1588   5.6901   6.4681   6.5873   7.0534   7.1554   7.4241
     7.5812   7.6230   7.7222   7.8909   7.9272   8.4760   8.5063   8.8446

     occupation numbers 
     1.0000   1.0000   1.0000   1.0000   1.0000   1.0000   1.0000   1.0000
     1.0000   1.0000   1.0000   1.0000   1.0000   1.0000   1.0000   1.0000
     1.0000   1.0000   1.0000   1.0000   1.0000   1.0000   1.0000   1.0000
     1.0000   1.0000   1.0000   1.0000   1.0000   1.0000   1.0000   1.0000
     1.0000   1.0000   1.0000   1.0000   1.0000   1.0000   1.0000   1.0000
     1.0000   1.0000   1.0000   1.0000   1.0000   1.0000   1.0000   1.0000
     1.0000   1.0000   1.0000   1.0000   1.0000   1.0000   1.0000   1.0000
     1.0000   1.0000   1.0000   1.0000   1.0000   1.0000   1.0000   1.0000
     1.0000   1.0000   1.0000   1.0000   1.0000   1.0000   1.0000   1.0000
     1.0000   1.0000   1.0000   1.0000   1.0000   1.0000   1.0000   1.0000
     1.0000   1.0000   1.0000   1.0000   1.0000   1.0000   1.0000   1.0000
     1.0000   1.0000   1.0000   1.0000   1.0000   1.0000   1.0000   1.0000
     1.0000   1.0000   1.0000   1.0000   1.0000   1.0000   1.0000   1.0000
     1.0000   1.0000   1.0000   1.0000   1.0000   1.0000   1.0000   1.0000
     1.0000   1.0000   1.0000   1.0000   1.0000   1.0000   1.0000   1.0000
     1.0000   1.0000   1.0000   1.0000   1.0000   1.0000   1.0000   1.0000
     1.0000   1.0000   1.0000   1.0000   1.0000   1.0000   1.0000   1.0000
     1.0000   1.0000   1.0000   1.0000   1.0000   1.0000   1.0000   1.0000
     1.0000   1.0000   1.0000   1.0000   0.9999   0.9994   0.0861   0.0320
     0.0006   0.0000   0.0000   0.0000   0.0000   0.0000   0.0000   0.0000
     0.0000   0.0000   0.0000   0.0000   0.0000   0.0000   0.0000   0.0000
     0.0000   0.0000   0.0000   0.0000   0.0000   0.0000   0.0000   0.0000

          k = 0.2500 0.2500 0.0000 ( 33623 PWs)   bands (ev):

  -102.1926-102.1849-102.1849-102.1778-102.0758-102.0697-102.0660-101.9836
  -101.8158-101.7949-101.7944-101.7797-101.6282-101.6208-101.6208-101.6134
   -62.6384 -62.6176 -62.6165 -62.6037 -62.5842 -62.5724 -62.5705 -62.5670
   -62.5223 -62.5167 -62.5132 -62.5072 -62.5020 -62.4768 -62.4751 -62.4500
   -62.4494 -62.4479 -62.4477 -62.4210 -62.3830 -62.3827 -62.3753 -62.3702
   -62.3422 -62.3378 -62.3297 -62.3176 -62.2861 -62.2861 -62.2803 -62.2802
   -62.2122 -62.2118 -62.2064 -62.2064 -62.0795 -62.0450 -62.0441 -62.0290
   -61.9528 -61.9103 -61.9098 -61.8716 -61.7773 -61.7679 -61.7678 -61.7600
   -13.9454  -5.8441  -4.6644  -4.4343  -3.9809  -3.5180  -3.3767  -3.0744
    -2.6339  -2.6131  -2.4249  -2.4138  -2.2498  -2.0724  -2.0433  -2.0249
    -2.0012  -1.9570  -1.9207  -1.7145  -1.5849  -1.5783  -1.5094  -1.4442
    -1.4267  -1.3599  -1.3236  -1.1715  -1.0616  -1.0565  -0.9965  -0.9629
    -0.9245  -0.8243  -0.6951  -0.6891  -0.6483  -0.6428  -0.6297  -0.6020
    -0.5333  -0.5250  -0.5219  -0.4853  -0.4070  -0.3997  -0.2138  -0.1899
    -0.1733  -0.1187  -0.0750  -0.0012   0.0062   0.0305   0.0766   0.0943
     0.1942   0.1950   0.2949   0.3512   0.3940   0.4296   0.4549   0.4567
     0.5164   0.5325   0.5872   0.6381   0.6464   0.6767   0.7068   0.7263
     0.7651   0.7772   0.8100   0.8422   0.8495   0.8934   0.9283   0.9472
     1.0097   1.0154   1.0475   1.1228   1.1493   1.2347   1.2645   1.4193
     1.7209   2.3610   2.5291   2.7730   3.4062   3.8829   4.2991   4.8122
     5.2669   5.3859   6.0322   6.6513   6.7030   6.7517   6.8908   6.9415
     7.5124   7.7367   7.8056   8.2193   8.3813   8.6356   8.8786   9.3308

     occupation numbers 
     1.0000   1.0000   1.0000   1.0000   1.0000   1.0000   1.0000   1.0000
     1.0000   1.0000   1.0000   1.0000   1.0000   1.0000   1.0000   1.0000
     1.0000   1.0000   1.0000   1.0000   1.0000   1.0000   1.0000   1.0000
     1.0000   1.0000   1.0000   1.0000   1.0000   1.0000   1.0000   1.0000
     1.0000   1.0000   1.0000   1.0000   1.0000   1.0000   1.0000   1.0000
     1.0000   1.0000   1.0000   1.0000   1.0000   1.0000   1.0000   1.0000
     1.0000   1.0000   1.0000   1.0000   1.0000   1.0000   1.0000   1.0000
     1.0000   1.0000   1.0000   1.0000   1.0000   1.0000   1.0000   1.0000
     1.0000   1.0000   1.0000   1.0000   1.0000   1.0000   1.0000   1.0000
     1.0000   1.0000   1.0000   1.0000   1.0000   1.0000   1.0000   1.0000
     1.0000   1.0000   1.0000   1.0000   1.0000   1.0000   1.0000   1.0000
     1.0000   1.0000   1.0000   1.0000   1.0000   1.0000   1.0000   1.0000
     1.0000   1.0000   1.0000   1.0000   1.0000   1.0000   1.0000   1.0000
     1.0000   1.0000   1.0000   1.0000   1.0000   1.0000   1.0000   1.0000
     1.0000   1.0000   1.0000   1.0000   1.0000   1.0000   1.0000   1.0000
     1.0000   1.0000   1.0000   1.0000   1.0000   1.0000   1.0000   1.0000
     1.0000   1.0000   1.0000   1.0000   1.0000   1.0000   1.0000   1.0000
     1.0000   1.0000   1.0000   1.0000   1.0000   1.0000   1.0000   1.0000
     1.0000   1.0000   1.0000   1.0000   0.9999   0.9997   0.9994   0.9862
     0.1464   0.0000   0.0000   0.0000   0.0000   0.0000   0.0000   0.0000
     0.0000   0.0000   0.0000   0.0000   0.0000   0.0000   0.0000   0.0000
     0.0000   0.0000   0.0000   0.0000   0.0000   0.0000   0.0000   0.0000

          k = 0.2500 0.3750 0.0000 ( 33636 PWs)   bands (ev):

  -102.1908-102.1867-102.1833-102.1794-102.0749-102.0697-102.0669-101.9837
  -101.8154-101.7951-101.7940-101.7803-101.6266-101.6225-101.6192-101.6151
   -62.6324 -62.6200 -62.6074 -62.5938 -62.5896 -62.5752 -62.5619 -62.5591
   -62.5346 -62.5272 -62.5164 -62.5096 -62.5040 -62.4759 -62.4747 -62.4489
   -62.4471 -62.4405 -62.4351 -62.4133 -62.3971 -62.3853 -62.3810 -62.3669
   -62.3454 -62.3397 -62.3326 -62.3215 -62.2851 -62.2811 -62.2714 -62.2654
   -62.2272 -62.2215 -62.2110 -62.2074 -62.0793 -62.0447 -62.0441 -62.0293
   -61.9436 -61.9199 -61.9018 -61.8805 -61.7753 -61.7701 -61.7662 -61.7619
   -13.9357  -5.4420  -4.6805  -4.3590  -4.0528  -3.6454  -3.2468  -3.0056
    -2.7409  -2.5854  -2.3291  -2.1911  -2.0785  -2.0350  -1.9810  -1.9414
    -1.8917  -1.8663  -1.8397  -1.7004  -1.6394  -1.5625  -1.5248  -1.4649
    -1.4293  -1.3133  -1.2759  -1.1880  -1.1807  -1.1388  -1.0884  -1.0688
    -0.9406  -0.9375  -0.8049  -0.7647  -0.6478  -0.6258  -0.6141  -0.5963
    -0.5868  -0.5581  -0.5356  -0.5016  -0.3713  -0.2818  -0.2762  -0.2168
    -0.1961  -0.1640  -0.1519  -0.0736  -0.0535   0.0222   0.0449   0.1134
     0.1585   0.1688   0.2100   0.2639   0.2703   0.3082   0.3262   0.3849
     0.4201   0.4561   0.4862   0.5154   0.5511   0.5709   0.6416   0.6604
     0.6967   0.7174   0.7633   0.7773   0.8229   0.8474   0.8726   0.8948
     0.9530   0.9728   1.0014   1.0371   1.1015   1.2219   1.2947   1.5670
     1.8523   2.1635   2.3419   2.9451   3.4703   3.9286   4.2283   4.9702
     5.1806   5.6979   6.1820   6.7790   7.1571   7.2035   7.2616   7.3763
     7.5051   7.9091   8.0392   8.2456   8.6157   8.7381   8.7574   9.0752

     occupation numbers 
     1.0000   1.0000   1.0000   1.0000   1.0000   1.0000   1.0000   1.0000
     1.0000   1.0000   1.0000   1.0000   1.0000   1.0000   1.0000   1.0000
     1.0000   1.0000   1.0000   1.0000   1.0000   1.0000   1.0000   1.0000
     1.0000   1.0000   1.0000   1.0000   1.0000   1.0000   1.0000   1.0000
     1.0000   1.0000   1.0000   1.0000   1.0000   1.0000   1.0000   1.0000
     1.0000   1.0000   1.0000   1.0000   1.0000   1.0000   1.0000   1.0000
     1.0000   1.0000   1.0000   1.0000   1.0000   1.0000   1.0000   1.0000
     1.0000   1.0000   1.0000   1.0000   1.0000   1.0000   1.0000   1.0000
     1.0000   1.0000   1.0000   1.0000   1.0000   1.0000   1.0000   1.0000
     1.0000   1.0000   1.0000   1.0000   1.0000   1.0000   1.0000   1.0000
     1.0000   1.0000   1.0000   1.0000   1.0000   1.0000   1.0000   1.0000
     1.0000   1.0000   1.0000   1.0000   1.0000   1.0000   1.0000   1.0000
     1.0000   1.0000   1.0000   1.0000   1.0000   1.0000   1.0000   1.0000
     1.0000   1.0000   1.0000   1.0000   1.0000   1.0000   1.0000   1.0000
     1.0000   1.0000   1.0000   1.0000   1.0000   1.0000   1.0000   1.0000
     1.0000   1.0000   1.0000   1.0000   1.0000   1.0000   1.0000   1.0000
     1.0000   1.0000   1.0000   1.0000   1.0000   1.0000   1.0000   1.0000
     1.0000   1.0000   1.0000   1.0000   1.0000   1.0000   1.0000   1.0000
     1.0000   1.0000   1.0000   1.0000   1.0000   0.9997   0.9988   0.7882
     0.0122   0.0000   0.0000   0.0000   0.0000   0.0000   0.0000   0.0000
     0.0000   0.0000   0.0000   0.0000   0.0000   0.0000   0.0000   0.0000
     0.0000   0.0000   0.0000   0.0000   0.0000   0.0000   0.0000   0.0000

          k = 0.2500-0.5000 0.0000 ( 33646 PWs)   bands (ev):

  -102.1888-102.1887-102.1813-102.1813-102.0744-102.0698-102.0672-101.9838
  -101.8152-101.7953-101.7938-101.7806-101.6250-101.6240-101.6177-101.6166
   -62.6288 -62.6224 -62.6002 -62.5950 -62.5859 -62.5799 -62.5537 -62.5464
   -62.5460 -62.5420 -62.5153 -62.5111 -62.5041 -62.4754 -62.4747 -62.4487
   -62.4468 -62.4368 -62.4228 -62.4107 -62.4062 -62.3930 -62.3806 -62.3630
   -62.3500 -62.3379 -62.3352 -62.3229 -62.2846 -62.2816 -62.2604 -62.2543
   -62.2383 -62.2327 -62.2103 -62.2081 -62.0792 -62.0447 -62.0441 -62.0294
   -61.9347 -61.9291 -61.8941 -61.8886 -61.7734 -61.7721 -61.7646 -61.7636
   -13.9317  -5.0822  -4.8280  -4.3512  -4.2486  -3.5879  -3.0317  -2.9921
    -2.8714  -2.6074  -2.2126  -2.1113  -2.0083  -2.0053  -1.9548  -1.8839
    -1.8700  -1.8624  -1.7297  -1.7075  -1.6870  -1.6583  -1.5648  -1.5104
    -1.2903  -1.2346  -1.2265  -1.2183  -1.2096  -1.1698  -1.1566  -1.0647
    -1.0637  -0.9116  -0.8922  -0.8269  -0.8200  -0.6120  -0.6109  -0.5782
    -0.5729  -0.5340  -0.5255  -0.4858  -0.3238  -0.2877  -0.2835  -0.2318
    -0.1910  -0.1426  -0.0608  -0.0564  -0.0099  -0.0050   0.0311   0.0531
     0.0990   0.1005   0.1388   0.1564   0.1697   0.2302   0.3074   0.3248
     0.3977   0.4331   0.4392   0.4561   0.4735   0.4996   0.5794   0.6191
     0.6489   0.7200   0.7566   0.8032   0.8289   0.8514   0.8556   0.8870
     0.9205   0.9409   0.9839   1.0262   1.1311   1.1743   1.4124   1.6988
     1.8925   2.0802   2.1389   3.3259   3.3977   3.7771   4.2027   4.8942
     5.2618   6.0786   6.2223   6.8268   6.8551   7.1340   7.3019   7.8631
     7.8962   7.9148   7.9926   8.3770   8.4000   8.7745   8.8600   9.1222

     occupation numbers 
     1.0000   1.0000   1.0000   1.0000   1.0000   1.0000   1.0000   1.0000
     1.0000   1.0000   1.0000   1.0000   1.0000   1.0000   1.0000   1.0000
     1.0000   1.0000   1.0000   1.0000   1.0000   1.0000   1.0000   1.0000
     1.0000   1.0000   1.0000   1.0000   1.0000   1.0000   1.0000   1.0000
     1.0000   1.0000   1.0000   1.0000   1.0000   1.0000   1.0000   1.0000
     1.0000   1.0000   1.0000   1.0000   1.0000   1.0000   1.0000   1.0000
     1.0000   1.0000   1.0000   1.0000   1.0000   1.0000   1.0000   1.0000
     1.0000   1.0000   1.0000   1.0000   1.0000   1.0000   1.0000   1.0000
     1.0000   1.0000   1.0000   1.0000   1.0000   1.0000   1.0000   1.0000
     1.0000   1.0000   1.0000   1.0000   1.0000   1.0000   1.0000   1.0000
     1.0000   1.0000   1.0000   1.0000   1.0000   1.0000   1.0000   1.0000
     1.0000   1.0000   1.0000   1.0000   1.0000   1.0000   1.0000   1.0000
     1.0000   1.0000   1.0000   1.0000   1.0000   1.0000   1.0000   1.0000
     1.0000   1.0000   1.0000   1.0000   1.0000   1.0000   1.0000   1.0000
     1.0000   1.0000   1.0000   1.0000   1.0000   1.0000   1.0000   1.0000
     1.0000   1.0000   1.0000   1.0000   1.0000   1.0000   1.0000   1.0000
     1.0000   1.0000   1.0000   1.0000   1.0000   1.0000   1.0000   1.0000
     1.0000   1.0000   1.0000   1.0000   1.0000   1.0000   1.0000   1.0000
     1.0000   1.0000   1.0000   1.0000   1.0000   0.9999   0.9880   0.2105
     0.0055   0.0001   0.0000   0.0000   0.0000   0.0000   0.0000   0.0000
     0.0000   0.0000   0.0000   0.0000   0.0000   0.0000   0.0000   0.0000
     0.0000   0.0000   0.0000   0.0000   0.0000   0.0000   0.0000   0.0000

          k = 0.3750 0.3750 0.0000 ( 33610 PWs)   bands (ev):

  -102.1891-102.1850-102.1850-102.1811-102.0737-102.0697-102.0680-101.9838
  -101.8149-101.7946-101.7944-101.7809-101.6249-101.6208-101.6208-101.6167
   -62.6254 -62.6116 -62.6098 -62.5942 -62.5836 -62.5667 -62.5625 -62.5548
   -62.5352 -62.5334 -62.5280 -62.5206 -62.5044 -62.4750 -62.4743 -62.4406
   -62.4389 -62.4346 -62.4346 -62.4066 -62.3967 -62.3962 -62.3798 -62.3762
   -62.3527 -62.3376 -62.3339 -62.3268 -62.2704 -62.2704 -62.2665 -62.2662
   -62.2264 -62.2258 -62.2225 -62.2225 -62.0791 -62.0444 -62.0442 -62.0295
   -61.9346 -61.9119 -61.9111 -61.8897 -61.7734 -61.7684 -61.7683 -61.7638
   -13.9273  -5.0549  -4.4578  -4.4112  -3.8751  -3.6396  -3.3912  -3.0346
    -2.8701  -2.5335  -2.4043  -2.0399  -1.9819  -1.9254  -1.8918  -1.8237
    -1.7862  -1.7843  -1.7175  -1.6829  -1.6788  -1.5237  -1.4285  -1.4187
    -1.4107  -1.3270  -1.3236  -1.2852  -1.2526  -1.2073  -1.1022  -1.0918
    -1.0875  -0.9896  -0.9326  -0.8420  -0.7624  -0.7331  -0.6551  -0.6117
    -0.5632  -0.5317  -0.4901  -0.4188  -0.3223  -0.2947  -0.2899  -0.2110
    -0.1852  -0.1630  -0.1607  -0.0668  -0.0077  -0.0010   0.0474   0.0546
     0.0922   0.0934   0.1270   0.1737   0.2063   0.2636   0.2789   0.3184
     0.3588   0.3790   0.4074   0.4465   0.4997   0.5356   0.5374   0.5648
     0.5966   0.6561   0.6841   0.6868   0.7188   0.7311   0.7556   0.8075
     0.8735   0.9445   0.9736   0.9802   1.0510   1.1636   1.1707   1.5764
     1.7463   2.1320   2.3943   2.7135   3.3608   4.0511   4.2207   4.9251
     5.3471   5.9132   6.3865   6.5460   7.6168   7.6398   7.7240   7.8920
     8.1980   8.2900   8.4152   8.5805   8.7051   9.0439   9.1823   9.1839

     occupation numbers 
     1.0000   1.0000   1.0000   1.0000   1.0000   1.0000   1.0000   1.0000
     1.0000   1.0000   1.0000   1.0000   1.0000   1.0000   1.0000   1.0000
     1.0000   1.0000   1.0000   1.0000   1.0000   1.0000   1.0000   1.0000
     1.0000   1.0000   1.0000   1.0000   1.0000   1.0000   1.0000   1.0000
     1.0000   1.0000   1.0000   1.0000   1.0000   1.0000   1.0000   1.0000
     1.0000   1.0000   1.0000   1.0000   1.0000   1.0000   1.0000   1.0000
     1.0000   1.0000   1.0000   1.0000   1.0000   1.0000   1.0000   1.0000
     1.0000   1.0000   1.0000   1.0000   1.0000   1.0000   1.0000   1.0000
     1.0000   1.0000   1.0000   1.0000   1.0000   1.0000   1.0000   1.0000
     1.0000   1.0000   1.0000   1.0000   1.0000   1.0000   1.0000   1.0000
     1.0000   1.0000   1.0000   1.0000   1.0000   1.0000   1.0000   1.0000
     1.0000   1.0000   1.0000   1.0000   1.0000   1.0000   1.0000   1.0000
     1.0000   1.0000   1.0000   1.0000   1.0000   1.0000   1.0000   1.0000
     1.0000   1.0000   1.0000   1.0000   1.0000   1.0000   1.0000   1.0000
     1.0000   1.0000   1.0000   1.0000   1.0000   1.0000   1.0000   1.0000
     1.0000   1.0000   1.0000   1.0000   1.0000   1.0000   1.0000   1.0000
     1.0000   1.0000   1.0000   1.0000   1.0000   1.0000   1.0000   1.0000
     1.0000   1.0000   1.0000   1.0000   1.0000   1.0000   1.0000   1.0000
     1.0000   1.0000   1.0000   1.0000   1.0000   0.9999   0.9999   0.7551
     0.0935   0.0000   0.0000   0.0000   0.0000   0.0000   0.0000   0.0000
     0.0000   0.0000   0.0000   0.0000   0.0000   0.0000   0.0000   0.0000
     0.0000   0.0000   0.0000   0.0000   0.0000   0.0000   0.0000   0.0000

          k = 0.3750-0.5000 0.0000 ( 33648 PWs)   bands (ev):

  -102.1871-102.1870-102.1831-102.1830-102.0730-102.0697-102.0686-101.9839
  -101.8148-101.7946-101.7942-101.7812-101.6234-101.6224-101.6193-101.6182
   -62.6212 -62.6135 -62.6040 -62.5990 -62.5744 -62.5710 -62.5522 -62.5475
   -62.5467 -62.5426 -62.5281 -62.5256 -62.5042 -62.4744 -62.4743 -62.4397
   -62.4358 -62.4344 -62.4216 -62.4104 -62.4012 -62.3966 -62.3844 -62.3734
   -62.3574 -62.3361 -62.3353 -62.3288 -62.2698 -62.2669 -62.2594 -62.2553
   -62.2372 -62.2337 -62.2254 -62.2232 -62.0791 -62.0443 -62.0442 -62.0296
   -61.9260 -61.9205 -61.9036 -61.8979 -61.7716 -61.7703 -61.7667 -61.7656
   -13.9237  -4.7215  -4.5571  -4.2376  -4.1013  -3.5716  -3.3487  -3.1280
    -2.8385  -2.5953  -2.3553  -2.1134  -1.8470  -1.8351  -1.8222  -1.8007
    -1.7975  -1.7322  -1.6699  -1.6387  -1.6250  -1.5683  -1.4926  -1.4303
    -1.3794  -1.3739  -1.2688  -1.2612  -1.2313  -1.1945  -1.1777  -1.1072
    -1.0711  -1.0300  -1.0243  -0.9100  -0.9066  -0.7026  -0.6966  -0.6379
    -0.5884  -0.4724  -0.4271  -0.3833  -0.3636  -0.3184  -0.2086  -0.1733
    -0.1418  -0.1113  -0.1078  -0.0819  -0.0187  -0.0069   0.0103   0.0292
     0.0664   0.0698   0.1158   0.1244   0.1649   0.2012   0.2043   0.2504
     0.2974   0.3008   0.3344   0.3426   0.4446   0.4763   0.5124   0.5283
     0.6041   0.6050   0.6338   0.6410   0.6772   0.7011   0.7435   0.7800
     0.8733   0.9561   0.9813   0.9878   1.0454   1.0508   1.3604   1.4952
     1.6942   2.2189   2.2771   2.9495   3.0780   4.0584   4.2301   5.2192
     5.2697   5.8268   6.3140   6.8049   7.1665   7.8099   8.2627   8.3338
     8.3445   8.4496   8.5191   8.5808   8.6730   9.0221   9.2460   9.5058

     occupation numbers 
     1.0000   1.0000   1.0000   1.0000   1.0000   1.0000   1.0000   1.0000
     1.0000   1.0000   1.0000   1.0000   1.0000   1.0000   1.0000   1.0000
     1.0000   1.0000   1.0000   1.0000   1.0000   1.0000   1.0000   1.0000
     1.0000   1.0000   1.0000   1.0000   1.0000   1.0000   1.0000   1.0000
     1.0000   1.0000   1.0000   1.0000   1.0000   1.0000   1.0000   1.0000
     1.0000   1.0000   1.0000   1.0000   1.0000   1.0000   1.0000   1.0000
     1.0000   1.0000   1.0000   1.0000   1.0000   1.0000   1.0000   1.0000
     1.0000   1.0000   1.0000   1.0000   1.0000   1.0000   1.0000   1.0000
     1.0000   1.0000   1.0000   1.0000   1.0000   1.0000   1.0000   1.0000
     1.0000   1.0000   1.0000   1.0000   1.0000   1.0000   1.0000   1.0000
     1.0000   1.0000   1.0000   1.0000   1.0000   1.0000   1.0000   1.0000
     1.0000   1.0000   1.0000   1.0000   1.0000   1.0000   1.0000   1.0000
     1.0000   1.0000   1.0000   1.0000   1.0000   1.0000   1.0000   1.0000
     1.0000   1.0000   1.0000   1.0000   1.0000   1.0000   1.0000   1.0000
     1.0000   1.0000   1.0000   1.0000   1.0000   1.0000   1.0000   1.0000
     1.0000   1.0000   1.0000   1.0000   1.0000   1.0000   1.0000   1.0000
     1.0000   1.0000   1.0000   1.0000   1.0000   1.0000   1.0000   1.0000
     1.0000   1.0000   1.0000   1.0000   1.0000   1.0000   1.0000   1.0000
     1.0000   1.0000   1.0000   1.0000   1.0000   1.0000   0.9957   0.9399
     0.2263   0.0000   0.0000   0.0000   0.0000   0.0000   0.0000   0.0000
     0.0000   0.0000   0.0000   0.0000   0.0000   0.0000   0.0000   0.0000
     0.0000   0.0000   0.0000   0.0000   0.0000   0.0000   0.0000   0.0000

          k =-0.5000-0.5000 0.0000 ( 33696 PWs)   bands (ev):

  -102.1851-102.1851-102.1851-102.1849-102.0720-102.0696-102.0696-101.9839
  -101.8146-101.7944-101.7944-101.7815-101.6219-101.6208-101.6208-101.6198
   -62.6167 -62.6069 -62.6069 -62.6035 -62.5632 -62.5632 -62.5561 -62.5555
   -62.5412 -62.5384 -62.5368 -62.5368 -62.5041 -62.4741 -62.4741 -62.4371
   -62.4344 -62.4212 -62.4212 -62.4104 -62.4101 -62.3977 -62.3793 -62.3793
   -62.3625 -62.3354 -62.3354 -62.3316 -62.2588 -62.2588 -62.2560 -62.2557
   -62.2368 -62.2362 -62.2344 -62.2344 -62.0790 -62.0442 -62.0442 -62.0298
   -61.9172 -61.9126 -61.9126 -61.9061 -61.7699 -61.7685 -61.7685 -61.7675
   -13.9204  -4.4784  -4.4784  -4.0636  -3.8898  -3.7288  -3.7288  -3.2004
    -2.7156  -2.4915  -2.4915  -2.1745  -1.7727  -1.7690  -1.7661  -1.7661
    -1.7566  -1.6468  -1.6468  -1.5691  -1.5381  -1.5381  -1.5197  -1.3567
    -1.3481  -1.3402  -1.3402  -1.3278  -1.2509  -1.2509  -1.2383  -1.1900
    -1.1520  -1.0574  -1.0574  -0.8632  -0.8411  -0.8107  -0.8107  -0.6037
    -0.5502  -0.5502  -0.4439  -0.2718  -0.2320  -0.2280  -0.2280  -0.2201
    -0.2020  -0.0972  -0.0601  -0.0601  -0.0510  -0.0039  -0.0039   0.1119
     0.1121   0.1121   0.1131   0.1131   0.1154   0.1400   0.1668   0.1687
     0.1931   0.1931   0.2467   0.2865   0.3289   0.3289   0.4541   0.5160
     0.5310   0.5310   0.5840   0.6191   0.6371   0.6725   0.7221   0.7221
     0.9355   0.9355   1.0024   1.0314   1.0437   1.1651   1.1651   1.3425
     1.7824   2.3996   2.3996   2.6622   2.8815   4.2989   4.2989   5.1215
     5.2837   5.9960   5.9960   7.4002   7.4004   7.4780   7.4780   8.5982
     8.9870   8.9916   8.9917   9.0931   9.1167   9.1168   9.1320   9.8967

     occupation numbers 
     1.0000   1.0000   1.0000   1.0000   1.0000   1.0000   1.0000   1.0000
     1.0000   1.0000   1.0000   1.0000   1.0000   1.0000   1.0000   1.0000
     1.0000   1.0000   1.0000   1.0000   1.0000   1.0000   1.0000   1.0000
     1.0000   1.0000   1.0000   1.0000   1.0000   1.0000   1.0000   1.0000
     1.0000   1.0000   1.0000   1.0000   1.0000   1.0000   1.0000   1.0000
     1.0000   1.0000   1.0000   1.0000   1.0000   1.0000   1.0000   1.0000
     1.0000   1.0000   1.0000   1.0000   1.0000   1.0000   1.0000   1.0000
     1.0000   1.0000   1.0000   1.0000   1.0000   1.0000   1.0000   1.0000
     1.0000   1.0000   1.0000   1.0000   1.0000   1.0000   1.0000   1.0000
     1.0000   1.0000   1.0000   1.0000   1.0000   1.0000   1.0000   1.0000
     1.0000   1.0000   1.0000   1.0000   1.0000   1.0000   1.0000   1.0000
     1.0000   1.0000   1.0000   1.0000   1.0000   1.0000   1.0000   1.0000
     1.0000   1.0000   1.0000   1.0000   1.0000   1.0000   1.0000   1.0000
     1.0000   1.0000   1.0000   1.0000   1.0000   1.0000   1.0000   1.0000
     1.0000   1.0000   1.0000   1.0000   1.0000   1.0000   1.0000   1.0000
     1.0000   1.0000   1.0000   1.0000   1.0000   1.0000   1.0000   1.0000
     1.0000   1.0000   1.0000   1.0000   1.0000   1.0000   1.0000   1.0000
     1.0000   1.0000   1.0000   1.0000   1.0000   1.0000   1.0000   1.0000
     1.0000   1.0000   1.0000   1.0000   1.0000   0.9999   0.9999   0.9970
     0.0477   0.0000   0.0000   0.0000   0.0000   0.0000   0.0000   0.0000
     0.0000   0.0000   0.0000   0.0000   0.0000   0.0000   0.0000   0.0000
     0.0000   0.0000   0.0000   0.0000   0.0000   0.0000   0.0000   0.0000

 ------ SPIN DOWN ----------


          k = 0.0000 0.0000 0.0000 ( 33665 PWs)   bands (ev):

  -101.3120-101.3009-101.3009-101.2904-101.1994-101.1873-101.1873-101.1770
  -101.1508-101.1024-101.0907-101.0858-100.7685-100.7564-100.7535-100.7437
   -62.1317 -62.0741 -62.0741 -62.0107 -61.6743 -61.6719 -61.6528 -61.6524
   -61.6524 -61.6442 -61.6294 -61.6294 -61.5942 -61.5942 -61.5904 -61.5718
   -61.5554 -61.5554 -61.5424 -61.5424 -61.5418 -61.5354 -61.5354 -61.5349
   -61.5323 -61.5297 -61.5196 -61.5013 -61.4501 -61.4501 -61.4480 -61.4416
   -61.4384 -61.4384 -61.4368 -61.4368 -61.2652 -61.2652 -61.2568 -61.2568
   -61.1589 -61.1589 -61.1509 -61.1509 -61.1145 -61.0999 -61.0970 -61.0896
   -13.9407  -6.6107  -4.7351  -4.3548  -4.3548  -3.4210  -2.7695  -2.4982
    -2.4982  -2.4685  -2.3021  -2.2653  -2.1537  -1.9786  -1.7607  -1.7263
    -1.6721  -1.5844  -1.5844  -1.3455  -1.2808  -1.2111  -1.2111  -0.8558
    -0.8558  -0.6788  -0.6220  -0.3930  -0.3930  -0.3422  -0.2878  -0.2710
    -0.1994  -0.1994  -0.1414  -0.0586  -0.0586   0.0523   0.0867   0.1345
     0.1590   0.1590   0.1644   0.1905   0.2534   0.2534   0.2929   0.2929
     0.5627   0.6448   0.7278   0.7368   0.7368   0.8560   0.8567   0.8985
     0.9790   0.9790   1.0897   1.1441   1.1534   1.1534   1.1982   1.2392
     1.2753   1.3339   1.3945   1.3945   1.4758   1.4758   1.5305   1.5769
     1.6714   1.6821   1.6892   1.7807   1.7807   1.8008   1.8445   1.8451
     1.8894   1.8894   1.9964   2.1142   2.2523   2.2523   2.2878   2.2878
     2.3254   2.4755   2.4880   2.9672   3.0197   3.0197   3.1202   4.4248
     5.2748   5.2748   5.9543   6.0369   6.2916   6.3351   6.6343   7.0359
     7.0359   7.0563   7.5995   8.5794   8.8602   8.8602   9.0242   9.2287

     occupation numbers 
     1.0000   1.0000   1.0000   1.0000   1.0000   1.0000   1.0000   1.0000
     1.0000   1.0000   1.0000   1.0000   1.0000   1.0000   1.0000   1.0000
     1.0000   1.0000   1.0000   1.0000   1.0000   1.0000   1.0000   1.0000
     1.0000   1.0000   1.0000   1.0000   1.0000   1.0000   1.0000   1.0000
     1.0000   1.0000   1.0000   1.0000   1.0000   1.0000   1.0000   1.0000
     1.0000   1.0000   1.0000   1.0000   1.0000   1.0000   1.0000   1.0000
     1.0000   1.0000   1.0000   1.0000   1.0000   1.0000   1.0000   1.0000
     1.0000   1.0000   1.0000   1.0000   1.0000   1.0000   1.0000   1.0000
     1.0000   1.0000   1.0000   1.0000   1.0000   1.0000   1.0000   1.0000
     1.0000   1.0000   1.0000   1.0000   1.0000   1.0000   1.0000   1.0000
     1.0000   1.0000   1.0000   1.0000   1.0000   1.0000   1.0000   1.0000
     1.0000   1.0000   1.0000   1.0000   1.0000   1.0000   1.0000   1.0000
     1.0000   1.0000   1.0000   1.0000   1.0000   1.0000   1.0000   1.0000
     1.0000   1.0000   1.0000   1.0000   1.0000   1.0000   1.0000   1.0000
     1.0000   1.0000   1.0000   1.0000   1.0000   1.0000   1.0000   1.0000
     1.0000   1.0000   1.0000   0.9999   0.9999   0.9999   0.9998   0.9996
     0.9992   0.9975   0.9915   0.9915   0.9584   0.9584   0.8854   0.7533
     0.3159   0.2716   0.2443   0.0493   0.0493   0.0335   0.0143   0.0141
     0.0059   0.0059   0.0007   0.0001   0.0000   0.0000   0.0000   0.0000
     0.0000   0.0000   0.0000   0.0000   0.0000   0.0000   0.0000   0.0000
     0.0000   0.0000   0.0000   0.0000   0.0000   0.0000   0.0000   0.0000
     0.0000   0.0000   0.0000   0.0000   0.0000   0.0000   0.0000   0.0000

          k = 0.0000 0.1250 0.0000 ( 33695 PWs)   bands (ev):

  -101.3116-101.3013-101.3005-101.2907-101.1989-101.1878-101.1869-101.1774
  -101.1507-101.1022-101.0907-101.0861-100.7682-100.7564-100.7535-100.7440
   -62.1294 -62.0761 -62.0716 -62.0129 -61.6724 -61.6690 -61.6527 -61.6507
   -61.6487 -61.6432 -61.6282 -61.6279 -61.5967 -61.5941 -61.5902 -61.5724
   -61.5574 -61.5559 -61.5453 -61.5425 -61.5399 -61.5382 -61.5361 -61.5328
   -61.5324 -61.5305 -61.5185 -61.5013 -61.4549 -61.4501 -61.4469 -61.4416
   -61.4404 -61.4384 -61.4383 -61.4368 -61.2649 -61.2613 -61.2570 -61.2528
   -61.1630 -61.1586 -61.1550 -61.1512 -61.1143 -61.0998 -61.0970 -61.0898
   -13.9360  -6.5190  -4.7357  -4.3366  -4.3169  -3.4250  -2.8326  -2.6769
    -2.4329  -2.4026  -2.2457  -2.2223  -2.1256  -1.9470  -1.7218  -1.6687
    -1.6343  -1.5623  -1.5587  -1.3153  -1.2648  -1.2243  -1.1988  -0.8725
    -0.8528  -0.6704  -0.6050  -0.5217  -0.4498  -0.4076  -0.3078  -0.2322
    -0.2190  -0.1720  -0.1250  -0.0881  -0.0811  -0.0018   0.1090   0.1234
     0.1359   0.1591   0.2022   0.2033   0.2502   0.2557   0.3012   0.3490
     0.5049   0.6254   0.6980   0.7056   0.7309   0.7821   0.8243   0.8938
     0.9359   0.9427   0.9693   1.0672   1.1176   1.1407   1.2225   1.2342
     1.2608   1.3197   1.3981   1.4517   1.4588   1.4970   1.5194   1.5686
     1.5858   1.6414   1.6532   1.6854   1.6963   1.7053   1.7240   1.7998
     1.8093   1.9010   1.9238   1.9787   2.0829   2.1742   2.2515   2.2750
     2.3539   2.6288   2.7924   2.9379   3.0889   3.1475   3.9505   4.5402
     5.1388   5.1654   6.0505   6.0839   6.3572   6.4383   6.5893   6.8882
     6.8900   7.2505   7.7170   8.6031   8.6084   8.7021   8.9749   9.1188

     occupation numbers 
     1.0000   1.0000   1.0000   1.0000   1.0000   1.0000   1.0000   1.0000
     1.0000   1.0000   1.0000   1.0000   1.0000   1.0000   1.0000   1.0000
     1.0000   1.0000   1.0000   1.0000   1.0000   1.0000   1.0000   1.0000
     1.0000   1.0000   1.0000   1.0000   1.0000   1.0000   1.0000   1.0000
     1.0000   1.0000   1.0000   1.0000   1.0000   1.0000   1.0000   1.0000
     1.0000   1.0000   1.0000   1.0000   1.0000   1.0000   1.0000   1.0000
     1.0000   1.0000   1.0000   1.0000   1.0000   1.0000   1.0000   1.0000
     1.0000   1.0000   1.0000   1.0000   1.0000   1.0000   1.0000   1.0000
     1.0000   1.0000   1.0000   1.0000   1.0000   1.0000   1.0000   1.0000
     1.0000   1.0000   1.0000   1.0000   1.0000   1.0000   1.0000   1.0000
     1.0000   1.0000   1.0000   1.0000   1.0000   1.0000   1.0000   1.0000
     1.0000   1.0000   1.0000   1.0000   1.0000   1.0000   1.0000   1.0000
     1.0000   1.0000   1.0000   1.0000   1.0000   1.0000   1.0000   1.0000
     1.0000   1.0000   1.0000   1.0000   1.0000   1.0000   1.0000   1.0000
     1.0000   1.0000   1.0000   1.0000   1.0000   1.0000   1.0000   1.0000
     1.0000   1.0000   1.0000   1.0000   1.0000   0.9999   0.9997   0.9997
     0.9994   0.9981   0.9909   0.9739   0.9701   0.9378   0.9061   0.7829
     0.7188   0.4565   0.3991   0.2586   0.2190   0.1896   0.1387   0.0342
     0.0284   0.0047   0.0030   0.0010   0.0001   0.0000   0.0000   0.0000
     0.0000   0.0000   0.0000   0.0000   0.0000   0.0000   0.0000   0.0000
     0.0000   0.0000   0.0000   0.0000   0.0000   0.0000   0.0000   0.0000
     0.0000   0.0000   0.0000   0.0000   0.0000   0.0000   0.0000   0.0000

          k = 0.0000 0.2500 0.0000 ( 33669 PWs)   bands (ev):

  -101.3104-101.3025-101.2994-101.2919-101.1976-101.1891-101.1858-101.1785
  -101.1506-101.1018-101.0906-101.0868-100.7674-100.7567-100.7530-100.7450
   -62.1227 -62.0820 -62.0643 -62.0194 -61.6687 -61.6601 -61.6536 -61.6447
   -61.6398 -61.6386 -61.6256 -61.6235 -61.6036 -61.5978 -61.5853 -61.5763
   -61.5640 -61.5601 -61.5450 -61.5449 -61.5441 -61.5398 -61.5376 -61.5333
   -61.5307 -61.5247 -61.5161 -61.5014 -61.4646 -61.4537 -61.4502 -61.4420
   -61.4416 -61.4400 -61.4383 -61.4368 -61.2640 -61.2578 -61.2501 -61.2415
   -61.1746 -61.1665 -61.1578 -61.1521 -61.1139 -61.0996 -61.0969 -61.0903
   -13.9244  -6.2503  -4.7945  -4.2207  -4.2207  -3.6220  -3.1712  -2.4786
    -2.4461  -2.2548  -2.1466  -2.0708  -2.0466  -1.8393  -1.6618  -1.5893
    -1.5298  -1.5112  -1.4988  -1.2881  -1.2318  -1.2257  -1.1484  -0.9136
    -0.8292  -0.8115  -0.6323  -0.6010  -0.5784  -0.5083  -0.3173  -0.2514
    -0.2508  -0.2239  -0.1534  -0.1453  -0.0604   0.0319   0.0743   0.1004
     0.1527   0.1631   0.1643   0.2336   0.2444   0.2763   0.3233   0.3948
     0.5004   0.5100   0.5419   0.5785   0.6409   0.6543   0.6695   0.7570
     0.8954   0.8987   0.9982   1.0494   1.0784   1.0916   1.1028   1.1463
     1.1679   1.2456   1.2823   1.3456   1.3703   1.3972   1.4577   1.4815
     1.5310   1.5509   1.5963   1.6074   1.6470   1.6969   1.7470   1.7503
     1.7585   1.7935   1.8245   1.8299   1.9303   2.0235   2.0965   2.1792
     2.4686   3.2086   3.2440   3.2508   3.3360   3.3570   4.6340   4.8192
     4.8974   5.0643   5.9580   6.3422   6.4805   6.5282   6.6138   6.7704
     7.1506   7.5415   7.9659   7.9906   8.2027   8.6805   8.9676   9.2090

     occupation numbers 
     1.0000   1.0000   1.0000   1.0000   1.0000   1.0000   1.0000   1.0000
     1.0000   1.0000   1.0000   1.0000   1.0000   1.0000   1.0000   1.0000
     1.0000   1.0000   1.0000   1.0000   1.0000   1.0000   1.0000   1.0000
     1.0000   1.0000   1.0000   1.0000   1.0000   1.0000   1.0000   1.0000
     1.0000   1.0000   1.0000   1.0000   1.0000   1.0000   1.0000   1.0000
     1.0000   1.0000   1.0000   1.0000   1.0000   1.0000   1.0000   1.0000
     1.0000   1.0000   1.0000   1.0000   1.0000   1.0000   1.0000   1.0000
     1.0000   1.0000   1.0000   1.0000   1.0000   1.0000   1.0000   1.0000
     1.0000   1.0000   1.0000   1.0000   1.0000   1.0000   1.0000   1.0000
     1.0000   1.0000   1.0000   1.0000   1.0000   1.0000   1.0000   1.0000
     1.0000   1.0000   1.0000   1.0000   1.0000   1.0000   1.0000   1.0000
     1.0000   1.0000   1.0000   1.0000   1.0000   1.0000   1.0000   1.0000
     1.0000   1.0000   1.0000   1.0000   1.0000   1.0000   1.0000   1.0000
     1.0000   1.0000   1.0000   1.0000   1.0000   1.0000   1.0000   1.0000
     1.0000   1.0000   1.0000   1.0000   1.0000   1.0000   1.0000   1.0000
     1.0000   1.0000   1.0000   1.0000   1.0000   1.0000   1.0000   0.9999
     0.9999   0.9996   0.9991   0.9968   0.9948   0.9911   0.9707   0.9537
     0.8843   0.8372   0.6743   0.6241   0.4290   0.2170   0.0923   0.0869
     0.0748   0.0386   0.0211   0.0190   0.0026   0.0004   0.0001   0.0000
     0.0000   0.0000   0.0000   0.0000   0.0000   0.0000   0.0000   0.0000
     0.0000   0.0000   0.0000   0.0000   0.0000   0.0000   0.0000   0.0000
     0.0000   0.0000   0.0000   0.0000   0.0000   0.0000   0.0000   0.0000

          k = 0.0000 0.3750 0.0000 ( 33614 PWs)   bands (ev):

  -101.3086-101.3042-101.2977-101.2935-101.1957-101.1911-101.1842-101.1802
  -101.1505-101.1013-101.0903-101.0877-100.7665-100.7573-100.7520-100.7463
   -62.1130 -62.0909 -62.0536 -62.0292 -61.6643 -61.6565 -61.6478 -61.6393
   -61.6304 -61.6269 -61.6235 -61.6157 -61.6131 -61.6019 -61.5903 -61.5769
   -61.5726 -61.5660 -61.5549 -61.5462 -61.5438 -61.5392 -61.5347 -61.5325
   -61.5303 -61.5172 -61.5113 -61.5000 -61.4767 -61.4672 -61.4502 -61.4416
   -61.4416 -61.4411 -61.4382 -61.4368 -61.2627 -61.2590 -61.2333 -61.2247
   -61.1917 -61.1835 -61.1566 -61.1533 -61.1134 -61.0996 -61.0966 -61.0909
   -13.9129  -5.8307  -4.9283  -4.3329  -4.1163  -3.8195  -3.1796  -2.6940
    -2.1657  -2.0265  -2.0040  -1.9391  -1.8822  -1.6629  -1.6275  -1.5649
    -1.4971  -1.4642  -1.4072  -1.3899  -1.2295  -1.1121  -1.0921  -0.9959
    -0.9204  -0.7853  -0.7733  -0.7565  -0.6113  -0.5266  -0.3881  -0.3588
    -0.3480  -0.2175  -0.1751  -0.1521  -0.0430  -0.0222   0.0309   0.0897
     0.0992   0.1891   0.2149   0.2515   0.2673   0.2863   0.3232   0.3393
     0.3693   0.4382   0.5220   0.5499   0.5671   0.6198   0.6483   0.7312
     0.7377   0.7882   0.9059   0.9421   0.9621   0.9718   1.0076   1.0382
     1.1334   1.1501   1.1883   1.1927   1.3014   1.3038   1.3613   1.4117
     1.4273   1.4624   1.5073   1.5386   1.5480   1.6720   1.7101   1.7387
     1.7596   1.7897   1.8537   1.8825   1.9225   1.9573   2.0723   2.2966
     2.5543   3.0644   3.5720   3.6327   3.7516   4.0828   4.4563   4.4774
     4.8969   5.3979   5.8379   6.0758   6.8045   6.9414   6.9519   7.1294
     7.3824   7.4878   7.7100   8.0369   8.2337   8.3511   8.4983   8.7780

     occupation numbers 
     1.0000   1.0000   1.0000   1.0000   1.0000   1.0000   1.0000   1.0000
     1.0000   1.0000   1.0000   1.0000   1.0000   1.0000   1.0000   1.0000
     1.0000   1.0000   1.0000   1.0000   1.0000   1.0000   1.0000   1.0000
     1.0000   1.0000   1.0000   1.0000   1.0000   1.0000   1.0000   1.0000
     1.0000   1.0000   1.0000   1.0000   1.0000   1.0000   1.0000   1.0000
     1.0000   1.0000   1.0000   1.0000   1.0000   1.0000   1.0000   1.0000
     1.0000   1.0000   1.0000   1.0000   1.0000   1.0000   1.0000   1.0000
     1.0000   1.0000   1.0000   1.0000   1.0000   1.0000   1.0000   1.0000
     1.0000   1.0000   1.0000   1.0000   1.0000   1.0000   1.0000   1.0000
     1.0000   1.0000   1.0000   1.0000   1.0000   1.0000   1.0000   1.0000
     1.0000   1.0000   1.0000   1.0000   1.0000   1.0000   1.0000   1.0000
     1.0000   1.0000   1.0000   1.0000   1.0000   1.0000   1.0000   1.0000
     1.0000   1.0000   1.0000   1.0000   1.0000   1.0000   1.0000   1.0000
     1.0000   1.0000   1.0000   1.0000   1.0000   1.0000   1.0000   1.0000
     1.0000   1.0000   1.0000   1.0000   1.0000   1.0000   1.0000   1.0000
     1.0000   1.0000   1.0000   1.0000   1.0000   1.0000   1.0000   1.0000
     1.0000   0.9999   0.9999   0.9998   0.9987   0.9986   0.9956   0.9881
     0.9838   0.9679   0.9247   0.8680   0.8449   0.3133   0.1755   0.1072
     0.0732   0.0415   0.0119   0.0067   0.0030   0.0015   0.0002   0.0000
     0.0000   0.0000   0.0000   0.0000   0.0000   0.0000   0.0000   0.0000
     0.0000   0.0000   0.0000   0.0000   0.0000   0.0000   0.0000   0.0000
     0.0000   0.0000   0.0000   0.0000   0.0000   0.0000   0.0000   0.0000

          k = 0.0000-0.5000 0.0000 ( 33596 PWs)   bands (ev):

  -101.3071-101.3058-101.2962-101.2951-101.1934-101.1933-101.1822-101.1822
  -101.1504-101.1010-101.0901-101.0882-100.7661-100.7576-100.7514-100.7470
   -62.1026 -62.1009 -62.0426 -62.0399 -61.6606 -61.6592 -61.6404 -61.6383
   -61.6250 -61.6210 -61.6209 -61.6135 -61.6133 -61.6053 -61.5969 -61.5856
   -61.5675 -61.5658 -61.5647 -61.5465 -61.5433 -61.5385 -61.5355 -61.5302
   -61.5290 -61.5159 -61.5079 -61.4911 -61.4887 -61.4753 -61.4502 -61.4416
   -61.4414 -61.4413 -61.4382 -61.4368 -61.2618 -61.2599 -61.2172 -61.2086
   -61.2076 -61.2001 -61.1556 -61.1543 -61.1132 -61.0996 -61.0964 -61.0912
   -13.9080  -5.4318  -5.1661  -4.5873  -4.0703  -3.6857  -3.1358  -2.8847
    -1.9611  -1.9433  -1.8906  -1.8815  -1.7807  -1.6847  -1.5519  -1.5486
    -1.5467  -1.4623  -1.4299  -1.3192  -1.2519  -1.2307  -0.9623  -0.9619
    -0.9501  -0.8208  -0.8042  -0.7803  -0.5954  -0.5944  -0.5941  -0.4477
    -0.3719  -0.1613  -0.1456  -0.1102  -0.0915   0.0159   0.0223   0.0469
     0.1300   0.1377   0.1684   0.2174   0.2402   0.3060   0.3332   0.4154
     0.4362   0.4455   0.4564   0.5500   0.6393   0.6407   0.6807   0.7060
     0.7169   0.7615   0.7644   0.7694   0.8338   0.8415   0.9641   0.9879
     1.0438   1.1194   1.1789   1.1801   1.2239   1.2650   1.3305   1.4141
     1.4457   1.4581   1.4627   1.4741   1.5513   1.6846   1.7274   1.7320
     1.7638   1.7662   1.8893   1.8918   1.8918   1.9118   2.2278   2.3034
     2.5853   2.9367   3.8170   3.8800   4.1118   4.1309   4.2065   4.5354
     4.8563   5.1753   5.6889   6.5803   6.5843   6.8796   7.3318   7.4700
     7.5120   7.5261   7.5337   7.6562   8.0436   8.3888   8.4740   8.7705

     occupation numbers 
     1.0000   1.0000   1.0000   1.0000   1.0000   1.0000   1.0000   1.0000
     1.0000   1.0000   1.0000   1.0000   1.0000   1.0000   1.0000   1.0000
     1.0000   1.0000   1.0000   1.0000   1.0000   1.0000   1.0000   1.0000
     1.0000   1.0000   1.0000   1.0000   1.0000   1.0000   1.0000   1.0000
     1.0000   1.0000   1.0000   1.0000   1.0000   1.0000   1.0000   1.0000
     1.0000   1.0000   1.0000   1.0000   1.0000   1.0000   1.0000   1.0000
     1.0000   1.0000   1.0000   1.0000   1.0000   1.0000   1.0000   1.0000
     1.0000   1.0000   1.0000   1.0000   1.0000   1.0000   1.0000   1.0000
     1.0000   1.0000   1.0000   1.0000   1.0000   1.0000   1.0000   1.0000
     1.0000   1.0000   1.0000   1.0000   1.0000   1.0000   1.0000   1.0000
     1.0000   1.0000   1.0000   1.0000   1.0000   1.0000   1.0000   1.0000
     1.0000   1.0000   1.0000   1.0000   1.0000   1.0000   1.0000   1.0000
     1.0000   1.0000   1.0000   1.0000   1.0000   1.0000   1.0000   1.0000
     1.0000   1.0000   1.0000   1.0000   1.0000   1.0000   1.0000   1.0000
     1.0000   1.0000   1.0000   1.0000   1.0000   1.0000   1.0000   1.0000
     1.0000   1.0000   1.0000   1.0000   1.0000   1.0000   1.0000   1.0000
     1.0000   1.0000   0.9999   0.9999   0.9997   0.9994   0.9976   0.9875
     0.9768   0.9705   0.9677   0.9598   0.8360   0.2615   0.1309   0.1208
     0.0677   0.0648   0.0059   0.0056   0.0056   0.0038   0.0000   0.0000
     0.0000   0.0000   0.0000   0.0000   0.0000   0.0000   0.0000   0.0000
     0.0000   0.0000   0.0000   0.0000   0.0000   0.0000   0.0000   0.0000
     0.0000   0.0000   0.0000   0.0000   0.0000   0.0000   0.0000   0.0000

          k = 0.1250 0.1250 0.0000 ( 33677 PWs)   bands (ev):

  -101.3112-101.3009-101.3009-101.2911-101.1985-101.1874-101.1874-101.1778
  -101.1507-101.1020-101.0907-101.0864-100.7679-100.7563-100.7535-100.7444
   -62.1270 -62.0737 -62.0734 -62.0152 -61.6697 -61.6667 -61.6493 -61.6492
   -61.6481 -61.6421 -61.6270 -61.6266 -61.5967 -61.5944 -61.5920 -61.5729
   -61.5587 -61.5559 -61.5466 -61.5456 -61.5396 -61.5389 -61.5359 -61.5356
   -61.5306 -61.5301 -61.5174 -61.5013 -61.4570 -61.4513 -61.4476 -61.4416
   -61.4416 -61.4391 -61.4390 -61.4375 -61.2609 -61.2609 -61.2531 -61.2531
   -61.1628 -61.1626 -61.1553 -61.1553 -61.1141 -61.0996 -61.0970 -61.0900
   -13.9314  -6.4276  -4.7200  -4.3556  -4.2504  -3.4162  -2.8459  -2.7062
    -2.5807  -2.3348  -2.2269  -2.1673  -2.0889  -1.9170  -1.6776  -1.6077
    -1.6025  -1.5477  -1.5229  -1.2930  -1.2461  -1.2428  -1.1591  -0.8799
    -0.8342  -0.6799  -0.6290  -0.5915  -0.5435  -0.3863  -0.2908  -0.2680
    -0.2286  -0.1620  -0.1315  -0.1244  -0.0962   0.0112   0.0886   0.0899
     0.1543   0.1777   0.1867   0.2036   0.2181   0.2646   0.3265   0.3579
     0.4880   0.5644   0.6399   0.6766   0.7096   0.7640   0.8049   0.8767
     0.8835   0.9120   0.9191   1.0378   1.0706   1.1294   1.2024   1.2252
     1.2731   1.3361   1.3714   1.4063   1.4233   1.4895   1.5110   1.5497
     1.5547   1.5849   1.6075   1.6510   1.6536   1.6668   1.6904   1.8170
     1.8391   1.8678   1.8801   1.9617   1.9952   2.1545   2.1628   2.3220
     2.3235   2.5016   2.5445   2.9890   3.3438   3.9572   4.1263   4.3603
     4.7395   5.7599   5.9108   6.1490   6.3245   6.5350   6.5718   6.8720
     7.2130   7.2956   7.6954   8.0019   8.6901   8.7393   9.2578   9.4848

     occupation numbers 
     1.0000   1.0000   1.0000   1.0000   1.0000   1.0000   1.0000   1.0000
     1.0000   1.0000   1.0000   1.0000   1.0000   1.0000   1.0000   1.0000
     1.0000   1.0000   1.0000   1.0000   1.0000   1.0000   1.0000   1.0000
     1.0000   1.0000   1.0000   1.0000   1.0000   1.0000   1.0000   1.0000
     1.0000   1.0000   1.0000   1.0000   1.0000   1.0000   1.0000   1.0000
     1.0000   1.0000   1.0000   1.0000   1.0000   1.0000   1.0000   1.0000
     1.0000   1.0000   1.0000   1.0000   1.0000   1.0000   1.0000   1.0000
     1.0000   1.0000   1.0000   1.0000   1.0000   1.0000   1.0000   1.0000
     1.0000   1.0000   1.0000   1.0000   1.0000   1.0000   1.0000   1.0000
     1.0000   1.0000   1.0000   1.0000   1.0000   1.0000   1.0000   1.0000
     1.0000   1.0000   1.0000   1.0000   1.0000   1.0000   1.0000   1.0000
     1.0000   1.0000   1.0000   1.0000   1.0000   1.0000   1.0000   1.0000
     1.0000   1.0000   1.0000   1.0000   1.0000   1.0000   1.0000   1.0000
     1.0000   1.0000   1.0000   1.0000   1.0000   1.0000   1.0000   1.0000
     1.0000   1.0000   1.0000   1.0000   1.0000   1.0000   1.0000   1.0000
     1.0000   1.0000   1.0000   1.0000   1.0000   1.0000   0.9998   0.9997
     0.9992   0.9974   0.9947   0.9893   0.9850   0.9461   0.9194   0.8404
     0.8263   0.7226   0.6237   0.4098   0.3970   0.3360   0.2400   0.0245
     0.0159   0.0090   0.0071   0.0014   0.0007   0.0000   0.0000   0.0000
     0.0000   0.0000   0.0000   0.0000   0.0000   0.0000   0.0000   0.0000
     0.0000   0.0000   0.0000   0.0000   0.0000   0.0000   0.0000   0.0000
     0.0000   0.0000   0.0000   0.0000   0.0000   0.0000   0.0000   0.0000

          k = 0.1250 0.2500 0.0000 ( 33628 PWs)   bands (ev):

  -101.3100-101.3021-101.2998-101.2923-101.1972-101.1887-101.1863-101.1789
  -101.1505-101.1015-101.0906-101.0871-100.7671-100.7564-100.7532-100.7454
   -62.1203 -62.0794 -62.0663 -62.0216 -61.6652 -61.6582 -61.6499 -61.6430
   -61.6391 -61.6383 -61.6245 -61.6224 -61.6020 -61.5985 -61.5881 -61.5763
   -61.5638 -61.5597 -61.5491 -61.5485 -61.5437 -61.5408 -61.5385 -61.5344
   -61.5291 -61.5240 -61.5149 -61.5011 -61.4650 -61.4546 -61.4520 -61.4448
   -61.4414 -61.4403 -61.4387 -61.4376 -61.2600 -61.2539 -61.2497 -61.2418
   -61.1743 -61.1668 -61.1619 -61.1561 -61.1137 -61.0994 -61.0970 -61.0905
   -13.9204  -6.1598  -4.7419  -4.3071  -4.1061  -3.5614  -3.1640  -2.6201
    -2.3827  -2.3633  -2.1766  -2.0357  -1.9804  -1.8114  -1.6136  -1.5298
    -1.5034  -1.4934  -1.4540  -1.2714  -1.2235  -1.1863  -1.1126  -0.8976
    -0.8429  -0.8032  -0.7345  -0.6263  -0.5578  -0.4787  -0.3870  -0.3192
    -0.2659  -0.2256  -0.1686  -0.0957  -0.0465   0.0173   0.0518   0.0640
     0.1158   0.1517   0.1637   0.2366   0.2453   0.2637   0.2822   0.3800
     0.4463   0.4772   0.5232   0.5921   0.6122   0.6662   0.6963   0.7857
     0.8703   0.9034   0.9081   0.9538   1.0034   1.0693   1.1013   1.1776
     1.1914   1.2356   1.2697   1.3351   1.3733   1.4191   1.4356   1.4605
     1.5078   1.5371   1.5573   1.5881   1.6400   1.6571   1.6691   1.7145
     1.7475   1.7807   1.8509   1.8934   1.9637   1.9868   2.0493   2.1208
     2.4284   2.4722   3.0799   3.3389   3.5758   3.8698   4.3187   4.8555
     4.9779   5.6263   5.9717   6.4369   6.4524   6.7246   6.7841   6.8358
     7.2824   7.4552   7.6881   8.1450   8.5618   8.9182   8.9922   9.2023

     occupation numbers 
     1.0000   1.0000   1.0000   1.0000   1.0000   1.0000   1.0000   1.0000
     1.0000   1.0000   1.0000   1.0000   1.0000   1.0000   1.0000   1.0000
     1.0000   1.0000   1.0000   1.0000   1.0000   1.0000   1.0000   1.0000
     1.0000   1.0000   1.0000   1.0000   1.0000   1.0000   1.0000   1.0000
     1.0000   1.0000   1.0000   1.0000   1.0000   1.0000   1.0000   1.0000
     1.0000   1.0000   1.0000   1.0000   1.0000   1.0000   1.0000   1.0000
     1.0000   1.0000   1.0000   1.0000   1.0000   1.0000   1.0000   1.0000
     1.0000   1.0000   1.0000   1.0000   1.0000   1.0000   1.0000   1.0000
     1.0000   1.0000   1.0000   1.0000   1.0000   1.0000   1.0000   1.0000
     1.0000   1.0000   1.0000   1.0000   1.0000   1.0000   1.0000   1.0000
     1.0000   1.0000   1.0000   1.0000   1.0000   1.0000   1.0000   1.0000
     1.0000   1.0000   1.0000   1.0000   1.0000   1.0000   1.0000   1.0000
     1.0000   1.0000   1.0000   1.0000   1.0000   1.0000   1.0000   1.0000
     1.0000   1.0000   1.0000   1.0000   1.0000   1.0000   1.0000   1.0000
     1.0000   1.0000   1.0000   1.0000   1.0000   1.0000   1.0000   1.0000
     1.0000   1.0000   1.0000   1.0000   1.0000   1.0000   1.0000   0.9999
     0.9999   0.9996   0.9993   0.9974   0.9944   0.9862   0.9810   0.9691
     0.9240   0.8713   0.8187   0.7093   0.4635   0.3807   0.3258   0.1630
     0.0915   0.0493   0.0126   0.0054   0.0013   0.0008   0.0002   0.0001
     0.0000   0.0000   0.0000   0.0000   0.0000   0.0000   0.0000   0.0000
     0.0000   0.0000   0.0000   0.0000   0.0000   0.0000   0.0000   0.0000
     0.0000   0.0000   0.0000   0.0000   0.0000   0.0000   0.0000   0.0000

          k = 0.1250 0.3750 0.0000 ( 33622 PWs)   bands (ev):

  -101.3082-101.3038-101.2981-101.2939-101.1952-101.1907-101.1846-101.1806
  -101.1504-101.1010-101.0903-101.0880-100.7662-100.7569-100.7523-100.7466
   -62.1106 -62.0884 -62.0557 -62.0314 -61.6606 -61.6528 -61.6456 -61.6379
   -61.6295 -61.6263 -61.6224 -61.6151 -61.6112 -61.6026 -61.5897 -61.5796
   -61.5727 -61.5660 -61.5576 -61.5491 -61.5439 -61.5422 -61.5380 -61.5321
   -61.5277 -61.5166 -61.5103 -61.4995 -61.4766 -61.4680 -61.4523 -61.4457
   -61.4413 -61.4410 -61.4381 -61.4376 -61.2588 -61.2551 -61.2330 -61.2250
   -61.1914 -61.1838 -61.1606 -61.1573 -61.1133 -61.0993 -61.0967 -61.0911
   -13.9093  -5.7418  -4.8547  -4.2886  -4.1381  -3.7477  -3.1566  -2.6775
    -2.3417  -2.1669  -2.0463  -1.8676  -1.7953  -1.6548  -1.5903  -1.5083
    -1.4457  -1.4170  -1.3783  -1.3424  -1.1887  -1.1246  -1.0946  -0.9813
    -0.8952  -0.8311  -0.7488  -0.7046  -0.6338  -0.5344  -0.4302  -0.4202
    -0.3967  -0.2489  -0.1997  -0.0930  -0.0735  -0.0645   0.0065   0.0699
     0.1188   0.1571   0.1690   0.2225   0.2405   0.2723   0.3081   0.3369
     0.3938   0.4503   0.5158   0.5597   0.5838   0.6161   0.6709   0.6789
     0.7315   0.7662   0.8725   0.8919   0.9400   0.9550   1.0158   1.1016
     1.1139   1.1227   1.1626   1.1795   1.2523   1.3275   1.3477   1.3568
     1.4216   1.4495   1.4807   1.5619   1.5874   1.6146   1.6428   1.6749
     1.7103   1.7823   1.8366   1.8951   1.9101   1.9748   2.0989   2.2391
     2.3916   2.7157   3.2858   3.4688   3.7284   3.9019   4.6903   4.8755
     5.2119   5.6206   5.8682   6.1950   6.9065   7.0131   7.0967   7.1944
     7.4270   7.7374   7.9578   8.1072   8.4180   8.4553   8.4958   8.7012

     occupation numbers 
     1.0000   1.0000   1.0000   1.0000   1.0000   1.0000   1.0000   1.0000
     1.0000   1.0000   1.0000   1.0000   1.0000   1.0000   1.0000   1.0000
     1.0000   1.0000   1.0000   1.0000   1.0000   1.0000   1.0000   1.0000
     1.0000   1.0000   1.0000   1.0000   1.0000   1.0000   1.0000   1.0000
     1.0000   1.0000   1.0000   1.0000   1.0000   1.0000   1.0000   1.0000
     1.0000   1.0000   1.0000   1.0000   1.0000   1.0000   1.0000   1.0000
     1.0000   1.0000   1.0000   1.0000   1.0000   1.0000   1.0000   1.0000
     1.0000   1.0000   1.0000   1.0000   1.0000   1.0000   1.0000   1.0000
     1.0000   1.0000   1.0000   1.0000   1.0000   1.0000   1.0000   1.0000
     1.0000   1.0000   1.0000   1.0000   1.0000   1.0000   1.0000   1.0000
     1.0000   1.0000   1.0000   1.0000   1.0000   1.0000   1.0000   1.0000
     1.0000   1.0000   1.0000   1.0000   1.0000   1.0000   1.0000   1.0000
     1.0000   1.0000   1.0000   1.0000   1.0000   1.0000   1.0000   1.0000
     1.0000   1.0000   1.0000   1.0000   1.0000   1.0000   1.0000   1.0000
     1.0000   1.0000   1.0000   1.0000   1.0000   1.0000   1.0000   1.0000
     1.0000   1.0000   1.0000   1.0000   1.0000   1.0000   1.0000   1.0000
     1.0000   1.0000   0.9999   0.9999   0.9995   0.9978   0.9967   0.9960
     0.9856   0.9750   0.9544   0.8047   0.7121   0.5897   0.4496   0.3007
     0.1749   0.0478   0.0167   0.0052   0.0039   0.0011   0.0001   0.0000
     0.0000   0.0000   0.0000   0.0000   0.0000   0.0000   0.0000   0.0000
     0.0000   0.0000   0.0000   0.0000   0.0000   0.0000   0.0000   0.0000
     0.0000   0.0000   0.0000   0.0000   0.0000   0.0000   0.0000   0.0000

          k = 0.1250-0.5000 0.0000 ( 33600 PWs)   bands (ev):

  -101.3066-101.3054-101.2966-101.2955-101.1930-101.1929-101.1826-101.1826
  -101.1503-101.1008-101.0901-101.0885-100.7658-100.7572-100.7517-100.7474
   -62.1002 -62.0984 -62.0447 -62.0421 -61.6570 -61.6553 -61.6385 -61.6366
   -61.6240 -61.6211 -61.6185 -61.6137 -61.6117 -61.6045 -61.5970 -61.5862
   -61.5707 -61.5672 -61.5656 -61.5476 -61.5460 -61.5411 -61.5378 -61.5307
   -61.5262 -61.5150 -61.5068 -61.4906 -61.4887 -61.4761 -61.4524 -61.4459
   -61.4414 -61.4411 -61.4379 -61.4376 -61.2579 -61.2559 -61.2169 -61.2082
   -61.2078 -61.2004 -61.1596 -61.1583 -61.1131 -61.0993 -61.0966 -61.0914
   -13.9047  -5.3437  -5.0850  -4.5178  -4.1116  -3.6267  -3.0811  -2.8698
    -2.2571  -2.1278  -1.8338  -1.7864  -1.7013  -1.5819  -1.5717  -1.5579
    -1.4772  -1.4201  -1.3693  -1.3047  -1.2179  -1.2036  -1.0125  -0.9671
    -0.8674  -0.8207  -0.8081  -0.7386  -0.6483  -0.5824  -0.5752  -0.4739
    -0.4180  -0.2126  -0.1886  -0.1398  -0.1318  -0.0183   0.0107   0.0215
     0.1194   0.1530   0.1640   0.1854   0.2476   0.2819   0.3017   0.4138
     0.4208   0.4619   0.4753   0.5377   0.6400   0.6439   0.6692   0.7243
     0.7280   0.7459   0.7626   0.7642   0.7826   0.8438   0.9351   0.9892
     1.0639   1.1063   1.1485   1.1637   1.2157   1.2428   1.3165   1.3237
     1.4085   1.4191   1.4390   1.5106   1.6230   1.6304   1.6587   1.6593
     1.7135   1.8509   1.8576   1.8729   1.8906   1.8942   2.2024   2.2716
     2.3774   2.9702   3.0900   3.3336   3.9006   4.4700   4.5730   4.7287
     5.2715   5.4336   5.8354   6.6113   6.6724   7.2487   7.2588   7.5734
     7.6081   7.6447   7.7255   7.9610   8.0054   8.4787   8.5178   8.8633

     occupation numbers 
     1.0000   1.0000   1.0000   1.0000   1.0000   1.0000   1.0000   1.0000
     1.0000   1.0000   1.0000   1.0000   1.0000   1.0000   1.0000   1.0000
     1.0000   1.0000   1.0000   1.0000   1.0000   1.0000   1.0000   1.0000
     1.0000   1.0000   1.0000   1.0000   1.0000   1.0000   1.0000   1.0000
     1.0000   1.0000   1.0000   1.0000   1.0000   1.0000   1.0000   1.0000
     1.0000   1.0000   1.0000   1.0000   1.0000   1.0000   1.0000   1.0000
     1.0000   1.0000   1.0000   1.0000   1.0000   1.0000   1.0000   1.0000
     1.0000   1.0000   1.0000   1.0000   1.0000   1.0000   1.0000   1.0000
     1.0000   1.0000   1.0000   1.0000   1.0000   1.0000   1.0000   1.0000
     1.0000   1.0000   1.0000   1.0000   1.0000   1.0000   1.0000   1.0000
     1.0000   1.0000   1.0000   1.0000   1.0000   1.0000   1.0000   1.0000
     1.0000   1.0000   1.0000   1.0000   1.0000   1.0000   1.0000   1.0000
     1.0000   1.0000   1.0000   1.0000   1.0000   1.0000   1.0000   1.0000
     1.0000   1.0000   1.0000   1.0000   1.0000   1.0000   1.0000   1.0000
     1.0000   1.0000   1.0000   1.0000   1.0000   1.0000   1.0000   1.0000
     1.0000   1.0000   1.0000   1.0000   1.0000   1.0000   1.0000   1.0000
     1.0000   1.0000   0.9999   0.9999   0.9998   0.9996   0.9982   0.9979
     0.9888   0.9862   0.9797   0.9200   0.5484   0.5118   0.3732   0.3702
     0.1658   0.0126   0.0110   0.0081   0.0057   0.0053   0.0000   0.0000
     0.0000   0.0000   0.0000   0.0000   0.0000   0.0000   0.0000   0.0000
     0.0000   0.0000   0.0000   0.0000   0.0000   0.0000   0.0000   0.0000
     0.0000   0.0000   0.0000   0.0000   0.0000   0.0000   0.0000   0.0000

          k = 0.2500 0.2500 0.0000 ( 33623 PWs)   bands (ev):

  -101.3088-101.3010-101.3009-101.2934-101.1959-101.1876-101.1875-101.1801
  -101.1504-101.1010-101.0906-101.0878-100.7664-100.7559-100.7535-100.7464
   -62.1136 -62.0728 -62.0717 -62.0279 -61.6572 -61.6521 -61.6411 -61.6386
   -61.6364 -61.6361 -61.6214 -61.6196 -61.6022 -61.5960 -61.5951 -61.5776
   -61.5629 -61.5624 -61.5568 -61.5562 -61.5502 -61.5407 -61.5403 -61.5344
   -61.5235 -61.5221 -61.5122 -61.5003 -61.4680 -61.4577 -61.4572 -61.4525
   -61.4414 -61.4407 -61.4388 -61.4378 -61.2488 -61.2488 -61.2427 -61.2425
   -61.1736 -61.1732 -61.1676 -61.1676 -61.1133 -61.0990 -61.0971 -61.0911
   -13.9106  -5.8949  -4.6319  -4.3703  -3.9392  -3.4325  -3.2918  -2.9322
    -2.3176  -2.3031  -2.1637  -2.0409  -1.8342  -1.7214  -1.5246  -1.4692
    -1.4311  -1.4042  -1.3581  -1.2779  -1.1538  -1.1124  -1.0545  -0.9117
    -0.8962  -0.7948  -0.7700  -0.7190  -0.5411  -0.5251  -0.4526  -0.4186
    -0.3571  -0.3427  -0.1199  -0.0918  -0.0544  -0.0305   0.0101   0.0501
     0.0538   0.1008   0.1588   0.1925   0.2030   0.2500   0.3155   0.3621
     0.3774   0.4437   0.4863   0.5949   0.5991   0.6763   0.7086   0.7410
     0.7812   0.8038   0.8161   0.8360   0.9200   1.0015   1.0732   1.1150
     1.1984   1.2141   1.2801   1.3018   1.3081   1.3197   1.3593   1.3772
     1.4515   1.5059   1.5177   1.5324   1.6129   1.6402   1.6772   1.6820
     1.6868   1.7333   1.7579   1.8261   1.8791   1.9254   1.9553   1.9611
     2.1857   2.7278   2.8825   3.0680   3.6541   4.0854   4.5248   4.9950
     5.4647   5.5480   6.1687   6.7263   6.8261   6.8567   7.0199   7.1403
     7.5312   7.8514   7.8700   8.2975   8.4871   8.8016   9.0451   9.3557

     occupation numbers 
     1.0000   1.0000   1.0000   1.0000   1.0000   1.0000   1.0000   1.0000
     1.0000   1.0000   1.0000   1.0000   1.0000   1.0000   1.0000   1.0000
     1.0000   1.0000   1.0000   1.0000   1.0000   1.0000   1.0000   1.0000
     1.0000   1.0000   1.0000   1.0000   1.0000   1.0000   1.0000   1.0000
     1.0000   1.0000   1.0000   1.0000   1.0000   1.0000   1.0000   1.0000
     1.0000   1.0000   1.0000   1.0000   1.0000   1.0000   1.0000   1.0000
     1.0000   1.0000   1.0000   1.0000   1.0000   1.0000   1.0000   1.0000
     1.0000   1.0000   1.0000   1.0000   1.0000   1.0000   1.0000   1.0000
     1.0000   1.0000   1.0000   1.0000   1.0000   1.0000   1.0000   1.0000
     1.0000   1.0000   1.0000   1.0000   1.0000   1.0000   1.0000   1.0000
     1.0000   1.0000   1.0000   1.0000   1.0000   1.0000   1.0000   1.0000
     1.0000   1.0000   1.0000   1.0000   1.0000   1.0000   1.0000   1.0000
     1.0000   1.0000   1.0000   1.0000   1.0000   1.0000   1.0000   1.0000
     1.0000   1.0000   1.0000   1.0000   1.0000   1.0000   1.0000   1.0000
     1.0000   1.0000   1.0000   1.0000   1.0000   1.0000   1.0000   1.0000
     1.0000   1.0000   1.0000   1.0000   1.0000   1.0000   1.0000   1.0000
     0.9998   0.9998   0.9991   0.9987   0.9985   0.9981   0.9958   0.9940
     0.9740   0.9266   0.9088   0.8814   0.5978   0.4628   0.2913   0.2717
     0.2534   0.1181   0.0756   0.0205   0.0072   0.0029   0.0016   0.0014
     0.0000   0.0000   0.0000   0.0000   0.0000   0.0000   0.0000   0.0000
     0.0000   0.0000   0.0000   0.0000   0.0000   0.0000   0.0000   0.0000
     0.0000   0.0000   0.0000   0.0000   0.0000   0.0000   0.0000   0.0000

          k = 0.2500 0.3750 0.0000 ( 33636 PWs)   bands (ev):

  -101.3071-101.3027-101.2993-101.2951-101.1940-101.1895-101.1858-101.1818
  -101.1503-101.1003-101.0904-101.0887-100.7655-100.7559-100.7530-100.7477
   -62.1037 -62.0813 -62.0617 -62.0376 -61.6509 -61.6433 -61.6389 -61.6339
   -61.6271 -61.6251 -61.6192 -61.6135 -61.6065 -61.6041 -61.5892 -61.5856
   -61.5735 -61.5662 -61.5649 -61.5596 -61.5544 -61.5414 -61.5388 -61.5325
   -61.5211 -61.5151 -61.5078 -61.4986 -61.4767 -61.4703 -61.4591 -61.4559
   -61.4412 -61.4408 -61.4387 -61.4378 -61.2475 -61.2438 -61.2321 -61.2258
   -61.1905 -61.1847 -61.1722 -61.1689 -61.1129 -61.0987 -61.0970 -61.0917
   -13.9007  -5.4826  -4.6512  -4.3082  -4.0209  -3.5906  -3.1560  -2.8778
    -2.5412  -2.3417  -1.9793  -1.8852  -1.6539  -1.6307  -1.4828  -1.4298
    -1.3855  -1.3166  -1.2767  -1.2293  -1.1793  -1.0870  -1.0463  -0.9401
    -0.8885  -0.8004  -0.7498  -0.6633  -0.6080  -0.5831  -0.5475  -0.5108
    -0.4788  -0.3367  -0.2442  -0.1669  -0.1525  -0.0564  -0.0401  -0.0046
     0.0442   0.1046   0.1543   0.2162   0.2267   0.2340   0.3148   0.3726
     0.4147   0.4746   0.5134   0.5319   0.5684   0.5973   0.6332   0.6614
     0.6899   0.7304   0.7769   0.8654   0.8757   0.9499   0.9713   1.0445
     1.0552   1.0997   1.1547   1.1889   1.2291   1.2499   1.2842   1.3257
     1.3586   1.4092   1.4299   1.4756   1.4948   1.5381   1.5592   1.6043
     1.6991   1.7398   1.7723   1.7908   1.8594   1.8855   1.9017   2.1396
     2.3113   2.5809   2.7587   3.2981   3.7275   4.1579   4.4887   5.1856
     5.3413   5.8391   6.3181   6.9630   7.1892   7.3131   7.3784   7.4723
     7.6189   8.0184   8.0968   8.3527   8.6767   8.7448   8.7987   9.1652

     occupation numbers 
     1.0000   1.0000   1.0000   1.0000   1.0000   1.0000   1.0000   1.0000
     1.0000   1.0000   1.0000   1.0000   1.0000   1.0000   1.0000   1.0000
     1.0000   1.0000   1.0000   1.0000   1.0000   1.0000   1.0000   1.0000
     1.0000   1.0000   1.0000   1.0000   1.0000   1.0000   1.0000   1.0000
     1.0000   1.0000   1.0000   1.0000   1.0000   1.0000   1.0000   1.0000
     1.0000   1.0000   1.0000   1.0000   1.0000   1.0000   1.0000   1.0000
     1.0000   1.0000   1.0000   1.0000   1.0000   1.0000   1.0000   1.0000
     1.0000   1.0000   1.0000   1.0000   1.0000   1.0000   1.0000   1.0000
     1.0000   1.0000   1.0000   1.0000   1.0000   1.0000   1.0000   1.0000
     1.0000   1.0000   1.0000   1.0000   1.0000   1.0000   1.0000   1.0000
     1.0000   1.0000   1.0000   1.0000   1.0000   1.0000   1.0000   1.0000
     1.0000   1.0000   1.0000   1.0000   1.0000   1.0000   1.0000   1.0000
     1.0000   1.0000   1.0000   1.0000   1.0000   1.0000   1.0000   1.0000
     1.0000   1.0000   1.0000   1.0000   1.0000   1.0000   1.0000   1.0000
     1.0000   1.0000   1.0000   1.0000   1.0000   1.0000   1.0000   1.0000
     1.0000   1.0000   1.0000   1.0000   1.0000   1.0000   1.0000   1.0000
     1.0000   1.0000   0.9999   0.9999   0.9997   0.9995   0.9991   0.9978
     0.9959   0.9887   0.9830   0.9586   0.9404   0.8690   0.8130   0.6382
     0.2096   0.1051   0.0577   0.0407   0.0106   0.0063   0.0046   0.0000
     0.0000   0.0000   0.0000   0.0000   0.0000   0.0000   0.0000   0.0000
     0.0000   0.0000   0.0000   0.0000   0.0000   0.0000   0.0000   0.0000
     0.0000   0.0000   0.0000   0.0000   0.0000   0.0000   0.0000   0.0000

          k = 0.2500-0.5000 0.0000 ( 33646 PWs)   bands (ev):

  -101.3055-101.3043-101.2977-101.2966-101.1918-101.1917-101.1838-101.1838
  -101.1502-101.1001-101.0902-101.0892-100.7651-100.7562-100.7524-100.7485
   -62.0933 -62.0914 -62.0507 -62.0483 -61.6473 -61.6445 -61.6335 -61.6313
   -61.6207 -61.6201 -61.6136 -61.6128 -61.6095 -61.6024 -61.5971 -61.5881
   -61.5782 -61.5739 -61.5667 -61.5584 -61.5553 -61.5415 -61.5379 -61.5313
   -61.5199 -61.5126 -61.5043 -61.4895 -61.4889 -61.4785 -61.4592 -61.4568
   -61.4411 -61.4408 -61.4386 -61.4378 -61.2467 -61.2447 -61.2161 -61.2085
   -61.2074 -61.2013 -61.1711 -61.1699 -61.1127 -61.0986 -61.0968 -61.0921
   -13.8966  -5.0892  -4.8558  -4.3272  -4.1871  -3.5100  -2.9346  -2.8710
    -2.7335  -2.4188  -1.8741  -1.7171  -1.6048  -1.6037  -1.4417  -1.4228
    -1.3951  -1.3408  -1.2953  -1.2068  -1.1129  -1.1103  -1.0340  -0.9508
    -0.8457  -0.7814  -0.7607  -0.6982  -0.6613  -0.5574  -0.5480  -0.5355
    -0.5211  -0.3227  -0.2987  -0.2659  -0.2317  -0.0892  -0.0693   0.0226
     0.0230   0.1146   0.1323   0.2246   0.2340   0.2837   0.3134   0.4035
     0.4379   0.4576   0.4579   0.4927   0.6038   0.6142   0.6839   0.6861
     0.7367   0.7465   0.7560   0.7605   0.8029   0.8166   0.9138   0.9320
     1.0319   1.0380   1.0681   1.1405   1.1603   1.1729   1.2769   1.2839
     1.3396   1.3555   1.3956   1.4219   1.5155   1.5240   1.5468   1.5774
     1.6942   1.7329   1.8064   1.8394   1.8491   1.8612   1.9497   2.2202
     2.3840   2.5401   2.5836   3.6497   3.6890   4.0645   4.4302   5.0706
     5.4573   6.2537   6.3537   6.9538   6.9812   7.3289   7.4707   7.8552
     7.8953   7.9646   7.9946   8.4472   8.5232   8.7822   8.8776   9.1407

     occupation numbers 
     1.0000   1.0000   1.0000   1.0000   1.0000   1.0000   1.0000   1.0000
     1.0000   1.0000   1.0000   1.0000   1.0000   1.0000   1.0000   1.0000
     1.0000   1.0000   1.0000   1.0000   1.0000   1.0000   1.0000   1.0000
     1.0000   1.0000   1.0000   1.0000   1.0000   1.0000   1.0000   1.0000
     1.0000   1.0000   1.0000   1.0000   1.0000   1.0000   1.0000   1.0000
     1.0000   1.0000   1.0000   1.0000   1.0000   1.0000   1.0000   1.0000
     1.0000   1.0000   1.0000   1.0000   1.0000   1.0000   1.0000   1.0000
     1.0000   1.0000   1.0000   1.0000   1.0000   1.0000   1.0000   1.0000
     1.0000   1.0000   1.0000   1.0000   1.0000   1.0000   1.0000   1.0000
     1.0000   1.0000   1.0000   1.0000   1.0000   1.0000   1.0000   1.0000
     1.0000   1.0000   1.0000   1.0000   1.0000   1.0000   1.0000   1.0000
     1.0000   1.0000   1.0000   1.0000   1.0000   1.0000   1.0000   1.0000
     1.0000   1.0000   1.0000   1.0000   1.0000   1.0000   1.0000   1.0000
     1.0000   1.0000   1.0000   1.0000   1.0000   1.0000   1.0000   1.0000
     1.0000   1.0000   1.0000   1.0000   1.0000   1.0000   1.0000   1.0000
     1.0000   1.0000   1.0000   1.0000   1.0000   1.0000   1.0000   1.0000
     1.0000   1.0000   1.0000   0.9999   0.9999   0.9999   0.9992   0.9991
     0.9972   0.9961   0.9914   0.9855   0.9125   0.8980   0.8479   0.7515
     0.2263   0.1189   0.0301   0.0158   0.0130   0.0103   0.0018   0.0000
     0.0000   0.0000   0.0000   0.0000   0.0000   0.0000   0.0000   0.0000
     0.0000   0.0000   0.0000   0.0000   0.0000   0.0000   0.0000   0.0000
     0.0000   0.0000   0.0000   0.0000   0.0000   0.0000   0.0000   0.0000

          k = 0.3750 0.3750 0.0000 ( 33610 PWs)   bands (ev):

  -101.3053-101.3010-101.3010-101.2968-101.1921-101.1878-101.1877-101.1836
  -101.1501-101.0996-101.0905-101.0896-100.7647-100.7548-100.7535-100.7491
   -62.0937 -62.0718 -62.0700 -62.0472 -61.6410 -61.6327 -61.6301 -61.6285
   -61.6233 -61.6189 -61.6150 -61.6105 -61.6084 -61.5992 -61.5960 -61.5871
   -61.5775 -61.5763 -61.5742 -61.5711 -61.5609 -61.5407 -61.5361 -61.5324
   -61.5129 -61.5125 -61.5039 -61.4973 -61.4798 -61.4741 -61.4702 -61.4650
   -61.4409 -61.4405 -61.4390 -61.4379 -61.2309 -61.2308 -61.2272 -61.2268
   -61.1895 -61.1889 -61.1860 -61.1859 -61.1125 -61.0979 -61.0972 -61.0925
   -13.8921  -5.0839  -4.4137  -4.3743  -3.8379  -3.6024  -3.3322  -2.9325
    -2.7429  -2.3326  -2.1835  -1.7379  -1.6371  -1.4736  -1.3861  -1.3500
    -1.3285  -1.2955  -1.2189  -1.1328  -1.0987  -1.0139  -0.8858  -0.8706
    -0.8355  -0.8015  -0.7484  -0.6924  -0.6864  -0.5905  -0.5780  -0.5555
    -0.5151  -0.4801  -0.3393  -0.2635  -0.2060  -0.1926  -0.1168  -0.0411
    -0.0044   0.0660   0.0827   0.2109   0.2521   0.2940   0.3339   0.3906
     0.4486   0.4734   0.4893   0.5132   0.5237   0.5745   0.6386   0.6499
     0.7078   0.7219   0.7444   0.7553   0.8495   0.8836   0.9269   0.9548
     0.9876   1.0584   1.1259   1.1315   1.1447   1.1456   1.2163   1.2534
     1.2599   1.3016   1.3035   1.3718   1.3949   1.4236   1.4357   1.4780
     1.4868   1.6900   1.7739   1.8077   1.8305   1.8735   1.8946   2.0766
     2.2601   2.5887   2.8359   3.1196   3.6895   4.3153   4.4602   5.1235
     5.5275   6.0484   6.5041   6.6859   7.6565   7.7104   7.7457   7.9594
     8.3607   8.3825   8.5813   8.6950   8.7631   9.0707   9.1775   9.1845

     occupation numbers 
     1.0000   1.0000   1.0000   1.0000   1.0000   1.0000   1.0000   1.0000
     1.0000   1.0000   1.0000   1.0000   1.0000   1.0000   1.0000   1.0000
     1.0000   1.0000   1.0000   1.0000   1.0000   1.0000   1.0000   1.0000
     1.0000   1.0000   1.0000   1.0000   1.0000   1.0000   1.0000   1.0000
     1.0000   1.0000   1.0000   1.0000   1.0000   1.0000   1.0000   1.0000
     1.0000   1.0000   1.0000   1.0000   1.0000   1.0000   1.0000   1.0000
     1.0000   1.0000   1.0000   1.0000   1.0000   1.0000   1.0000   1.0000
     1.0000   1.0000   1.0000   1.0000   1.0000   1.0000   1.0000   1.0000
     1.0000   1.0000   1.0000   1.0000   1.0000   1.0000   1.0000   1.0000
     1.0000   1.0000   1.0000   1.0000   1.0000   1.0000   1.0000   1.0000
     1.0000   1.0000   1.0000   1.0000   1.0000   1.0000   1.0000   1.0000
     1.0000   1.0000   1.0000   1.0000   1.0000   1.0000   1.0000   1.0000
     1.0000   1.0000   1.0000   1.0000   1.0000   1.0000   1.0000   1.0000
     1.0000   1.0000   1.0000   1.0000   1.0000   1.0000   1.0000   1.0000
     1.0000   1.0000   1.0000   1.0000   1.0000   1.0000   1.0000   1.0000
     1.0000   1.0000   1.0000   1.0000   1.0000   1.0000   1.0000   1.0000
     1.0000   1.0000   1.0000   1.0000   0.9999   0.9999   0.9998   0.9995
     0.9994   0.9987   0.9986   0.9946   0.9915   0.9850   0.9809   0.9566
     0.9488   0.2412   0.0561   0.0294   0.0188   0.0080   0.0053   0.0001
     0.0000   0.0000   0.0000   0.0000   0.0000   0.0000   0.0000   0.0000
     0.0000   0.0000   0.0000   0.0000   0.0000   0.0000   0.0000   0.0000
     0.0000   0.0000   0.0000   0.0000   0.0000   0.0000   0.0000   0.0000

          k = 0.3750-0.5000 0.0000 ( 33648 PWs)   bands (ev):

  -101.3038-101.3026-101.2995-101.2983-101.1900-101.1899-101.1857-101.1856
  -101.1501-101.0992-101.0904-101.0901-100.7643-100.7546-100.7531-100.7500
   -62.0832 -62.0811 -62.0599 -62.0578 -61.6369 -61.6306 -61.6276 -61.6240
   -61.6168 -61.6153 -61.6115 -61.6068 -61.6065 -61.5992 -61.5975 -61.5908
   -61.5882 -61.5829 -61.5774 -61.5765 -61.5600 -61.5405 -61.5346 -61.5321
   -61.5110 -61.5091 -61.5006 -61.4893 -61.4886 -61.4829 -61.4721 -61.4673
   -61.4406 -61.4405 -61.4391 -61.4379 -61.2300 -61.2278 -61.2152 -61.2094
   -61.2061 -61.2025 -61.1880 -61.1871 -61.1124 -61.0977 -61.0971 -61.0929
   -13.8885  -4.7129  -4.5566  -4.1987  -4.0796  -3.5020  -3.2979  -3.0453
    -2.7415  -2.4519  -2.1585  -1.8261  -1.4355  -1.4246  -1.3751  -1.3259
    -1.3237  -1.2775  -1.2676  -1.0199  -0.9869  -0.9396  -0.9280  -0.8824
    -0.8042  -0.7686  -0.7301  -0.6898  -0.6566  -0.6413  -0.6291  -0.5337
    -0.5326  -0.4600  -0.4536  -0.3651  -0.3258  -0.1376  -0.1216  -0.1053
    -0.0263   0.0401   0.0727   0.2184   0.2198   0.2886   0.3402   0.3578
     0.4477   0.4509   0.5319   0.5664   0.5767   0.5813   0.6818   0.6925
     0.7057   0.7135   0.7310   0.7416   0.8365   0.8376   0.8685   0.9023
     0.9277   0.9342   1.0189   1.1035   1.1111   1.1226   1.1327   1.1630
     1.2052   1.2312   1.2797   1.3270   1.3573   1.3725   1.4140   1.4324
     1.5431   1.6533   1.7867   1.8300   1.8518   1.8611   1.9286   2.1060
     2.1676   2.7060   2.7066   3.3491   3.4645   4.3126   4.4724   5.4095
     5.4644   5.9867   6.4447   6.9096   7.2617   7.8864   8.3254   8.3408
     8.3526   8.4542   8.5708   8.7588   8.7785   9.0847   9.2478   9.5170

     occupation numbers 
     1.0000   1.0000   1.0000   1.0000   1.0000   1.0000   1.0000   1.0000
     1.0000   1.0000   1.0000   1.0000   1.0000   1.0000   1.0000   1.0000
     1.0000   1.0000   1.0000   1.0000   1.0000   1.0000   1.0000   1.0000
     1.0000   1.0000   1.0000   1.0000   1.0000   1.0000   1.0000   1.0000
     1.0000   1.0000   1.0000   1.0000   1.0000   1.0000   1.0000   1.0000
     1.0000   1.0000   1.0000   1.0000   1.0000   1.0000   1.0000   1.0000
     1.0000   1.0000   1.0000   1.0000   1.0000   1.0000   1.0000   1.0000
     1.0000   1.0000   1.0000   1.0000   1.0000   1.0000   1.0000   1.0000
     1.0000   1.0000   1.0000   1.0000   1.0000   1.0000   1.0000   1.0000
     1.0000   1.0000   1.0000   1.0000   1.0000   1.0000   1.0000   1.0000
     1.0000   1.0000   1.0000   1.0000   1.0000   1.0000   1.0000   1.0000
     1.0000   1.0000   1.0000   1.0000   1.0000   1.0000   1.0000   1.0000
     1.0000   1.0000   1.0000   1.0000   1.0000   1.0000   1.0000   1.0000
     1.0000   1.0000   1.0000   1.0000   1.0000   1.0000   1.0000   1.0000
     1.0000   1.0000   1.0000   1.0000   1.0000   1.0000   1.0000   1.0000
     1.0000   1.0000   1.0000   1.0000   1.0000   1.0000   1.0000   1.0000
     1.0000   1.0000   1.0000   1.0000   1.0000   1.0000   1.0000   0.9999
     0.9998   0.9997   0.9991   0.9978   0.9960   0.9945   0.9876   0.9821
     0.8573   0.3987   0.0439   0.0190   0.0124   0.0103   0.0027   0.0001
     0.0000   0.0000   0.0000   0.0000   0.0000   0.0000   0.0000   0.0000
     0.0000   0.0000   0.0000   0.0000   0.0000   0.0000   0.0000   0.0000
     0.0000   0.0000   0.0000   0.0000   0.0000   0.0000   0.0000   0.0000

          k =-0.5000-0.5000 0.0000 ( 33696 PWs)   bands (ev):

  -101.3022-101.3010-101.3010-101.2999-101.1879-101.1878-101.1877-101.1877
  -101.1500-101.0988-101.0904-101.0904-100.7640-100.7535-100.7535-100.7511
   -62.0735 -62.0693 -62.0692 -62.0692 -61.6323 -61.6249 -61.6238 -61.6238
   -61.6129 -61.6068 -61.6068 -61.6036 -61.5983 -61.5959 -61.5959 -61.5949
   -61.5930 -61.5930 -61.5927 -61.5882 -61.5597 -61.5398 -61.5325 -61.5325
   -61.5066 -61.5066 -61.4938 -61.4882 -61.4882 -61.4868 -61.4856 -61.4705
   -61.4403 -61.4403 -61.4394 -61.4380 -61.2147 -61.2147 -61.2102 -61.2096
   -61.2051 -61.2051 -61.2038 -61.2031 -61.1122 -61.0972 -61.0972 -61.0934
   -13.8852  -4.4445  -4.4445  -4.0403  -3.8915  -3.7015  -3.7015  -3.1144
    -2.6071  -2.3584  -2.3584  -1.9411  -1.3941  -1.3176  -1.3148  -1.3032
    -1.3032  -1.2454  -1.2454  -0.8945  -0.8945  -0.8538  -0.8500  -0.7865
    -0.7319  -0.7319  -0.7218  -0.6947  -0.6906  -0.6693  -0.6693  -0.6614
    -0.6466  -0.5550  -0.5550  -0.3017  -0.2663  -0.2663  -0.1926  -0.0800
    -0.0242  -0.0242   0.0486   0.1498   0.2520   0.2520   0.2532   0.3278
     0.5529   0.5529   0.5846   0.5979   0.6003   0.6003   0.6024   0.6849
     0.7229   0.7229   0.7246   0.7343   0.8473   0.8473   0.8514   0.8903
     0.9154   0.9154   0.9448   0.9553   0.9995   1.0646   1.0646   1.0663
     1.1552   1.1969   1.1969   1.2836   1.3161   1.3170   1.3170   1.3721
     1.6355   1.7108   1.7108   1.8501   1.8711   1.8730   1.8730   1.9986
     2.1961   2.8657   2.8657   3.0815   3.3018   4.5534   4.5534   5.3467
     5.4687   6.1293   6.1293   7.5065   7.5067   7.5676   7.5677   8.6180
     8.9814   8.9835   8.9835   9.0897   9.1154   9.1154   9.1366   9.2812

     occupation numbers 
     1.0000   1.0000   1.0000   1.0000   1.0000   1.0000   1.0000   1.0000
     1.0000   1.0000   1.0000   1.0000   1.0000   1.0000   1.0000   1.0000
     1.0000   1.0000   1.0000   1.0000   1.0000   1.0000   1.0000   1.0000
     1.0000   1.0000   1.0000   1.0000   1.0000   1.0000   1.0000   1.0000
     1.0000   1.0000   1.0000   1.0000   1.0000   1.0000   1.0000   1.0000
     1.0000   1.0000   1.0000   1.0000   1.0000   1.0000   1.0000   1.0000
     1.0000   1.0000   1.0000   1.0000   1.0000   1.0000   1.0000   1.0000
     1.0000   1.0000   1.0000   1.0000   1.0000   1.0000   1.0000   1.0000
     1.0000   1.0000   1.0000   1.0000   1.0000   1.0000   1.0000   1.0000
     1.0000   1.0000   1.0000   1.0000   1.0000   1.0000   1.0000   1.0000
     1.0000   1.0000   1.0000   1.0000   1.0000   1.0000   1.0000   1.0000
     1.0000   1.0000   1.0000   1.0000   1.0000   1.0000   1.0000   1.0000
     1.0000   1.0000   1.0000   1.0000   1.0000   1.0000   1.0000   1.0000
     1.0000   1.0000   1.0000   1.0000   1.0000   1.0000   1.0000   1.0000
     1.0000   1.0000   1.0000   1.0000   1.0000   1.0000   1.0000   1.0000
     1.0000   1.0000   1.0000   1.0000   1.0000   1.0000   1.0000   1.0000
     1.0000   1.0000   1.0000   1.0000   1.0000   1.0000   1.0000   1.0000
     0.9999   0.9998   0.9998   0.9991   0.9982   0.9982   0.9982   0.9946
     0.4860   0.1733   0.1733   0.0128   0.0084   0.0081   0.0081   0.0007
     0.0000   0.0000   0.0000   0.0000   0.0000   0.0000   0.0000   0.0000
     0.0000   0.0000   0.0000   0.0000   0.0000   0.0000   0.0000   0.0000
     0.0000   0.0000   0.0000   0.0000   0.0000   0.0000   0.0000   0.0000

     the Fermi energy is     1.6327 ev

!    total energy              =   -5521.60630953 Ry
     estimated scf accuracy    <       0.00000100 Ry
     smearing contrib. (-TS)   =      -0.01731262 Ry
     internal energy E=F+TS    =   -5521.58899692 Ry

     The total energy is F=E-TS. E is the sum of the following terms:
     one-electron contribution =  -52923.22319660 Ry
     hartree contribution      =   26479.51269828 Ry
     xc contribution           =    -575.58325964 Ry
     ewald contribution        =   21505.78514026 Ry
     one-center paw contrib.   =      -8.08037922 Ry
      -> PAW hartree energy AE =       0.00000000 Ry
      -> PAW hartree energy PS =       0.00000000 Ry
      -> PAW xc energy AE      =       0.00000000 Ry
      -> PAW xc energy PS      =       0.00000000 Ry
      -> total E_H with PAW    =   26479.51269828 Ry
      -> total E_XC with PAW   =    -575.58325964 Ry

     total magnetization       =     9.22 Bohr mag/cell
     absolute magnetization    =    10.66 Bohr mag/cell

     convergence has been achieved in  60 iterations

     negative rho (up, down):  3.272E-04 3.904E-04

     Forces acting on atoms (cartesian axes, Ry/au):

     atom    1 type  1   force =     0.00000000    0.00000000    0.00994247
     atom    2 type  1   force =     0.00000000    0.00000000    0.00939170
     atom    3 type  1   force =     0.00000000    0.00000000    0.00939170
     atom    4 type  1   force =     0.00000000    0.00000000    0.01113522
     atom    5 type  1   force =    -0.00151570   -0.00151570   -0.01004499
     atom    6 type  1   force =     0.00151570   -0.00151570   -0.01004499
     atom    7 type  1   force =    -0.00151570    0.00151570   -0.01004499
     atom    8 type  1   force =     0.00151570    0.00151570   -0.01004499
     atom    9 type  1   force =     0.00000000    0.00000000   -0.00134279
     atom   10 type  1   force =     0.00000000    0.00000000   -0.00032259
     atom   11 type  1   force =     0.00000000    0.00000000   -0.00032259
     atom   12 type  1   force =     0.00000000    0.00000000   -0.00005006
     atom   13 type  1   force =     0.00341813    0.00341813    0.00203439
     atom   14 type  1   force =    -0.00341813    0.00341813    0.00203439
     atom   15 type  1   force =     0.00341813   -0.00341813    0.00203439
     atom   16 type  1   force =    -0.00341813   -0.00341813    0.00203439
     atom   17 type  2   force =     0.00000000    0.00000000   -0.00578062
     The non-local contrib.  to forces
     atom    1 type  1   force =     0.00000000    0.00000000   -0.35493791
     atom    2 type  1   force =     0.00000000    0.00000000   -0.35027280
     atom    3 type  1   force =     0.00000000    0.00000000   -0.35027280
     atom    4 type  1   force =     0.00000000    0.00000000   -0.34956644
     atom    5 type  1   force =    -0.00556040   -0.00556040    0.00753574
     atom    6 type  1   force =     0.00556040   -0.00556040    0.00753574
     atom    7 type  1   force =    -0.00556040    0.00556040    0.00753574
     atom    8 type  1   force =     0.00556040    0.00556040    0.00753574
     atom    9 type  1   force =     0.00000000    0.00000000    0.08450277
     atom   10 type  1   force =     0.00000000    0.00000000   -0.04832841
     atom   11 type  1   force =     0.00000000    0.00000000   -0.04832841
     atom   12 type  1   force =     0.00000000    0.00000000   -0.08579523
     atom   13 type  1   force =    -0.04192080   -0.04192080    0.21087126
     atom   14 type  1   force =     0.04192080   -0.04192080    0.21087126
     atom   15 type  1   force =    -0.04192080    0.04192080    0.21087126
     atom   16 type  1   force =     0.04192080    0.04192080    0.21087126
     atom   17 type  2   force =     0.00000000    0.00000000   -0.67704920
     The ionic contribution  to forces
     atom    1 type  1   force =     0.00000000    0.00000000 -391.63642550
     atom    2 type  1   force =    -0.00000000    0.00000000 -391.42060902
     atom    3 type  1   force =     0.00000000   -0.00000000 -391.42060902
     atom    4 type  1   force =    -0.00000000   -0.00000000 -391.18490730
     atom    5 type  1   force =    -0.89068026   -0.89068026 -138.68797868
     atom    6 type  1   force =     0.89068026   -0.89068026 -138.68797868
     atom    7 type  1   force =    -0.89068026    0.89068026 -138.68797868
     atom    8 type  1   force =     0.89068026    0.89068026 -138.68797868
     atom    9 type  1   force =     0.00000000    0.00000000  114.71246417
     atom   10 type  1   force =    -0.00000000    0.00000000  120.80917528
     atom   11 type  1   force =     0.00000000   -0.00000000  120.80917528
     atom   12 type  1   force =    -0.00000000   -0.00000000  125.20795470
     atom   13 type  1   force =    -5.68938652   -5.68938652  378.50971552
     atom   14 type  1   force =     5.68938652   -5.68938652  378.50971552
     atom   15 type  1   force =    -5.68938652    5.68938652  378.50971552
     atom   16 type  1   force =     5.68938652    5.68938652  378.50971552
     atom   17 type  2   force =     0.00000000    0.00000000  124.83683403
     The local contribution  to forces
     atom    1 type  1   force =    -0.00000000    0.00000000  391.99927611
     atom    2 type  1   force =    -0.00000004   -0.00000000  391.77852363
     atom    3 type  1   force =    -0.00000000   -0.00000004  391.77852363
     atom    4 type  1   force =    -0.00000004   -0.00000004  391.54389478
     atom    5 type  1   force =     0.89462582    0.89462582  138.67314236
     atom    6 type  1   force =    -0.89462582    0.89462582  138.67314236
     atom    7 type  1   force =     0.89462582   -0.89462582  138.67314236
     atom    8 type  1   force =    -0.89462582   -0.89462582  138.67314236
     atom    9 type  1   force =    -0.00000000   -0.00000000 -114.79859694
     atom   10 type  1   force =    -0.00000004   -0.00000000 -120.76024865
     atom   11 type  1   force =    -0.00000000   -0.00000004 -120.76024865
     atom   12 type  1   force =    -0.00000004   -0.00000004 -125.11939318
     atom   13 type  1   force =     5.73291565    5.73291565 -378.71754731
     atom   14 type  1   force =    -5.73291565    5.73291565 -378.71754731
     atom   15 type  1   force =     5.73291565   -5.73291565 -378.71754731
     atom   16 type  1   force =    -5.73291565   -5.73291565 -378.71754731
     atom   17 type  2   force =     0.00000000    0.00000000 -124.17733266
     The core correction contribution to forces
     atom    1 type  1   force =     0.00000000    0.00000000    0.00204785
     atom    2 type  1   force =    -0.00000000   -0.00000000    0.00171837
     atom    3 type  1   force =    -0.00000000   -0.00000000    0.00171837
     atom    4 type  1   force =    -0.00000000   -0.00000000    0.00164597
     atom    5 type  1   force =     0.00010098    0.00010098   -0.00034752
     atom    6 type  1   force =    -0.00010098    0.00010098   -0.00034752
     atom    7 type  1   force =     0.00010098   -0.00010098   -0.00034752
     atom    8 type  1   force =    -0.00010098   -0.00010098   -0.00034752
     atom    9 type  1   force =    -0.00000000   -0.00000000    0.00275079
     atom   10 type  1   force =    -0.00000000   -0.00000000    0.00142638
     atom   11 type  1   force =    -0.00000000   -0.00000000    0.00142638
     atom   12 type  1   force =    -0.00000000   -0.00000000   -0.00053490
     atom   13 type  1   force =     0.00189781    0.00189781   -0.00059951
     atom   14 type  1   force =    -0.00189781    0.00189781   -0.00059951
     atom   15 type  1   force =     0.00189781   -0.00189781   -0.00059951
     atom   16 type  1   force =    -0.00189781   -0.00189781   -0.00059951
     atom   17 type  2   force =     0.00000000    0.00000000    0.01128558
     The Hubbard contrib.    to forces
     atom    1 type  1   force =     0.00000000    0.00000000    0.00000000
     atom    2 type  1   force =     0.00000000    0.00000000    0.00000000
     atom    3 type  1   force =     0.00000000    0.00000000    0.00000000
     atom    4 type  1   force =     0.00000000    0.00000000    0.00000000
     atom    5 type  1   force =     0.00000000    0.00000000    0.00000000
     atom    6 type  1   force =     0.00000000    0.00000000    0.00000000
     atom    7 type  1   force =     0.00000000    0.00000000    0.00000000
     atom    8 type  1   force =     0.00000000    0.00000000    0.00000000
     atom    9 type  1   force =     0.00000000    0.00000000    0.00000000
     atom   10 type  1   force =     0.00000000    0.00000000    0.00000000
     atom   11 type  1   force =     0.00000000    0.00000000    0.00000000
     atom   12 type  1   force =     0.00000000    0.00000000    0.00000000
     atom   13 type  1   force =     0.00000000    0.00000000    0.00000000
     atom   14 type  1   force =     0.00000000    0.00000000    0.00000000
     atom   15 type  1   force =     0.00000000    0.00000000    0.00000000
     atom   16 type  1   force =     0.00000000    0.00000000    0.00000000
     atom   17 type  2   force =     0.00000000    0.00000000    0.00000000
     The SCF correction term to forces
     atom    1 type  1   force =    -0.00000000   -0.00000000   -0.00000000
     atom    2 type  1   force =    -0.00000000   -0.00000000   -0.00000000
     atom    3 type  1   force =    -0.00000000   -0.00000000   -0.00000000
     atom    4 type  1   force =    -0.00000000   -0.00000000   -0.00000000
     atom    5 type  1   force =    -0.00000000   -0.00000000   -0.00000000
     atom    6 type  1   force =     0.00000000   -0.00000000   -0.00000000
     atom    7 type  1   force =    -0.00000000    0.00000000   -0.00000000
     atom    8 type  1   force =     0.00000000    0.00000000   -0.00000000
     atom    9 type  1   force =    -0.00000000   -0.00000000   -0.00308373
     atom   10 type  1   force =    -0.00000000   -0.00000000   -0.00296734
     atom   11 type  1   force =    -0.00000000   -0.00000000   -0.00296734
     atom   12 type  1   force =    -0.00000000   -0.00000000   -0.00290161
     atom   13 type  1   force =    -0.00008800   -0.00008800   -0.00102573
     atom   14 type  1   force =     0.00008800   -0.00008800   -0.00102573
     atom   15 type  1   force =    -0.00008800    0.00008800   -0.00102573
     atom   16 type  1   force =     0.00008800    0.00008800   -0.00102573
     atom   17 type  2   force =     0.00000000    0.00000000   -0.00000000

     Total force =     0.010585     Total SCF correction =     0.006309
     SCF correction compared to forces is large: reduce conv_thr to get better values


     Computing stress (Cartesian axis) and pressure


     negative rho (up, down):  3.272E-04 3.904E-04
          total   stress  (Ry/bohr**3)                   (kbar)     P=      -12.10
  -0.00010331   0.00000000   0.00000000          -15.20        0.00        0.00
   0.00000000  -0.00010331   0.00000000            0.00      -15.20        0.00
   0.00000000   0.00000000  -0.00004005            0.00        0.00       -5.89

     kinetic stress (kbar)  17199.75      0.00      0.00
                                0.00  17199.75      0.00
                                0.00      0.00  17326.90

     local   stress (kbar)**********     -0.00     -0.00
                               -0.00**********     -0.00
                               -0.00     -0.001706015.54

     nonloc. stress (kbar)   7947.41      0.00      0.00
                                0.00   7947.41      0.00
                                0.00      0.00   7991.44

     hartree stress (kbar) 867752.96      0.00      0.00
                                0.00 867752.96      0.00
                                0.00      0.00-826674.00

     exc-cor stress (kbar)  -5235.14      0.00      0.00
                                0.00  -5235.14      0.00
                                0.00      0.00  -5245.23

     corecor stress (kbar)  -1014.49      0.00     -0.00
                                0.00  -1014.49     -0.00
                               -0.00     -0.00  -1014.82

     ewald   stress (kbar) 818264.49      0.00      0.00
                                0.00 818264.49      0.00
                                0.00      0.00-898405.72

     hubbard stress (kbar)      0.00      0.00      0.00
                                0.00      0.00      0.00
                                0.00      0.00      0.00

     DFT-D   stress (kbar)      0.00      0.00      0.00
                                0.00      0.00      0.00
                                0.00      0.00      0.00

     XDM     stress (kbar)      0.00      0.00      0.00
                                0.00      0.00      0.00
                                0.00      0.00      0.00

     dft-nl  stress (kbar)      0.00      0.00      0.00
                                0.00      0.00      0.00
                                0.00      0.00      0.00

     TS-vdW  stress (kbar)      0.00      0.00      0.00
                                0.00      0.00      0.00
                                0.00      0.00      0.00

     MDB     stress (kbar)      0.00      0.00      0.00
                                0.00      0.00      0.00
                                0.00      0.00      0.00

     3D-RISM stress (kbar)      0.00      0.00      0.00
                                0.00      0.00      0.00
                                0.00      0.00      0.00


     Writing all to output data dir ./output_vc/n-ni100-0.5A.save/ :
     XML data file, charge density, pseudopotentials, collected wavefunctions

     init_run     :     33.95s CPU     34.90s WALL (       1 calls)
     electrons    :  20113.47s CPU  20316.43s WALL (       1 calls)
     forces       :     13.95s CPU     14.14s WALL (       1 calls)
     stress       :     46.86s CPU     47.17s WALL (       1 calls)

     Called by init_run:
     wfcinit      :     31.45s CPU     32.20s WALL (       1 calls)
     wfcinit:atom :      0.25s CPU      0.26s WALL (      30 calls)
     wfcinit:wfcr :     29.33s CPU     29.76s WALL (      30 calls)
     potinit      :      1.06s CPU      1.11s WALL (       1 calls)
     hinit0       :      0.26s CPU      0.28s WALL (       1 calls)

     Called by electrons:
     c_bands      :  19458.51s CPU  19634.33s WALL (      60 calls)
     sum_band     :    549.63s CPU    558.50s WALL (      60 calls)
     v_of_rho     :     36.90s CPU     37.12s WALL (      61 calls)
     v_h          :      0.91s CPU      0.92s WALL (      61 calls)
     v_xc         :     37.12s CPU     37.34s WALL (      63 calls)
     newd         :     43.24s CPU     46.37s WALL (      61 calls)
     PAW_pot      :     15.90s CPU     15.93s WALL (      61 calls)
     mix_rho      :      8.28s CPU      8.33s WALL (      60 calls)

     Called by c_bands:
     init_us_2    :     46.77s CPU     47.16s WALL (    3690 calls)
     ccgdiagg     :  17853.53s CPU  17996.39s WALL (    1832 calls)
     wfcrot       :   1592.27s CPU   1602.69s WALL (    1832 calls)

     Called by sum_band:
     sum_band:wei :      0.51s CPU      0.51s WALL (      60 calls)
     sum_band:loo :    465.17s CPU    468.68s WALL (      60 calls)
     sum_band:buf :      9.59s CPU      9.70s WALL (    1800 calls)
     sum_band:ini :     22.72s CPU     22.90s WALL (    1800 calls)
     sum_band:cal :    163.75s CPU    164.25s WALL (    1800 calls)
     sum_band:bec :      1.73s CPU      1.74s WALL (    1800 calls)
     addusdens    :     80.12s CPU     85.45s WALL (      60 calls)
                                        0.00s GPU  (      60 calls)
     addusd:skk   :      0.58s CPU      0.60s WALL (     120 calls)
                                        0.00s GPU  (     120 calls)

     Called by *cgdiagg:
     h_psi        :   9316.39s CPU   9395.93s WALL (  789432 calls)
     s_psi        :   4886.58s CPU   4926.12s WALL ( 1577032 calls)

     Called by h_psi:
     h_psi:calbec :   3134.27s CPU   3159.97s WALL (  789432 calls)
     vloc_psi     :   2866.43s CPU   2896.99s WALL (  789432 calls)
     add_vuspsi   :   3283.43s CPU   3308.74s WALL (  789432 calls)
     hs_1psi      :  10692.75s CPU  10779.42s WALL (  787600 calls)
     s_1psi       :   4664.86s CPU   4700.26s WALL (  787600 calls)

     General routines
     calbec       :   5648.13s CPU   5700.06s WALL ( 1579342 calls)
     fft          :     15.41s CPU     15.53s WALL (    1563 calls)
     ffts         :      0.40s CPU      0.41s WALL (     242 calls)
     fftw         :   2206.68s CPU   2228.12s WALL ( 2539024 calls)
     interpolate  :      1.60s CPU      1.62s WALL (     122 calls)

     Parallel routines

     PAW routines
     PAW_pot      :     15.90s CPU     15.93s WALL (      61 calls)
     PAW_symme    :      0.04s CPU      0.04s WALL (     121 calls)

     PWSCF        :      5h36m CPU      5h41m WALL


   This run was terminated on:  14:56:21  27Jul2026            

=------------------------------------------------------------------------------=
   JOB DONE.
=------------------------------------------------------------------------------=
