
     Program PWSCF v.7.4.1 starts on  1Jun2026 at 20:17:10 

     This program is part of the open-source Quantum ESPRESSO suite
     for quantum simulation of materials; please cite
         "P. Giannozzi et al., J. Phys.:Condens. Matter 21 395502 (2009);
         "P. Giannozzi et al., J. Phys.:Condens. Matter 29 465901 (2017);
         "P. Giannozzi et al., J. Chem. Phys. 152 154105 (2020);
          URL http://www.quantum-espresso.org", 
     in publications or presentations arising from this work. More details at
     http://www.quantum-espresso.org/quote

     Parallel version (MPI), running on    20 processors

     MPI processes distributed on     1 nodes
     455179 MiB available memory on the printing compute node when the environment starts

     Reading input from pt-h-6.in

     Current dimensions of program PWSCF are:
     Max number of different atomic species (ntypx) = 10
     Max number of k-points (npk) =  40000
     Max angular momentum in pseudopotentials (lmaxx) =  4
     file Pt.pbe-spn-kjpaw_psl.1.0.0.UPF: wavefunction(s)  5P 5D renormalized
     file H.pbe-kjpaw_psl.1.0.0.UPF: wavefunction(s)  1S renormalized

     IMPORTANT: XC functional enforced from input :
     Exchange-correlation= RPBE
                           (   1   4  44   4   0   0   0)
     Any further DFT definition will be discarded
     Please, verify this is what you really want


     R & G space division:  proc/nbgrp/npool/nimage =      20
     Subspace diagonalization in iterative solution of the eigenvalue problem:
     one sub-group per band group will be used
     custom distributed-memory algorithm (size of sub-group:  2*  2 procs)


     Parallelization info
     --------------------
     sticks:   dense  smooth     PW     G-vecs:    dense   smooth      PW
     Min         234      94     26                61957    15680    2365
     Max         236      95     29                61972    15691    2376
     Sum        4687    1891    535              1239223   313709   47419

     Using Slab Decomposition



     bravais-lattice index     =            0
     lattice parameter (alat)  =      10.6493  a.u.
     unit-cell volume          =    4992.8716 (a.u.)^3
     number of atoms/cell      =           17
     number of atomic types    =            2
     number of electrons       =       289.00
     number of Kohn-Sham states=          174
     kinetic-energy cutoff     =      60.0000  Ry
     charge density cutoff     =     600.0000  Ry
     scf convergence threshold =      1.0E-07
     mixing beta               =       0.7000
     number of iterations used =           12  local-TF  mixing
     Exchange-correlation= RPBE
                           (   1   4  44   4   0   0   0)

     celldm(1)=  10.649257  celldm(2)=   0.000000  celldm(3)=   0.000000
     celldm(4)=   0.000000  celldm(5)=   0.000000  celldm(6)=   0.000000

     crystal axes: (cart. coord. in units of alat)
               a(1) = (   1.000000   0.000000   0.000000 )  
               a(2) = (   0.500000   0.866025   0.000000 )  
               a(3) = (   0.000000   0.000000   4.773774 )  

     reciprocal axes: (cart. coord. in units 2 pi/alat)
               b(1) = (  1.000000 -0.577350  0.000000 )  
               b(2) = (  0.000000  1.154701  0.000000 )  
               b(3) = (  0.000000  0.000000  0.209478 )  


     PseudoPot. # 1 for Pt read from file:
     ./pseudo/Pt.pbe-spn-kjpaw_psl.1.0.0.UPF
     MD5 check sum: f62f2ab5688b80eb25add38ff45b0645
     Pseudo is Projector augmented-wave + core cor, Zval = 18.0
     Generated using &quot;atomic&quot; code by A. Dal Corso  v.6.3
     Shape of augmentation charge: PSQ
     Using radial grid of 1277 points,  6 beta functions with: 
                l(1) =   0
                l(2) =   0
                l(3) =   1
                l(4) =   1
                l(5) =   2
                l(6) =   2
     Q(r) pseudized with 0 coefficients 


     PseudoPot. # 2 for H  read from file:
     ./pseudo/H.pbe-kjpaw_psl.1.0.0.UPF
     MD5 check sum: 9bec32682bb16d1c1d5c3eec51b3b3df
     Pseudo is Projector augmented-wave, Zval =  1.0
     Generated using &quot;atomic&quot; code by A. Dal Corso  v.6.3MaX
     Shape of augmentation charge: PSQ
     Using radial grid of  929 points,  2 beta functions with: 
                l(1) =   0
                l(2) =   0
     Q(r) pseudized with 0 coefficients 


     atomic species   valence    mass     pseudopotential
     Pt               18.00   195.08000     Pt( 1.00)
     H                 1.00     1.00800     H ( 1.00)

     Starting magnetic structure 
     atomic species   magnetization
     Pt              0.000
     H               1.000

     No symmetry found


                                    s                        frac. trans.

      isym =  1     identity                                     

 cryst.   s( 1) = (     1          0          0      )
                  (     0          1          0      )
                  (     0          0          1      )

 cart.    s( 1) = (  1.0000000  0.0000000  0.0000000 )
                  (  0.0000000  1.0000000  0.0000000 )
                  (  0.0000000  0.0000000  1.0000000 )


   Cartesian axes

     site n.     atom                  positions (alat units)
         1        Pt     tau(   1) = (   0.0000000   0.0000000   0.3549029  )
         2        Pt     tau(   2) = (   0.5000000   0.0000000   0.3549029  )
         3        Pt     tau(   3) = (   0.2500000   0.4330127   0.3549029  )
         4        Pt     tau(   4) = (   0.7500000   0.4330127   0.3549029  )
         5        Pt     tau(   5) = (   0.2500000   0.1443376   0.7631512  )
         6        Pt     tau(   6) = (   0.7500000   0.1443376   0.7631512  )
         7        Pt     tau(   7) = (   0.5000000   0.5773503   0.7631512  )
         8        Pt     tau(   8) = (   1.0000000   0.5773503   0.7631512  )
         9        Pt     tau(   9) = (   0.0003032   0.2894623   1.1693924  )
        10        Pt     tau(  10) = (   0.5002982   0.2888075   1.1713799  )
        11        Pt     tau(  11) = (   0.2495889   0.7214139   1.1694408  )
        12        Pt     tau(  12) = (   0.7508427   0.7215152   1.1693912  )
        13        Pt     tau(  13) = (   0.0008969   0.0004084   1.5763975  )
        14        Pt     tau(  14) = (   0.5009591  -0.0044324   1.5910532  )
        15        Pt     tau(  15) = (   0.2468773   0.4358134   1.5910346  )
        16        Pt     tau(  16) = (   0.7556961   0.4361915   1.5909450  )
        17        H      tau(  17) = (   0.5011775   0.2891908   2.1233653  )

     Fixed atoms
     site n.  direction
         1    0   0   0
         2    0   0   0
         3    0   0   0
         4    0   0   0
         5    0   0   0
         6    0   0   0
         7    0   0   0
         8    0   0   0
         9    1   1   1
        10    1   1   1
        11    1   1   1
        12    1   1   1
        13    1   1   1
        14    1   1   1
        15    1   1   1
        16    1   1   1
        17    1   1   1

   Crystallographic axes

     site n.     atom                  positions (cryst. coord.)
         1        Pt     tau(   1) = (  0.0000000  0.0000000  0.0743443  )
         2        Pt     tau(   2) = (  0.5000000  0.0000000  0.0743443  )
         3        Pt     tau(   3) = (  0.0000000  0.5000000  0.0743443  )
         4        Pt     tau(   4) = (  0.5000000  0.5000000  0.0743443  )
         5        Pt     tau(   5) = (  0.1666667  0.1666667  0.1598633  )
         6        Pt     tau(   6) = (  0.6666667  0.1666667  0.1598633  )
         7        Pt     tau(   7) = (  0.1666667  0.6666667  0.1598633  )
         8        Pt     tau(   8) = (  0.6666667  0.6666667  0.1598633  )
         9        Pt     tau(   9) = ( -0.1668180  0.3342423  0.2449618  )
        10        Pt     tau(  10) = (  0.3335551  0.3334862  0.2453782  )
        11        Pt     tau(  11) = ( -0.1669197  0.8330171  0.2449720  )
        12        Pt     tau(  12) = (  0.3342757  0.8331340  0.2449616  )
        13        Pt     tau(  13) = (  0.0006612  0.0004716  0.3302204  )
        14        Pt     tau(  14) = (  0.5035181 -0.0051181  0.3332904  )
        15        Pt     tau(  15) = ( -0.0047397  0.5032339  0.3332865  )
        16        Pt     tau(  16) = (  0.5038609  0.5036705  0.3332678  )
        17        H      tau(  17) = (  0.3342131  0.3339288  0.4447980  )

     number of k points=    34  Fermi-Dirac smearing, width (Ry)=  0.0037
                       cart. coord. in units 2pi/alat
        k(    1) = (   0.0000000   0.0000000   0.0000000), wk =   0.0156250
        k(    2) = (   0.0000000   0.1443376   0.0000000), wk =   0.0312500
        k(    3) = (   0.0000000   0.2886751   0.0000000), wk =   0.0312500
        k(    4) = (   0.0000000   0.4330127   0.0000000), wk =   0.0312500
        k(    5) = (   0.0000000  -0.5773503   0.0000000), wk =   0.0156250
        k(    6) = (   0.1250000  -0.0721688   0.0000000), wk =   0.0312500
        k(    7) = (   0.1250000   0.0721688   0.0000000), wk =   0.0312500
        k(    8) = (   0.1250000   0.2165064   0.0000000), wk =   0.0312500
        k(    9) = (   0.1250000   0.3608439   0.0000000), wk =   0.0312500
        k(   10) = (   0.1250000  -0.6495191   0.0000000), wk =   0.0312500
        k(   11) = (   0.1250000  -0.5051815   0.0000000), wk =   0.0312500
        k(   12) = (   0.1250000  -0.3608439   0.0000000), wk =   0.0312500
        k(   13) = (   0.1250000  -0.2165064   0.0000000), wk =   0.0312500
        k(   14) = (   0.2500000  -0.1443376   0.0000000), wk =   0.0312500
        k(   15) = (   0.2500000   0.0000000   0.0000000), wk =   0.0312500
        k(   16) = (   0.2500000   0.1443376   0.0000000), wk =   0.0312500
        k(   17) = (   0.2500000   0.2886751   0.0000000), wk =   0.0312500
        k(   18) = (   0.2500000  -0.7216878   0.0000000), wk =   0.0312500
        k(   19) = (   0.2500000  -0.5773503   0.0000000), wk =   0.0312500
        k(   20) = (   0.2500000  -0.4330127   0.0000000), wk =   0.0312500
        k(   21) = (   0.2500000  -0.2886751   0.0000000), wk =   0.0312500
        k(   22) = (   0.3750000  -0.2165064   0.0000000), wk =   0.0312500
        k(   23) = (   0.3750000  -0.0721688   0.0000000), wk =   0.0312500
        k(   24) = (   0.3750000   0.0721688   0.0000000), wk =   0.0312500
        k(   25) = (   0.3750000   0.2165064   0.0000000), wk =   0.0312500
        k(   26) = (   0.3750000  -0.7938566   0.0000000), wk =   0.0312500
        k(   27) = (   0.3750000  -0.6495191   0.0000000), wk =   0.0312500
        k(   28) = (   0.3750000  -0.5051815   0.0000000), wk =   0.0312500
        k(   29) = (   0.3750000  -0.3608439   0.0000000), wk =   0.0312500
        k(   30) = (  -0.5000000   0.2886751   0.0000000), wk =   0.0156250
        k(   31) = (  -0.5000000   0.4330127   0.0000000), wk =   0.0312500
        k(   32) = (  -0.5000000   0.5773503   0.0000000), wk =   0.0312500
        k(   33) = (  -0.5000000   0.7216878   0.0000000), wk =   0.0312500
        k(   34) = (  -0.5000000  -0.2886751   0.0000000), wk =   0.0156250

                       cryst. coord.
        k(    1) = (   0.0000000   0.0000000   0.0000000), wk =   0.0156250
        k(    2) = (   0.0000000   0.1250000   0.0000000), wk =   0.0312500
        k(    3) = (   0.0000000   0.2500000   0.0000000), wk =   0.0312500
        k(    4) = (   0.0000000   0.3750000   0.0000000), wk =   0.0312500
        k(    5) = (   0.0000000  -0.5000000   0.0000000), wk =   0.0156250
        k(    6) = (   0.1250000   0.0000000   0.0000000), wk =   0.0312500
        k(    7) = (   0.1250000   0.1250000   0.0000000), wk =   0.0312500
        k(    8) = (   0.1250000   0.2500000   0.0000000), wk =   0.0312500
        k(    9) = (   0.1250000   0.3750000   0.0000000), wk =   0.0312500
        k(   10) = (   0.1250000  -0.5000000   0.0000000), wk =   0.0312500
        k(   11) = (   0.1250000  -0.3750000   0.0000000), wk =   0.0312500
        k(   12) = (   0.1250000  -0.2500000   0.0000000), wk =   0.0312500
        k(   13) = (   0.1250000  -0.1250000   0.0000000), wk =   0.0312500
        k(   14) = (   0.2500000   0.0000000   0.0000000), wk =   0.0312500
        k(   15) = (   0.2500000   0.1250000   0.0000000), wk =   0.0312500
        k(   16) = (   0.2500000   0.2500000   0.0000000), wk =   0.0312500
        k(   17) = (   0.2500000   0.3750000   0.0000000), wk =   0.0312500
        k(   18) = (   0.2500000  -0.5000000   0.0000000), wk =   0.0312500
        k(   19) = (   0.2500000  -0.3750000   0.0000000), wk =   0.0312500
        k(   20) = (   0.2500000  -0.2500000   0.0000000), wk =   0.0312500
        k(   21) = (   0.2500000  -0.1250000   0.0000000), wk =   0.0312500
        k(   22) = (   0.3750000   0.0000000   0.0000000), wk =   0.0312500
        k(   23) = (   0.3750000   0.1250000   0.0000000), wk =   0.0312500
        k(   24) = (   0.3750000   0.2500000   0.0000000), wk =   0.0312500
        k(   25) = (   0.3750000   0.3750000   0.0000000), wk =   0.0312500
        k(   26) = (   0.3750000  -0.5000000   0.0000000), wk =   0.0312500
        k(   27) = (   0.3750000  -0.3750000   0.0000000), wk =   0.0312500
        k(   28) = (   0.3750000  -0.2500000   0.0000000), wk =   0.0312500
        k(   29) = (   0.3750000  -0.1250000   0.0000000), wk =   0.0312500
        k(   30) = (  -0.5000000   0.0000000   0.0000000), wk =   0.0156250
        k(   31) = (  -0.5000000   0.1250000   0.0000000), wk =   0.0312500
        k(   32) = (  -0.5000000   0.2500000   0.0000000), wk =   0.0312500
        k(   33) = (  -0.5000000   0.3750000   0.0000000), wk =   0.0312500
        k(   34) = (  -0.5000000  -0.5000000   0.0000000), wk =   0.0156250

     Dense  grid:  1239223 G-vectors     FFT dimensions: (  90,  90, 400)

     Smooth grid:   313709 G-vectors     FFT dimensions: (  54,  54, 256)

     Dynamical RAM for                 wfc:       5.20 MB

     Dynamical RAM for     wfc (w. buffer):     358.88 MB

     Dynamical RAM for           str. fact:       1.89 MB

     Dynamical RAM for           local pot:       0.00 MB

     Dynamical RAM for          nlocal pot:       8.67 MB

     Dynamical RAM for                qrad:       3.93 MB

     Dynamical RAM for          rho,v,vnew:      13.09 MB

     Dynamical RAM for               rhoin:       4.36 MB

     Dynamical RAM for            rho*nmix:      45.39 MB

     Dynamical RAM for           G-vectors:       3.67 MB

     Dynamical RAM for          h,s,v(r/c):       1.39 MB

     Dynamical RAM for          <psi|beta>:       0.77 MB

     Dynamical RAM for                 psi:      10.40 MB

     Dynamical RAM for                hpsi:      10.40 MB

     Dynamical RAM for                spsi:      10.40 MB

     Dynamical RAM for      wfcinit/wfcrot:      11.10 MB

     Dynamical RAM for           addusdens:     191.96 MB

     Dynamical RAM for          addusforce:     220.45 MB

     Dynamical RAM for         addusstress:     191.49 MB

     Estimated static dynamical RAM per process >     404.74 MB

     Estimated max dynamical RAM per process >     670.59 MB

     Estimated total dynamical RAM >      13.10 GB
     Generating pointlists ...
     new r_m :   0.2026 (alat units)  2.1571 (a.u.) for type    1
     new r_m :   0.2508 (alat units)  2.6704 (a.u.) for type    2

     Initial potential from superposition of free atoms

     starting charge     288.9978, renormalised to     289.0000

     negative rho (up, down):  9.597E-05 1.262E-04
     Starting wfcs are  161 randomized atomic wfcs +   13 random wfcs
     Checking if some PAW data can be deallocated... 
       PAW data deallocated on    1 nodes for type:  1
       PAW data deallocated on   19 nodes for type:  2

     total cpu time spent up to now is       77.8 secs

     per-process dynamical memory:   462.3 Mb

     Self-consistent Calculation

     iteration #  1     ecut=    60.00 Ry     beta= 0.70
     Davidson diagonalization with overlap

---- Real-time Memory Report at c_bands before calling an iterative solver
           473 MiB given to the printing process from OS
           451 MiB allocation reported by mallinfo(arena+hblkhd)
        446935 MiB available memory on the node where the printing process lives
------------------
     ethr =  1.00E-02,  avg # of iterations =  7.3

     Threshold (ethr) on eigenvalues was too large:
     Diagonalizing with lowered threshold

     Davidson diagonalization with overlap

---- Real-time Memory Report at c_bands before calling an iterative solver
           663 MiB given to the printing process from OS
           479 MiB allocation reported by mallinfo(arena+hblkhd)
        446277 MiB available memory on the node where the printing process lives
------------------
     ethr =  9.11E-05,  avg # of iterations =  9.5

     negative rho (up, down):  1.219E-06 5.241E-06

     total cpu time spent up to now is      717.9 secs

     total energy              =  -14685.61254745 Ry
     estimated scf accuracy    <       0.26025165 Ry

     total magnetization       =     0.90 Bohr mag/cell
     absolute magnetization    =     1.02 Bohr mag/cell

     iteration #  2     ecut=    60.00 Ry     beta= 0.70
     Davidson diagonalization with overlap

---- Real-time Memory Report at c_bands before calling an iterative solver
           673 MiB given to the printing process from OS
           489 MiB allocation reported by mallinfo(arena+hblkhd)
        445756 MiB available memory on the node where the printing process lives
------------------
     ethr =  9.01E-05,  avg # of iterations =  3.8

     negative rho (up, down):  1.104E-06 1.201E-06

     total cpu time spent up to now is      960.6 secs

     total energy              =  -14685.63097882 Ry
     estimated scf accuracy    <       0.49700513 Ry

     total magnetization       =     0.88 Bohr mag/cell
     absolute magnetization    =     1.06 Bohr mag/cell

     iteration #  3     ecut=    60.00 Ry     beta= 0.70
     Davidson diagonalization with overlap

---- Real-time Memory Report at c_bands before calling an iterative solver
           674 MiB given to the printing process from OS
           490 MiB allocation reported by mallinfo(arena+hblkhd)
        445672 MiB available memory on the node where the printing process lives
------------------
     ethr =  9.01E-05,  avg # of iterations =  1.0

     negative rho (up, down):  1.260E-07 1.310E-07

     total cpu time spent up to now is     1164.4 secs

     total energy              =  -14685.62559057 Ry
     estimated scf accuracy    <       0.10902358 Ry

     total magnetization       =     0.87 Bohr mag/cell
     absolute magnetization    =     1.07 Bohr mag/cell

     iteration #  4     ecut=    60.00 Ry     beta= 0.70
     Davidson diagonalization with overlap

---- Real-time Memory Report at c_bands before calling an iterative solver
           675 MiB given to the printing process from OS
           491 MiB allocation reported by mallinfo(arena+hblkhd)
        445640 MiB available memory on the node where the printing process lives
------------------
     ethr =  3.77E-05,  avg # of iterations =  8.8

     negative rho (up, down):  1.521E-07 1.541E-07

     total cpu time spent up to now is     1442.3 secs

     total energy              =  -14685.62751444 Ry
     estimated scf accuracy    <       0.01680648 Ry

     total magnetization       =     0.85 Bohr mag/cell
     absolute magnetization    =     1.12 Bohr mag/cell

     iteration #  5     ecut=    60.00 Ry     beta= 0.70
     Davidson diagonalization with overlap

---- Real-time Memory Report at c_bands before calling an iterative solver
           676 MiB given to the printing process from OS
           492 MiB allocation reported by mallinfo(arena+hblkhd)
        445552 MiB available memory on the node where the printing process lives
------------------
     ethr =  5.82E-06,  avg # of iterations =  8.2

     negative rho (up, down):  3.721E-07 3.740E-07

     total cpu time spent up to now is     1718.6 secs

     total energy              =  -14685.62683813 Ry
     estimated scf accuracy    <       0.01347875 Ry

     total magnetization       =     0.84 Bohr mag/cell
     absolute magnetization    =     1.14 Bohr mag/cell

     iteration #  6     ecut=    60.00 Ry     beta= 0.70
     Davidson diagonalization with overlap

---- Real-time Memory Report at c_bands before calling an iterative solver
           677 MiB given to the printing process from OS
           493 MiB allocation reported by mallinfo(arena+hblkhd)
        445469 MiB available memory on the node where the printing process lives
------------------
     ethr =  4.66E-06,  avg # of iterations =  6.2

     negative rho (up, down):  3.778E-07 3.838E-07

     total cpu time spent up to now is     1971.5 secs

     total energy              =  -14685.62624425 Ry
     estimated scf accuracy    <       0.00801983 Ry

     total magnetization       =     0.84 Bohr mag/cell
     absolute magnetization    =     1.15 Bohr mag/cell

     iteration #  7     ecut=    60.00 Ry     beta= 0.70
     Davidson diagonalization with overlap

---- Real-time Memory Report at c_bands before calling an iterative solver
           678 MiB given to the printing process from OS
           494 MiB allocation reported by mallinfo(arena+hblkhd)
        445397 MiB available memory on the node where the printing process lives
------------------
     ethr =  2.78E-06,  avg # of iterations =  9.7

     negative rho (up, down):  3.320E-07 3.783E-07

     total cpu time spent up to now is     2255.1 secs

     total energy              =  -14685.62598006 Ry
     estimated scf accuracy    <       0.00275687 Ry

     total magnetization       =     0.84 Bohr mag/cell
     absolute magnetization    =     1.16 Bohr mag/cell

     iteration #  8     ecut=    60.00 Ry     beta= 0.70
     Davidson diagonalization with overlap

---- Real-time Memory Report at c_bands before calling an iterative solver
           679 MiB given to the printing process from OS
           495 MiB allocation reported by mallinfo(arena+hblkhd)
        445383 MiB available memory on the node where the printing process lives
------------------
     ethr =  9.54E-07,  avg # of iterations =  9.6

     negative rho (up, down):  9.726E-06 1.141E-05

     total cpu time spent up to now is     2539.3 secs

     total energy              =  -14685.62591233 Ry
     estimated scf accuracy    <       0.00149310 Ry

     total magnetization       =     0.84 Bohr mag/cell
     absolute magnetization    =     1.16 Bohr mag/cell

     iteration #  9     ecut=    60.00 Ry     beta= 0.70
     Davidson diagonalization with overlap

---- Real-time Memory Report at c_bands before calling an iterative solver
           680 MiB given to the printing process from OS
           496 MiB allocation reported by mallinfo(arena+hblkhd)
        445348 MiB available memory on the node where the printing process lives
------------------
     ethr =  5.17E-07,  avg # of iterations =  8.3

     negative rho (up, down):  6.879E-04 9.767E-04

     total cpu time spent up to now is     2813.9 secs

     total energy              =  -14685.62600811 Ry
     estimated scf accuracy    <       0.00101335 Ry

     total magnetization       =     0.85 Bohr mag/cell
     absolute magnetization    =     1.17 Bohr mag/cell

     iteration # 10     ecut=    60.00 Ry     beta= 0.70
     Davidson diagonalization with overlap

---- Real-time Memory Report at c_bands before calling an iterative solver
           681 MiB given to the printing process from OS
           497 MiB allocation reported by mallinfo(arena+hblkhd)
        445332 MiB available memory on the node where the printing process lives
------------------
     ethr =  3.51E-07,  avg # of iterations =  8.1

     negative rho (up, down):  1.788E-03 3.083E-03

     total cpu time spent up to now is     3090.5 secs

     total energy              =  -14685.62671573 Ry
     estimated scf accuracy    <       0.00056020 Ry

     total magnetization       =     0.86 Bohr mag/cell
     absolute magnetization    =     1.16 Bohr mag/cell

     iteration # 11     ecut=    60.00 Ry     beta= 0.70
     Davidson diagonalization with overlap

---- Real-time Memory Report at c_bands before calling an iterative solver
           682 MiB given to the printing process from OS
           498 MiB allocation reported by mallinfo(arena+hblkhd)
        445316 MiB available memory on the node where the printing process lives
------------------
     c_bands:  1 eigenvalues not converged
     ethr =  1.94E-07,  avg # of iterations =  7.2

     negative rho (up, down):  1.309E-03 2.418E-03

     total cpu time spent up to now is     3368.5 secs

     total energy              =  -14685.62681814 Ry
     estimated scf accuracy    <       0.00020836 Ry

     total magnetization       =     0.87 Bohr mag/cell
     absolute magnetization    =     1.15 Bohr mag/cell

     iteration # 12     ecut=    60.00 Ry     beta= 0.70
     Davidson diagonalization with overlap

---- Real-time Memory Report at c_bands before calling an iterative solver
           689 MiB given to the printing process from OS
           499 MiB allocation reported by mallinfo(arena+hblkhd)
        445252 MiB available memory on the node where the printing process lives
------------------
     ethr =  7.21E-08,  avg # of iterations =  5.5

     negative rho (up, down):  2.786E-04 5.704E-04

     total cpu time spent up to now is     3618.8 secs

     total energy              =  -14685.62644080 Ry
     estimated scf accuracy    <       0.00008665 Ry

     total magnetization       =     0.88 Bohr mag/cell
     absolute magnetization    =     1.15 Bohr mag/cell

     iteration # 13     ecut=    60.00 Ry     beta= 0.70
     Davidson diagonalization with overlap

---- Real-time Memory Report at c_bands before calling an iterative solver
           693 MiB given to the printing process from OS
           500 MiB allocation reported by mallinfo(arena+hblkhd)
        445244 MiB available memory on the node where the printing process lives
------------------
     c_bands:  1 eigenvalues not converged
     c_bands:  1 eigenvalues not converged
     c_bands:  1 eigenvalues not converged
     ethr =  3.00E-08,  avg # of iterations = 11.0

     negative rho (up, down):  2.374E-04 3.857E-04

     total cpu time spent up to now is     3929.9 secs

     total energy              =  -14685.62620446 Ry
     estimated scf accuracy    <       0.00004460 Ry

     total magnetization       =     0.89 Bohr mag/cell
     absolute magnetization    =     1.14 Bohr mag/cell

     iteration # 14     ecut=    60.00 Ry     beta= 0.70
     Davidson diagonalization with overlap

---- Real-time Memory Report at c_bands before calling an iterative solver
           694 MiB given to the printing process from OS
           501 MiB allocation reported by mallinfo(arena+hblkhd)
        445226 MiB available memory on the node where the printing process lives
------------------
     c_bands:  1 eigenvalues not converged
     c_bands:  1 eigenvalues not converged
     c_bands:  1 eigenvalues not converged
     c_bands:  1 eigenvalues not converged
     c_bands:  1 eigenvalues not converged
     c_bands:  1 eigenvalues not converged
     ethr =  1.54E-08,  avg # of iterations =  6.0

     negative rho (up, down):  2.237E-04 3.096E-04

     total cpu time spent up to now is     4190.6 secs

     total energy              =  -14685.62618388 Ry
     estimated scf accuracy    <       0.00002484 Ry

     total magnetization       =     0.89 Bohr mag/cell
     absolute magnetization    =     1.14 Bohr mag/cell

     iteration # 15     ecut=    60.00 Ry     beta= 0.70
     Davidson diagonalization with overlap

---- Real-time Memory Report at c_bands before calling an iterative solver
           694 MiB given to the printing process from OS
           501 MiB allocation reported by mallinfo(arena+hblkhd)
        445196 MiB available memory on the node where the printing process lives
------------------
     c_bands:  1 eigenvalues not converged
     c_bands:  1 eigenvalues not converged
     c_bands:  1 eigenvalues not converged
     c_bands:  1 eigenvalues not converged
     c_bands:  1 eigenvalues not converged
     c_bands:  1 eigenvalues not converged
     ethr =  8.60E-09,  avg # of iterations =  3.7

     negative rho (up, down):  2.765E-04 3.053E-04

     total cpu time spent up to now is     4429.6 secs

     total energy              =  -14685.62617770 Ry
     estimated scf accuracy    <       0.00001257 Ry

     total magnetization       =     0.90 Bohr mag/cell
     absolute magnetization    =     1.14 Bohr mag/cell

     iteration # 16     ecut=    60.00 Ry     beta= 0.70
     Davidson diagonalization with overlap

---- Real-time Memory Report at c_bands before calling an iterative solver
           694 MiB given to the printing process from OS
           501 MiB allocation reported by mallinfo(arena+hblkhd)
        445220 MiB available memory on the node where the printing process lives
------------------
     ethr =  4.35E-09,  avg # of iterations =  2.1

     negative rho (up, down):  2.573E-04 2.875E-04

     total cpu time spent up to now is     4661.8 secs

     total energy              =  -14685.62618011 Ry
     estimated scf accuracy    <       0.00000123 Ry

     total magnetization       =     0.91 Bohr mag/cell
     absolute magnetization    =     1.14 Bohr mag/cell

     iteration # 17     ecut=    60.00 Ry     beta= 0.70
     Davidson diagonalization with overlap

---- Real-time Memory Report at c_bands before calling an iterative solver
           694 MiB given to the printing process from OS
           501 MiB allocation reported by mallinfo(arena+hblkhd)
        445242 MiB available memory on the node where the printing process lives
------------------
     ethr =  4.24E-10,  avg # of iterations =  2.5

     negative rho (up, down):  2.361E-04 2.753E-04

     total cpu time spent up to now is     4898.0 secs

     total energy              =  -14685.62618349 Ry
     estimated scf accuracy    <       0.00000104 Ry

     total magnetization       =     0.91 Bohr mag/cell
     absolute magnetization    =     1.14 Bohr mag/cell

     iteration # 18     ecut=    60.00 Ry     beta= 0.70
     Davidson diagonalization with overlap

---- Real-time Memory Report at c_bands before calling an iterative solver
           694 MiB given to the printing process from OS
           501 MiB allocation reported by mallinfo(arena+hblkhd)
        445226 MiB available memory on the node where the printing process lives
------------------
     ethr =  3.59E-10,  avg # of iterations =  2.4

     negative rho (up, down):  2.326E-04 2.788E-04

     total cpu time spent up to now is     5137.5 secs

     total energy              =  -14685.62618602 Ry
     estimated scf accuracy    <       0.00000039 Ry

     total magnetization       =     0.91 Bohr mag/cell
     absolute magnetization    =     1.13 Bohr mag/cell

     iteration # 19     ecut=    60.00 Ry     beta= 0.70
     Davidson diagonalization with overlap

---- Real-time Memory Report at c_bands before calling an iterative solver
           694 MiB given to the printing process from OS
           501 MiB allocation reported by mallinfo(arena+hblkhd)
        445205 MiB available memory on the node where the printing process lives
------------------
     ethr =  1.35E-10,  avg # of iterations =  2.3

     negative rho (up, down):  2.419E-04 2.830E-04

     Magnetic moment per site  (integrated on atomic sphere of radius R)
     atom   1 (R=0.203)  charge= 15.9176  magn=  0.0024
     atom   2 (R=0.203)  charge= 15.9172  magn= -0.0050
     atom   3 (R=0.203)  charge= 15.9173  magn= -0.0050
     atom   4 (R=0.203)  charge= 15.9172  magn= -0.0050
     atom   5 (R=0.203)  charge= 15.9720  magn= -0.0057
     atom   6 (R=0.203)  charge= 15.9719  magn= -0.0057
     atom   7 (R=0.203)  charge= 15.9719  magn= -0.0058
     atom   8 (R=0.203)  charge= 15.9732  magn= -0.0047
     atom   9 (R=0.203)  charge= 15.9629  magn= -0.0013
     atom  10 (R=0.203)  charge= 15.9538  magn=  0.0111
     atom  11 (R=0.203)  charge= 15.9628  magn= -0.0014
     atom  12 (R=0.203)  charge= 15.9630  magn= -0.0013
     atom  13 (R=0.203)  charge= 15.9134  magn=  0.0214
     atom  14 (R=0.203)  charge= 15.9030  magn=  0.0078
     atom  15 (R=0.203)  charge= 15.9029  magn=  0.0078
     atom  16 (R=0.203)  charge= 15.9032  magn=  0.0077
     atom  17 (R=0.251)  charge=  0.9626  magn=  0.8759

     total cpu time spent up to now is     5373.5 secs

     End of self-consistent calculation

 ------ SPIN UP ------------


          k = 0.0000 0.0000 0.0000 ( 39143 PWs)   bands (ev):

   -94.4774 -94.4579 -94.4482 -94.4480 -94.4462 -94.4338 -94.4333 -94.3892
   -94.0580 -94.0299 -94.0139 -94.0138 -94.0079 -93.9625 -93.9499 -93.9493
   -48.7840 -48.7833 -48.7807 -48.7617 -48.7461 -48.7460 -48.7153 -48.6019
   -48.5984 -48.5982 -48.5521 -48.5515 -48.5500 -48.5376 -48.5372 -48.5277
   -48.5007 -48.4966 -48.4961 -48.4875 -48.4673 -48.4663 -48.4264 -48.4255
   -48.3987 -48.3946 -48.3945 -48.3879 -48.3873 -48.3528 -48.1878 -48.1869
   -48.1868 -48.1728 -48.1724 -48.1366 -48.1136 -48.1133 -48.0756 -48.0751
   -47.9860 -47.9649 -47.9393 -47.9392 -47.9335 -47.8733 -47.8512 -47.8506
    -5.1159  -3.8200  -2.7382  -2.6323  -2.3861  -2.3793  -2.3786  -2.2198
    -2.2196  -2.2186  -1.7902  -1.7700  -1.7697  -1.5418  -1.5418  -1.5410
    -1.4518  -1.4514  -1.4260  -0.6552  -0.6520  -0.6514   0.2765   0.2792
     0.2880   0.3837   0.3857   0.3918   0.4418   0.5782   0.6004   0.6005
     0.7125   0.7125   0.8755   0.8770   0.8855   1.0910   1.0916   1.1968
     1.1970   1.2869   1.4481   1.4925   1.4941   1.7978   1.9425   1.9439
     1.9835   2.0073   2.0565   2.0591   2.5182   2.5239   2.8601   2.8652
     3.0831   3.0832   3.0940   3.2755   3.2791   3.2899   3.5132   3.5145
     3.7824   3.8085   3.8100   3.8454   3.8513   3.8518   3.8648   3.9509
     3.9559   4.0774   4.0811   4.0818   4.2442   4.2444   4.2484   4.4846
     4.4849   4.4959   4.5154   4.5155   4.5422   4.8513   4.9864   4.9892
     5.0702   6.3747   6.3758   6.3788   6.6568   6.6753   6.6783   6.9646
     6.9702   6.9735   8.9366   9.1188   9.6674   9.6722   9.6740   9.7327
     9.8090   9.8092   9.8730  10.3307  10.3349  10.3553

     occupation numbers 
     1.0000   1.0000   1.0000   1.0000   1.0000   1.0000   1.0000   1.0000
     1.0000   1.0000   1.0000   1.0000   1.0000   1.0000   1.0000   1.0000
     1.0000   1.0000   1.0000   1.0000   1.0000   1.0000   1.0000   1.0000
     1.0000   1.0000   1.0000   1.0000   1.0000   1.0000   1.0000   1.0000
     1.0000   1.0000   1.0000   1.0000   1.0000   1.0000   1.0000   1.0000
     1.0000   1.0000   1.0000   1.0000   1.0000   1.0000   1.0000   1.0000
     1.0000   1.0000   1.0000   1.0000   1.0000   1.0000   1.0000   1.0000
     1.0000   1.0000   1.0000   1.0000   1.0000   1.0000   1.0000   1.0000
     1.0000   1.0000   1.0000   1.0000   1.0000   1.0000   1.0000   1.0000
     1.0000   1.0000   1.0000   1.0000   1.0000   1.0000   1.0000   1.0000
     1.0000   1.0000   1.0000   1.0000   1.0000   1.0000   1.0000   1.0000
     1.0000   1.0000   1.0000   1.0000   1.0000   1.0000   1.0000   1.0000
     1.0000   1.0000   1.0000   1.0000   1.0000   1.0000   1.0000   1.0000
     1.0000   1.0000   1.0000   1.0000   1.0000   1.0000   1.0000   1.0000
     1.0000   1.0000   1.0000   1.0000   1.0000   1.0000   1.0000   1.0000
     1.0000   1.0000   1.0000   1.0000   1.0000   1.0000   0.9999   0.9999
     0.9790   0.9652   0.9642   0.9299   0.9217   0.9211   0.9000   0.6163
     0.5925   0.1136   0.1063   0.1050   0.0045   0.0045   0.0042   0.0000
     0.0000   0.0000   0.0000   0.0000   0.0000   0.0000   0.0000   0.0000
     0.0000   0.0000   0.0000   0.0000   0.0000   0.0000   0.0000   0.0000
     0.0000   0.0000   0.0000   0.0000   0.0000   0.0000   0.0000   0.0000
     0.0000   0.0000   0.0000   0.0000   0.0000   0.0000

          k = 0.0000 0.1443 0.0000 ( 39121 PWs)   bands (ev):

   -94.4769 -94.4579 -94.4486 -94.4482 -94.4457 -94.4340 -94.4334 -94.3893
   -94.0580 -94.0293 -94.0143 -94.0138 -94.0081 -93.9622 -93.9500 -93.9495
   -48.7774 -48.7755 -48.7716 -48.7547 -48.7400 -48.7376 -48.7121 -48.6057
   -48.5979 -48.5971 -48.5611 -48.5602 -48.5478 -48.5343 -48.5329 -48.5275
   -48.5061 -48.5030 -48.4948 -48.4898 -48.4731 -48.4696 -48.4372 -48.4283
   -48.3925 -48.3891 -48.3857 -48.3828 -48.3793 -48.3459 -48.1938 -48.1931
   -48.1843 -48.1795 -48.1727 -48.1392 -48.1248 -48.1162 -48.0861 -48.0778
   -47.9857 -47.9638 -47.9399 -47.9391 -47.9337 -47.8727 -47.8516 -47.8510
    -4.9839  -3.6898  -2.6052  -2.5082  -2.3875  -2.2931  -2.2887  -2.1767
    -2.1216  -2.1211  -1.7251  -1.7086  -1.7041  -1.5402  -1.4447  -1.4428
    -1.3827  -1.3363  -1.3163  -0.6181  -0.6161  -0.6102   0.2141   0.2230
     0.2779   0.3752   0.4202   0.4413   0.4456   0.4679   0.5299   0.6952
     0.7850   0.8153   0.8876   0.8898   0.9129   1.0187   1.0888   1.1779
     1.2848   1.2863   1.3279   1.3716   1.3898   1.6531   1.6991   1.7299
     1.9430   1.9731   2.1590   2.1702   2.4384   2.4551   2.8729   2.8831
     2.9711   2.9911   3.0757   3.0905   3.1345   3.1384   3.1937   3.4383
     3.4418   3.5137   3.5743   3.6082   3.7479   3.7503   3.7981   3.8631
     3.8677   3.9339   3.9575   4.0367   4.0503   4.1345   4.1775   4.1868
     4.2531   4.3166   4.3298   4.3436   4.3905   4.3990   5.1552   5.3922
     5.4002   5.5262   6.0240   6.2380   6.2446   6.7440   6.7531   7.8038
     7.8197   8.1213   9.0258   9.2091   9.6061   9.6642   9.6710   9.8197
     9.8912   9.9373  10.2486  10.4741  10.5361  10.6066

     occupation numbers 
     1.0000   1.0000   1.0000   1.0000   1.0000   1.0000   1.0000   1.0000
     1.0000   1.0000   1.0000   1.0000   1.0000   1.0000   1.0000   1.0000
     1.0000   1.0000   1.0000   1.0000   1.0000   1.0000   1.0000   1.0000
     1.0000   1.0000   1.0000   1.0000   1.0000   1.0000   1.0000   1.0000
     1.0000   1.0000   1.0000   1.0000   1.0000   1.0000   1.0000   1.0000
     1.0000   1.0000   1.0000   1.0000   1.0000   1.0000   1.0000   1.0000
     1.0000   1.0000   1.0000   1.0000   1.0000   1.0000   1.0000   1.0000
     1.0000   1.0000   1.0000   1.0000   1.0000   1.0000   1.0000   1.0000
     1.0000   1.0000   1.0000   1.0000   1.0000   1.0000   1.0000   1.0000
     1.0000   1.0000   1.0000   1.0000   1.0000   1.0000   1.0000   1.0000
     1.0000   1.0000   1.0000   1.0000   1.0000   1.0000   1.0000   1.0000
     1.0000   1.0000   1.0000   1.0000   1.0000   1.0000   1.0000   1.0000
     1.0000   1.0000   1.0000   1.0000   1.0000   1.0000   1.0000   1.0000
     1.0000   1.0000   1.0000   1.0000   1.0000   1.0000   1.0000   1.0000
     1.0000   1.0000   1.0000   1.0000   1.0000   1.0000   1.0000   1.0000
     1.0000   1.0000   1.0000   1.0000   1.0000   1.0000   1.0000   1.0000
     1.0000   0.9999   0.9997   0.9993   0.9894   0.9889   0.9715   0.9030
     0.8947   0.6931   0.5850   0.2242   0.1805   0.0393   0.0170   0.0142
     0.0038   0.0011   0.0008   0.0006   0.0002   0.0002   0.0000   0.0000
     0.0000   0.0000   0.0000   0.0000   0.0000   0.0000   0.0000   0.0000
     0.0000   0.0000   0.0000   0.0000   0.0000   0.0000   0.0000   0.0000
     0.0000   0.0000   0.0000   0.0000   0.0000   0.0000

          k = 0.0000 0.2887 0.0000 ( 39161 PWs)   bands (ev):

   -94.4758 -94.4578 -94.4498 -94.4482 -94.4443 -94.4352 -94.4334 -94.3895
   -94.0578 -94.0274 -94.0158 -94.0138 -94.0085 -93.9612 -93.9510 -93.9497
   -48.7607 -48.7575 -48.7441 -48.7351 -48.7237 -48.7149 -48.7023 -48.6129
   -48.5993 -48.5978 -48.5782 -48.5773 -48.5394 -48.5381 -48.5320 -48.5286
   -48.5192 -48.5185 -48.5032 -48.4887 -48.4782 -48.4778 -48.4668 -48.4352
   -48.3772 -48.3741 -48.3704 -48.3585 -48.3556 -48.3260 -48.2107 -48.2097
   -48.1979 -48.1773 -48.1764 -48.1568 -48.1418 -48.1242 -48.1156 -48.0848
   -47.9851 -47.9608 -47.9422 -47.9390 -47.9341 -47.8709 -47.8534 -47.8510
    -4.6022  -3.3206  -2.4613  -2.2352  -2.1596  -2.0808  -2.0385  -2.0361
    -1.8608  -1.8601  -1.5908  -1.5156  -1.5025  -1.4753  -1.2302  -1.1845
    -1.1756  -1.0093  -0.9905  -0.5197  -0.5145  -0.4896   0.0566   0.0588
     0.0897   0.2471   0.3161   0.3416   0.5396   0.5485   0.6413   0.8187
     0.8516   0.8608   0.8710   0.9615   0.9775   0.9823   1.0124   1.0180
     1.1011   1.1239   1.1853   1.3173   1.3566   1.4268   1.5508   1.5704
     1.6947   2.0091   2.0866   2.0932   2.2324   2.3373   2.4133   2.4361
     2.5262   2.5817   2.6349   2.6582   2.8078   2.8756   2.8894   2.9167
     2.9803   2.9887   3.3461   3.3485   3.3953   3.4014   3.4050   3.5069
     3.5400   3.5844   3.5956   3.7293   3.7382   3.7647   3.8590   3.9039
     3.9739   3.9933   4.0073   4.1295   4.2686   4.2700   5.0484   5.2748
     5.7541   5.7569   6.2476   6.2501   6.5237   7.2196   7.2289   7.6621
     8.8505   8.8737   9.2635   9.4748   9.6613   9.6671  10.0768  10.2834
    10.2897  10.3436  10.6584  11.2464  11.2910  11.4721

     occupation numbers 
     1.0000   1.0000   1.0000   1.0000   1.0000   1.0000   1.0000   1.0000
     1.0000   1.0000   1.0000   1.0000   1.0000   1.0000   1.0000   1.0000
     1.0000   1.0000   1.0000   1.0000   1.0000   1.0000   1.0000   1.0000
     1.0000   1.0000   1.0000   1.0000   1.0000   1.0000   1.0000   1.0000
     1.0000   1.0000   1.0000   1.0000   1.0000   1.0000   1.0000   1.0000
     1.0000   1.0000   1.0000   1.0000   1.0000   1.0000   1.0000   1.0000
     1.0000   1.0000   1.0000   1.0000   1.0000   1.0000   1.0000   1.0000
     1.0000   1.0000   1.0000   1.0000   1.0000   1.0000   1.0000   1.0000
     1.0000   1.0000   1.0000   1.0000   1.0000   1.0000   1.0000   1.0000
     1.0000   1.0000   1.0000   1.0000   1.0000   1.0000   1.0000   1.0000
     1.0000   1.0000   1.0000   1.0000   1.0000   1.0000   1.0000   1.0000
     1.0000   1.0000   1.0000   1.0000   1.0000   1.0000   1.0000   1.0000
     1.0000   1.0000   1.0000   1.0000   1.0000   1.0000   1.0000   1.0000
     1.0000   1.0000   1.0000   1.0000   1.0000   1.0000   1.0000   1.0000
     1.0000   1.0000   1.0000   1.0000   1.0000   1.0000   1.0000   1.0000
     1.0000   1.0000   1.0000   1.0000   1.0000   1.0000   1.0000   1.0000
     1.0000   1.0000   1.0000   1.0000   1.0000   1.0000   1.0000   0.9999
     0.9998   0.9996   0.9995   0.9927   0.9912   0.9852   0.9099   0.8045
     0.5038   0.4078   0.3424   0.0433   0.0028   0.0027   0.0000   0.0000
     0.0000   0.0000   0.0000   0.0000   0.0000   0.0000   0.0000   0.0000
     0.0000   0.0000   0.0000   0.0000   0.0000   0.0000   0.0000   0.0000
     0.0000   0.0000   0.0000   0.0000   0.0000   0.0000

          k = 0.0000 0.4330 0.0000 ( 39194 PWs)   bands (ev):

   -94.4746 -94.4577 -94.4512 -94.4482 -94.4425 -94.4368 -94.4335 -94.3897
   -94.0577 -94.0248 -94.0181 -94.0139 -94.0088 -93.9599 -93.9524 -93.9498
   -48.7396 -48.7351 -48.7220 -48.7038 -48.6986 -48.6926 -48.6804 -48.6189
   -48.6140 -48.6037 -48.5856 -48.5828 -48.5752 -48.5506 -48.5429 -48.5267
   -48.5223 -48.5198 -48.5179 -48.5008 -48.4926 -48.4777 -48.4756 -48.4448
   -48.3584 -48.3564 -48.3543 -48.3260 -48.3133 -48.2987 -48.2318 -48.2304
   -48.2203 -48.2040 -48.1884 -48.1646 -48.1563 -48.1383 -48.1361 -48.0935
   -47.9845 -47.9564 -47.9460 -47.9389 -47.9343 -47.8687 -47.8558 -47.8509
    -4.0195  -2.7985  -2.7549  -2.0583  -1.7791  -1.7008  -1.6990  -1.6509
    -1.5611  -1.5552  -1.5317  -1.2391  -1.1580  -1.1574  -1.0333  -0.9348
    -0.9066  -0.5731  -0.5606  -0.3471  -0.3342  -0.3160  -0.2862  -0.0734
    -0.0577   0.0187   0.1203   0.3618   0.3763   0.4050   0.4469   0.6151
     0.6456   0.6828   0.7603   0.8577   0.8920   1.0054   1.0145   1.1119
     1.1936   1.2264   1.2461   1.2653   1.3400   1.4029   1.4910   1.5624
     1.6160   1.7183   1.7431   1.7801   1.7836   1.8700   1.9530   1.9645
     2.0291   2.0549   2.0775   2.3133   2.3623   2.6151   2.6206   2.6600
     2.7055   2.7692   2.8192   2.8426   2.8744   2.9980   3.0076   3.0432
     3.1133   3.2972   3.3319   3.4857   3.5325   3.6775   3.6925   3.9188
     3.9922   3.9987   4.0079   4.0481   4.2693   4.2751   4.7153   5.7131
     5.8926   5.8936   6.3899   6.3921   6.9454   7.4771   7.4891   7.6195
     9.3187   9.3519   9.4443   9.8619   9.9411  10.2248  10.2284  10.5426
    10.7500  11.1199  11.1654  11.3033  11.4215  11.9988

     occupation numbers 
     1.0000   1.0000   1.0000   1.0000   1.0000   1.0000   1.0000   1.0000
     1.0000   1.0000   1.0000   1.0000   1.0000   1.0000   1.0000   1.0000
     1.0000   1.0000   1.0000   1.0000   1.0000   1.0000   1.0000   1.0000
     1.0000   1.0000   1.0000   1.0000   1.0000   1.0000   1.0000   1.0000
     1.0000   1.0000   1.0000   1.0000   1.0000   1.0000   1.0000   1.0000
     1.0000   1.0000   1.0000   1.0000   1.0000   1.0000   1.0000   1.0000
     1.0000   1.0000   1.0000   1.0000   1.0000   1.0000   1.0000   1.0000
     1.0000   1.0000   1.0000   1.0000   1.0000   1.0000   1.0000   1.0000
     1.0000   1.0000   1.0000   1.0000   1.0000   1.0000   1.0000   1.0000
     1.0000   1.0000   1.0000   1.0000   1.0000   1.0000   1.0000   1.0000
     1.0000   1.0000   1.0000   1.0000   1.0000   1.0000   1.0000   1.0000
     1.0000   1.0000   1.0000   1.0000   1.0000   1.0000   1.0000   1.0000
     1.0000   1.0000   1.0000   1.0000   1.0000   1.0000   1.0000   1.0000
     1.0000   1.0000   1.0000   1.0000   1.0000   1.0000   1.0000   1.0000
     1.0000   1.0000   1.0000   1.0000   1.0000   1.0000   1.0000   1.0000
     1.0000   1.0000   1.0000   1.0000   1.0000   1.0000   1.0000   1.0000
     1.0000   1.0000   1.0000   1.0000   1.0000   1.0000   1.0000   1.0000
     1.0000   1.0000   1.0000   0.9999   0.9999   0.9974   0.9965   0.7532
     0.4131   0.3819   0.3397   0.1871   0.0028   0.0024   0.0000   0.0000
     0.0000   0.0000   0.0000   0.0000   0.0000   0.0000   0.0000   0.0000
     0.0000   0.0000   0.0000   0.0000   0.0000   0.0000   0.0000   0.0000
     0.0000   0.0000   0.0000   0.0000   0.0000   0.0000

          k = 0.0000-0.5774 0.0000 ( 39264 PWs)   bands (ev):

   -94.4740 -94.4577 -94.4518 -94.4482 -94.4413 -94.4380 -94.4335 -94.3898
   -94.0576 -94.0226 -94.0203 -94.0139 -94.0089 -93.9593 -93.9532 -93.9498
   -48.7286 -48.7234 -48.7120 -48.6935 -48.6906 -48.6786 -48.6429 -48.6309
   -48.6257 -48.6176 -48.5892 -48.5776 -48.5754 -48.5722 -48.5655 -48.5373
   -48.5201 -48.5199 -48.5153 -48.5053 -48.5028 -48.4751 -48.4717 -48.4511
   -48.3493 -48.3484 -48.3442 -48.3041 -48.2890 -48.2604 -48.2589 -48.2429
   -48.2401 -48.2265 -48.1947 -48.1837 -48.1523 -48.1484 -48.1350 -48.0981
   -47.9843 -47.9524 -47.9497 -47.9388 -47.9343 -47.8675 -47.8571 -47.8509
    -3.3578  -3.3252  -2.3117  -2.2796  -1.5459  -1.5212  -1.5211  -1.5082
    -1.3695  -1.3684  -1.2205  -1.1927  -1.0613  -1.0481  -0.7359  -0.7166
    -0.5980  -0.5783  -0.5418  -0.5414  -0.1775  -0.1749  -0.1227  -0.1194
    -0.1146  -0.0722   0.0256   0.0558   0.2828   0.2873   0.4396   0.4416
     0.5606   0.6051   0.7755   0.8078   1.0076   1.0271   1.0536   1.0770
     1.1380   1.1600   1.2003   1.2010   1.2470   1.2566   1.2776   1.3092
     1.3517   1.4006   1.4467   1.5298   1.8532   1.8607   1.8765   1.9297
     1.9450   2.1136   2.1394   2.1887   2.3155   2.4256   2.4868   2.5499
     2.5598   2.5719   2.6016   2.6926   2.7859   2.8184   2.8356   2.8832
     2.9496   2.9757   3.0322   3.4581   3.4779   3.6669   3.6857   4.0079
     4.0166   4.0184   4.0394   4.2593   4.2682   4.2759   4.3378   5.9292
     5.9312   6.2717   6.3797   6.4473   6.4605   7.5571   7.5609   8.5499
     8.7730   9.3691   9.3722   9.9107  10.4586  10.6075  10.6224  11.1332
    11.1434  11.1899  11.2376  11.3222  11.3643  11.5283

     occupation numbers 
     1.0000   1.0000   1.0000   1.0000   1.0000   1.0000   1.0000   1.0000
     1.0000   1.0000   1.0000   1.0000   1.0000   1.0000   1.0000   1.0000
     1.0000   1.0000   1.0000   1.0000   1.0000   1.0000   1.0000   1.0000
     1.0000   1.0000   1.0000   1.0000   1.0000   1.0000   1.0000   1.0000
     1.0000   1.0000   1.0000   1.0000   1.0000   1.0000   1.0000   1.0000
     1.0000   1.0000   1.0000   1.0000   1.0000   1.0000   1.0000   1.0000
     1.0000   1.0000   1.0000   1.0000   1.0000   1.0000   1.0000   1.0000
     1.0000   1.0000   1.0000   1.0000   1.0000   1.0000   1.0000   1.0000
     1.0000   1.0000   1.0000   1.0000   1.0000   1.0000   1.0000   1.0000
     1.0000   1.0000   1.0000   1.0000   1.0000   1.0000   1.0000   1.0000
     1.0000   1.0000   1.0000   1.0000   1.0000   1.0000   1.0000   1.0000
     1.0000   1.0000   1.0000   1.0000   1.0000   1.0000   1.0000   1.0000
     1.0000   1.0000   1.0000   1.0000   1.0000   1.0000   1.0000   1.0000
     1.0000   1.0000   1.0000   1.0000   1.0000   1.0000   1.0000   1.0000
     1.0000   1.0000   1.0000   1.0000   1.0000   1.0000   1.0000   1.0000
     1.0000   1.0000   1.0000   1.0000   1.0000   1.0000   1.0000   1.0000
     1.0000   1.0000   1.0000   1.0000   1.0000   1.0000   1.0000   1.0000
     1.0000   1.0000   1.0000   1.0000   1.0000   0.9979   0.9969   0.3394
     0.3019   0.2943   0.2149   0.0034   0.0028   0.0024   0.0007   0.0000
     0.0000   0.0000   0.0000   0.0000   0.0000   0.0000   0.0000   0.0000
     0.0000   0.0000   0.0000   0.0000   0.0000   0.0000   0.0000   0.0000
     0.0000   0.0000   0.0000   0.0000   0.0000   0.0000

          k = 0.1250-0.0722 0.0000 ( 39121 PWs)   bands (ev):

   -94.4769 -94.4579 -94.4486 -94.4482 -94.4457 -94.4341 -94.4333 -94.3893
   -94.0580 -94.0293 -94.0143 -94.0138 -94.0081 -93.9622 -93.9500 -93.9495
   -48.7773 -48.7755 -48.7717 -48.7547 -48.7400 -48.7376 -48.7121 -48.6058
   -48.5979 -48.5971 -48.5611 -48.5603 -48.5477 -48.5343 -48.5328 -48.5276
   -48.5061 -48.5031 -48.4947 -48.4898 -48.4732 -48.4696 -48.4373 -48.4282
   -48.3925 -48.3891 -48.3858 -48.3828 -48.3794 -48.3459 -48.1938 -48.1931
   -48.1843 -48.1795 -48.1727 -48.1392 -48.1248 -48.1162 -48.0861 -48.0778
   -47.9857 -47.9638 -47.9399 -47.9391 -47.9337 -47.8727 -47.8516 -47.8509
    -4.9839  -3.6898  -2.6052  -2.5082  -2.3873  -2.2932  -2.2887  -2.1767
    -2.1217  -2.1211  -1.7251  -1.7086  -1.7040  -1.5402  -1.4446  -1.4428
    -1.3826  -1.3363  -1.3164  -0.6181  -0.6162  -0.6101   0.2145   0.2232
     0.2775   0.3749   0.4204   0.4416   0.4454   0.4675   0.5298   0.6952
     0.7850   0.8153   0.8877   0.8896   0.9132   1.0187   1.0888   1.1780
     1.2848   1.2863   1.3279   1.3715   1.3896   1.6531   1.6992   1.7298
     1.9425   1.9733   2.1591   2.1704   2.4381   2.4554   2.8735   2.8827
     2.9711   2.9911   3.0757   3.0905   3.1343   3.1385   3.1937   3.4384
     3.4418   3.5136   3.5745   3.6081   3.7479   3.7503   3.7981   3.8631
     3.8675   3.9338   3.9571   4.0366   4.0503   4.1345   4.1776   4.1867
     4.2535   4.3166   4.3298   4.3437   4.3907   4.3991   5.1550   5.3921
     5.4001   5.5263   6.0237   6.2381   6.2447   6.7445   6.7532   7.8040
     7.8199   8.1211   9.0258   9.2091   9.6065   9.6642   9.6705   9.8197
     9.8912   9.9372  10.2488  10.4740  10.5357  10.6064

     occupation numbers 
     1.0000   1.0000   1.0000   1.0000   1.0000   1.0000   1.0000   1.0000
     1.0000   1.0000   1.0000   1.0000   1.0000   1.0000   1.0000   1.0000
     1.0000   1.0000   1.0000   1.0000   1.0000   1.0000   1.0000   1.0000
     1.0000   1.0000   1.0000   1.0000   1.0000   1.0000   1.0000   1.0000
     1.0000   1.0000   1.0000   1.0000   1.0000   1.0000   1.0000   1.0000
     1.0000   1.0000   1.0000   1.0000   1.0000   1.0000   1.0000   1.0000
     1.0000   1.0000   1.0000   1.0000   1.0000   1.0000   1.0000   1.0000
     1.0000   1.0000   1.0000   1.0000   1.0000   1.0000   1.0000   1.0000
     1.0000   1.0000   1.0000   1.0000   1.0000   1.0000   1.0000   1.0000
     1.0000   1.0000   1.0000   1.0000   1.0000   1.0000   1.0000   1.0000
     1.0000   1.0000   1.0000   1.0000   1.0000   1.0000   1.0000   1.0000
     1.0000   1.0000   1.0000   1.0000   1.0000   1.0000   1.0000   1.0000
     1.0000   1.0000   1.0000   1.0000   1.0000   1.0000   1.0000   1.0000
     1.0000   1.0000   1.0000   1.0000   1.0000   1.0000   1.0000   1.0000
     1.0000   1.0000   1.0000   1.0000   1.0000   1.0000   1.0000   1.0000
     1.0000   1.0000   1.0000   1.0000   1.0000   1.0000   1.0000   1.0000
     1.0000   0.9999   0.9997   0.9993   0.9894   0.9889   0.9715   0.9030
     0.8951   0.6936   0.5870   0.2244   0.1806   0.0393   0.0170   0.0142
     0.0038   0.0011   0.0008   0.0006   0.0002   0.0002   0.0000   0.0000
     0.0000   0.0000   0.0000   0.0000   0.0000   0.0000   0.0000   0.0000
     0.0000   0.0000   0.0000   0.0000   0.0000   0.0000   0.0000   0.0000
     0.0000   0.0000   0.0000   0.0000   0.0000   0.0000

          k = 0.1250 0.0722 0.0000 ( 39121 PWs)   bands (ev):

   -94.4769 -94.4579 -94.4487 -94.4480 -94.4457 -94.4338 -94.4336 -94.3893
   -94.0580 -94.0293 -94.0142 -94.0139 -94.0081 -93.9622 -93.9503 -93.9493
   -48.7779 -48.7759 -48.7709 -48.7548 -48.7399 -48.7377 -48.7121 -48.6055
   -48.5980 -48.5971 -48.5606 -48.5601 -48.5485 -48.5341 -48.5331 -48.5274
   -48.5056 -48.5028 -48.4955 -48.4895 -48.4726 -48.4704 -48.4366 -48.4289
   -48.3926 -48.3891 -48.3856 -48.3832 -48.3790 -48.3459 -48.1937 -48.1929
   -48.1845 -48.1792 -48.1729 -48.1393 -48.1246 -48.1164 -48.0858 -48.0781
   -47.9857 -47.9638 -47.9398 -47.9392 -47.9337 -47.8727 -47.8520 -47.8506
    -4.9840  -3.6898  -2.6052  -2.5083  -2.3887  -2.2924  -2.2883  -2.1768
    -2.1216  -2.1211  -1.7250  -1.7085  -1.7044  -1.5403  -1.4446  -1.4427
    -1.3835  -1.3361  -1.3158  -0.6177  -0.6158  -0.6108   0.2116   0.2215
     0.2802   0.3773   0.4189   0.4428   0.4433   0.4713   0.5299   0.6952
     0.7850   0.8153   0.8890   0.8895   0.9110   1.0189   1.0885   1.1775
     1.2848   1.2864   1.3274   1.3721   1.3912   1.6525   1.6990   1.7300
     1.9469   1.9714   2.1580   2.1689   2.4424   2.4514   2.8698   2.8845
     2.9711   2.9910   3.0758   3.0906   3.1366   3.1372   3.1942   3.4379
     3.4411   3.5146   3.5724   3.6092   3.7474   3.7498   3.7982   3.8640
     3.8682   3.9348   3.9608   4.0369   4.0507   4.1348   4.1770   4.1872
     4.2506   4.3163   4.3292   4.3430   4.3894   4.3982   5.1567   5.3934
     5.4011   5.5251   6.0263   6.2371   6.2438   6.7428   6.7504   7.8027
     7.8182   8.1227   9.0258   9.2091   9.6032   9.6678   9.6711   9.8196
     9.8913   9.9381  10.2469  10.4744  10.5384  10.6082

     occupation numbers 
     1.0000   1.0000   1.0000   1.0000   1.0000   1.0000   1.0000   1.0000
     1.0000   1.0000   1.0000   1.0000   1.0000   1.0000   1.0000   1.0000
     1.0000   1.0000   1.0000   1.0000   1.0000   1.0000   1.0000   1.0000
     1.0000   1.0000   1.0000   1.0000   1.0000   1.0000   1.0000   1.0000
     1.0000   1.0000   1.0000   1.0000   1.0000   1.0000   1.0000   1.0000
     1.0000   1.0000   1.0000   1.0000   1.0000   1.0000   1.0000   1.0000
     1.0000   1.0000   1.0000   1.0000   1.0000   1.0000   1.0000   1.0000
     1.0000   1.0000   1.0000   1.0000   1.0000   1.0000   1.0000   1.0000
     1.0000   1.0000   1.0000   1.0000   1.0000   1.0000   1.0000   1.0000
     1.0000   1.0000   1.0000   1.0000   1.0000   1.0000   1.0000   1.0000
     1.0000   1.0000   1.0000   1.0000   1.0000   1.0000   1.0000   1.0000
     1.0000   1.0000   1.0000   1.0000   1.0000   1.0000   1.0000   1.0000
     1.0000   1.0000   1.0000   1.0000   1.0000   1.0000   1.0000   1.0000
     1.0000   1.0000   1.0000   1.0000   1.0000   1.0000   1.0000   1.0000
     1.0000   1.0000   1.0000   1.0000   1.0000   1.0000   1.0000   1.0000
     1.0000   1.0000   1.0000   1.0000   1.0000   1.0000   1.0000   1.0000
     1.0000   0.9999   0.9997   0.9993   0.9895   0.9890   0.9715   0.9015
     0.8936   0.6891   0.5689   0.2236   0.1794   0.0390   0.0172   0.0141
     0.0040   0.0011   0.0008   0.0006   0.0002   0.0002   0.0000   0.0000
     0.0000   0.0000   0.0000   0.0000   0.0000   0.0000   0.0000   0.0000
     0.0000   0.0000   0.0000   0.0000   0.0000   0.0000   0.0000   0.0000
     0.0000   0.0000   0.0000   0.0000   0.0000   0.0000

          k = 0.1250 0.2165 0.0000 ( 39141 PWs)   bands (ev):

   -94.4761 -94.4578 -94.4496 -94.4480 -94.4448 -94.4345 -94.4336 -94.3894
   -94.0579 -94.0280 -94.0151 -94.0140 -94.0084 -93.9615 -93.9510 -93.9494
   -48.7690 -48.7567 -48.7553 -48.7423 -48.7272 -48.7233 -48.7057 -48.6105
   -48.6002 -48.5948 -48.5835 -48.5547 -48.5529 -48.5326 -48.5302 -48.5296
   -48.5207 -48.5023 -48.4997 -48.4957 -48.4787 -48.4755 -48.4558 -48.4341
   -48.3842 -48.3750 -48.3725 -48.3704 -48.3633 -48.3327 -48.2138 -48.1940
   -48.1878 -48.1874 -48.1720 -48.1459 -48.1434 -48.1221 -48.1051 -48.0834
   -47.9853 -47.9617 -47.9410 -47.9395 -47.9339 -47.8714 -47.8532 -47.8507
    -4.7267  -3.4391  -2.3509  -2.3164  -2.3137  -2.2711  -2.0448  -2.0406
    -2.0308  -1.9055  -1.6038  -1.5978  -1.5603  -1.4394  -1.4333  -1.2221
    -1.2067  -1.1657  -1.0630  -0.5458  -0.5437  -0.5373   0.0363   0.1787
     0.2347   0.2415   0.2952   0.3889   0.5091   0.5677   0.5759   0.8435
     0.8788   0.8797   0.8970   0.9104   0.9130   0.9416   0.9947   1.1277
     1.1532   1.2052   1.2128   1.3353   1.3647   1.4752   1.5659   1.6006
     1.6767   2.0576   2.0825   2.1529   2.2995   2.3880   2.5649   2.6270
     2.6764   2.6998   2.8207   2.8696   2.8995   2.9280   3.0210   3.0389
     3.0542   3.1086   3.2451   3.4316   3.4539   3.5166   3.5826   3.5906
     3.6633   3.7284   3.7497   3.7654   3.8510   3.9078   3.9256   3.9407
     3.9604   4.1929   4.2074   4.2096   4.5772   4.5875   4.8824   4.9293
     4.9391   5.9371   5.9746   6.2480   6.5574   7.2561   7.6573   7.8478
     8.1852   8.2140   9.1903   9.3880   9.6937   9.8918   9.9950  10.0701
    10.0926  10.5591  10.6700  10.8544  10.8901  11.5628

     occupation numbers 
     1.0000   1.0000   1.0000   1.0000   1.0000   1.0000   1.0000   1.0000
     1.0000   1.0000   1.0000   1.0000   1.0000   1.0000   1.0000   1.0000
     1.0000   1.0000   1.0000   1.0000   1.0000   1.0000   1.0000   1.0000
     1.0000   1.0000   1.0000   1.0000   1.0000   1.0000   1.0000   1.0000
     1.0000   1.0000   1.0000   1.0000   1.0000   1.0000   1.0000   1.0000
     1.0000   1.0000   1.0000   1.0000   1.0000   1.0000   1.0000   1.0000
     1.0000   1.0000   1.0000   1.0000   1.0000   1.0000   1.0000   1.0000
     1.0000   1.0000   1.0000   1.0000   1.0000   1.0000   1.0000   1.0000
     1.0000   1.0000   1.0000   1.0000   1.0000   1.0000   1.0000   1.0000
     1.0000   1.0000   1.0000   1.0000   1.0000   1.0000   1.0000   1.0000
     1.0000   1.0000   1.0000   1.0000   1.0000   1.0000   1.0000   1.0000
     1.0000   1.0000   1.0000   1.0000   1.0000   1.0000   1.0000   1.0000
     1.0000   1.0000   1.0000   1.0000   1.0000   1.0000   1.0000   1.0000
     1.0000   1.0000   1.0000   1.0000   1.0000   1.0000   1.0000   1.0000
     1.0000   1.0000   1.0000   1.0000   1.0000   1.0000   1.0000   1.0000
     1.0000   1.0000   1.0000   1.0000   1.0000   1.0000   1.0000   1.0000
     1.0000   1.0000   1.0000   1.0000   1.0000   0.9999   0.9996   0.9995
     0.9980   0.9928   0.9890   0.9850   0.9223   0.7921   0.7272   0.6637
     0.5706   0.0125   0.0094   0.0090   0.0000   0.0000   0.0000   0.0000
     0.0000   0.0000   0.0000   0.0000   0.0000   0.0000   0.0000   0.0000
     0.0000   0.0000   0.0000   0.0000   0.0000   0.0000   0.0000   0.0000
     0.0000   0.0000   0.0000   0.0000   0.0000   0.0000

          k = 0.1250 0.3608 0.0000 ( 39199 PWs)   bands (ev):

   -94.4749 -94.4576 -94.4511 -94.4480 -94.4432 -94.4360 -94.4336 -94.3896
   -94.0577 -94.0258 -94.0168 -94.0144 -94.0086 -93.9603 -93.9522 -93.9496
   -48.7505 -48.7341 -48.7272 -48.7155 -48.7076 -48.7001 -48.6916 -48.6187
   -48.6126 -48.6035 -48.5919 -48.5665 -48.5576 -48.5489 -48.5383 -48.5288
   -48.5204 -48.5162 -48.5100 -48.4973 -48.4879 -48.4811 -48.4753 -48.4439
   -48.3680 -48.3597 -48.3513 -48.3375 -48.3351 -48.3089 -48.2414 -48.2185
   -48.2000 -48.1848 -48.1766 -48.1765 -48.1482 -48.1346 -48.1329 -48.0928
   -47.9847 -47.9580 -47.9437 -47.9401 -47.9338 -47.8694 -47.8554 -47.8507
    -4.2404  -2.9821  -2.4772  -2.1046  -1.9578  -1.9060  -1.8398  -1.7595
    -1.6673  -1.6250  -1.4902  -1.3706  -1.3105  -1.2330  -1.1921  -1.0340
    -0.8446  -0.8257  -0.6716  -0.4330  -0.3996  -0.3742  -0.1738  -0.1116
     0.0553   0.1249   0.1469   0.2963   0.4855   0.5301   0.5982   0.6876
     0.7142   0.7709   0.7806   0.8165   0.9064   0.9575   1.0038   1.0315
     1.0740   1.1659   1.1970   1.2654   1.3364   1.3903   1.5573   1.6939
     1.7614   1.8196   1.8751   1.9129   1.9672   2.0069   2.0458   2.0884
     2.1524   2.1844   2.2301   2.2633   2.4115   2.6997   2.7326   2.7697
     2.7932   2.8485   2.9369   3.0207   3.0970   3.1244   3.1608   3.3297
     3.3609   3.5213   3.5727   3.6667   3.7267   3.8306   3.8596   3.8901
     3.9220   3.9701   3.9811   4.0430   4.1566   4.1637   4.8180   5.0795
     5.1457   5.4999   6.1123   6.9864   7.2140   7.4197   7.6586   8.1946
     8.4265   8.8320   9.4450   9.7435   9.7774  10.1899  10.3655  10.4074
    10.6812  10.8092  10.9723  11.3835  11.5782  11.8359

     occupation numbers 
     1.0000   1.0000   1.0000   1.0000   1.0000   1.0000   1.0000   1.0000
     1.0000   1.0000   1.0000   1.0000   1.0000   1.0000   1.0000   1.0000
     1.0000   1.0000   1.0000   1.0000   1.0000   1.0000   1.0000   1.0000
     1.0000   1.0000   1.0000   1.0000   1.0000   1.0000   1.0000   1.0000
     1.0000   1.0000   1.0000   1.0000   1.0000   1.0000   1.0000   1.0000
     1.0000   1.0000   1.0000   1.0000   1.0000   1.0000   1.0000   1.0000
     1.0000   1.0000   1.0000   1.0000   1.0000   1.0000   1.0000   1.0000
     1.0000   1.0000   1.0000   1.0000   1.0000   1.0000   1.0000   1.0000
     1.0000   1.0000   1.0000   1.0000   1.0000   1.0000   1.0000   1.0000
     1.0000   1.0000   1.0000   1.0000   1.0000   1.0000   1.0000   1.0000
     1.0000   1.0000   1.0000   1.0000   1.0000   1.0000   1.0000   1.0000
     1.0000   1.0000   1.0000   1.0000   1.0000   1.0000   1.0000   1.0000
     1.0000   1.0000   1.0000   1.0000   1.0000   1.0000   1.0000   1.0000
     1.0000   1.0000   1.0000   1.0000   1.0000   1.0000   1.0000   1.0000
     1.0000   1.0000   1.0000   1.0000   1.0000   1.0000   1.0000   1.0000
     1.0000   1.0000   1.0000   1.0000   1.0000   1.0000   1.0000   1.0000
     1.0000   1.0000   1.0000   1.0000   1.0000   1.0000   1.0000   1.0000
     1.0000   0.9999   0.9997   0.9979   0.9930   0.9469   0.9089   0.8442
     0.7415   0.5226   0.4678   0.2031   0.0256   0.0223   0.0000   0.0000
     0.0000   0.0000   0.0000   0.0000   0.0000   0.0000   0.0000   0.0000
     0.0000   0.0000   0.0000   0.0000   0.0000   0.0000   0.0000   0.0000
     0.0000   0.0000   0.0000   0.0000   0.0000   0.0000

          k = 0.1250-0.6495 0.0000 ( 39195 PWs)   bands (ev):

   -94.4740 -94.4574 -94.4523 -94.4480 -94.4414 -94.4377 -94.4336 -94.3898
   -94.0576 -94.0231 -94.0193 -94.0146 -94.0087 -93.9592 -93.9533 -93.9496
   -48.7300 -48.7178 -48.7079 -48.6923 -48.6882 -48.6808 -48.6616 -48.6414
   -48.6177 -48.6063 -48.6028 -48.5914 -48.5672 -48.5614 -48.5534 -48.5322
   -48.5235 -48.5198 -48.5149 -48.5047 -48.4998 -48.4790 -48.4738 -48.4542
   -48.3501 -48.3461 -48.3347 -48.3070 -48.2903 -48.2880 -48.2659 -48.2351
   -48.2336 -48.2121 -48.1981 -48.1658 -48.1626 -48.1469 -48.1380 -48.1017
   -47.9843 -47.9534 -47.9478 -47.9404 -47.9336 -47.8673 -47.8575 -47.8507
    -3.5954  -2.9339  -2.4413  -2.0499  -1.8737  -1.5226  -1.5110  -1.4274
    -1.3917  -1.3133  -1.3016  -1.1171  -1.0762  -0.9304  -0.8939  -0.8352
    -0.6337  -0.5034  -0.4742  -0.4259  -0.2793  -0.2272  -0.2093  -0.1563
    -0.1316  -0.0333  -0.0105   0.0704   0.2410   0.3515   0.4278   0.4637
     0.5486   0.5960   0.6358   0.7813   0.8613   0.9187   0.9894   1.0504
     1.0835   1.1148   1.1534   1.1726   1.2430   1.2535   1.3270   1.3864
     1.4289   1.4789   1.5564   1.6430   1.7536   1.8284   1.9471   1.9961
     2.0219   2.0615   2.1284   2.2685   2.3627   2.4632   2.4843   2.5093
     2.5662   2.6509   2.6953   2.8375   2.8775   2.9316   2.9809   3.0133
     3.1293   3.2054   3.3273   3.4154   3.4797   3.6163   3.6908   3.8682
     3.8857   3.9341   3.9583   4.1391   4.1567   4.2447   4.6217   4.9336
     5.1818   6.0998   6.2176   6.7242   6.9815   7.7899   8.1829   8.2888
     8.9988   9.2587   9.5460   9.9243  10.2240  10.2934  10.5827  10.7667
    10.9107  11.0172  11.1111  11.2045  11.4198  11.6930

     occupation numbers 
     1.0000   1.0000   1.0000   1.0000   1.0000   1.0000   1.0000   1.0000
     1.0000   1.0000   1.0000   1.0000   1.0000   1.0000   1.0000   1.0000
     1.0000   1.0000   1.0000   1.0000   1.0000   1.0000   1.0000   1.0000
     1.0000   1.0000   1.0000   1.0000   1.0000   1.0000   1.0000   1.0000
     1.0000   1.0000   1.0000   1.0000   1.0000   1.0000   1.0000   1.0000
     1.0000   1.0000   1.0000   1.0000   1.0000   1.0000   1.0000   1.0000
     1.0000   1.0000   1.0000   1.0000   1.0000   1.0000   1.0000   1.0000
     1.0000   1.0000   1.0000   1.0000   1.0000   1.0000   1.0000   1.0000
     1.0000   1.0000   1.0000   1.0000   1.0000   1.0000   1.0000   1.0000
     1.0000   1.0000   1.0000   1.0000   1.0000   1.0000   1.0000   1.0000
     1.0000   1.0000   1.0000   1.0000   1.0000   1.0000   1.0000   1.0000
     1.0000   1.0000   1.0000   1.0000   1.0000   1.0000   1.0000   1.0000
     1.0000   1.0000   1.0000   1.0000   1.0000   1.0000   1.0000   1.0000
     1.0000   1.0000   1.0000   1.0000   1.0000   1.0000   1.0000   1.0000
     1.0000   1.0000   1.0000   1.0000   1.0000   1.0000   1.0000   1.0000
     1.0000   1.0000   1.0000   1.0000   1.0000   1.0000   1.0000   1.0000
     1.0000   1.0000   1.0000   1.0000   1.0000   1.0000   1.0000   1.0000
     1.0000   1.0000   1.0000   1.0000   0.9999   0.9992   0.9966   0.8937
     0.8557   0.6921   0.5808   0.0359   0.0255   0.0045   0.0000   0.0000
     0.0000   0.0000   0.0000   0.0000   0.0000   0.0000   0.0000   0.0000
     0.0000   0.0000   0.0000   0.0000   0.0000   0.0000   0.0000   0.0000
     0.0000   0.0000   0.0000   0.0000   0.0000   0.0000

          k = 0.1250-0.5052 0.0000 ( 39195 PWs)   bands (ev):

   -94.4740 -94.4574 -94.4523 -94.4480 -94.4413 -94.4378 -94.4336 -94.3898
   -94.0576 -94.0230 -94.0193 -94.0145 -94.0087 -93.9592 -93.9532 -93.9497
   -48.7293 -48.7182 -48.7079 -48.6922 -48.6881 -48.6808 -48.6614 -48.6419
   -48.6177 -48.6064 -48.6029 -48.5916 -48.5675 -48.5615 -48.5532 -48.5321
   -48.5236 -48.5198 -48.5150 -48.5046 -48.4996 -48.4789 -48.4741 -48.4540
   -48.3500 -48.3461 -48.3347 -48.3070 -48.2902 -48.2879 -48.2661 -48.2352
   -48.2342 -48.2120 -48.1973 -48.1662 -48.1627 -48.1468 -48.1381 -48.1015
   -47.9843 -47.9534 -47.9478 -47.9404 -47.9336 -47.8674 -47.8573 -47.8508
    -3.5953  -2.9339  -2.4412  -2.0500  -1.8730  -1.5227  -1.5115  -1.4273
    -1.3910  -1.3135  -1.3012  -1.1168  -1.0760  -0.9308  -0.8934  -0.8350
    -0.6343  -0.5035  -0.4744  -0.4256  -0.2790  -0.2271  -0.2098  -0.1566
    -0.1321  -0.0323  -0.0104   0.0703   0.2423   0.3515   0.4301   0.4624
     0.5470   0.5955   0.6347   0.7811   0.8607   0.9180   0.9883   1.0475
     1.0827   1.1144   1.1518   1.1717   1.2453   1.2582   1.3280   1.3866
     1.4280   1.4784   1.5550   1.6410   1.7542   1.8284   1.9477   1.9974
     2.0216   2.0619   2.1300   2.2692   2.3622   2.4634   2.4855   2.5090
     2.5660   2.6493   2.6940   2.8391   2.8786   2.9321   2.9811   3.0133
     3.1287   3.2059   3.3268   3.4158   3.4797   3.6161   3.6905   3.8662
     3.8858   3.9357   3.9585   4.1390   4.1571   4.2467   4.6196   4.9335
     5.1818   6.1011   6.2173   6.7232   6.9816   7.7902   8.1839   8.2894
     8.9993   9.2582   9.5460   9.9242  10.2234  10.2933  10.5830  10.7681
    10.9109  11.0175  11.1115  11.2042  11.4202  11.6931

     occupation numbers 
     1.0000   1.0000   1.0000   1.0000   1.0000   1.0000   1.0000   1.0000
     1.0000   1.0000   1.0000   1.0000   1.0000   1.0000   1.0000   1.0000
     1.0000   1.0000   1.0000   1.0000   1.0000   1.0000   1.0000   1.0000
     1.0000   1.0000   1.0000   1.0000   1.0000   1.0000   1.0000   1.0000
     1.0000   1.0000   1.0000   1.0000   1.0000   1.0000   1.0000   1.0000
     1.0000   1.0000   1.0000   1.0000   1.0000   1.0000   1.0000   1.0000
     1.0000   1.0000   1.0000   1.0000   1.0000   1.0000   1.0000   1.0000
     1.0000   1.0000   1.0000   1.0000   1.0000   1.0000   1.0000   1.0000
     1.0000   1.0000   1.0000   1.0000   1.0000   1.0000   1.0000   1.0000
     1.0000   1.0000   1.0000   1.0000   1.0000   1.0000   1.0000   1.0000
     1.0000   1.0000   1.0000   1.0000   1.0000   1.0000   1.0000   1.0000
     1.0000   1.0000   1.0000   1.0000   1.0000   1.0000   1.0000   1.0000
     1.0000   1.0000   1.0000   1.0000   1.0000   1.0000   1.0000   1.0000
     1.0000   1.0000   1.0000   1.0000   1.0000   1.0000   1.0000   1.0000
     1.0000   1.0000   1.0000   1.0000   1.0000   1.0000   1.0000   1.0000
     1.0000   1.0000   1.0000   1.0000   1.0000   1.0000   1.0000   1.0000
     1.0000   1.0000   1.0000   1.0000   1.0000   1.0000   1.0000   1.0000
     1.0000   1.0000   1.0000   1.0000   0.9999   0.9992   0.9966   0.8975
     0.8554   0.6852   0.5800   0.0360   0.0254   0.0043   0.0000   0.0000
     0.0000   0.0000   0.0000   0.0000   0.0000   0.0000   0.0000   0.0000
     0.0000   0.0000   0.0000   0.0000   0.0000   0.0000   0.0000   0.0000
     0.0000   0.0000   0.0000   0.0000   0.0000   0.0000

          k = 0.1250-0.3608 0.0000 ( 39199 PWs)   bands (ev):

   -94.4749 -94.4577 -94.4510 -94.4481 -94.4431 -94.4362 -94.4335 -94.3896
   -94.0577 -94.0258 -94.0169 -94.0143 -94.0086 -93.9604 -93.9519 -93.9498
   -48.7495 -48.7348 -48.7272 -48.7154 -48.7075 -48.6999 -48.6916 -48.6191
   -48.6131 -48.6035 -48.5920 -48.5661 -48.5582 -48.5493 -48.5385 -48.5285
   -48.5204 -48.5161 -48.5098 -48.4973 -48.4879 -48.4810 -48.4754 -48.4434
   -48.3678 -48.3595 -48.3515 -48.3376 -48.3352 -48.3089 -48.2416 -48.2192
   -48.1998 -48.1849 -48.1767 -48.1755 -48.1486 -48.1349 -48.1327 -48.0925
   -47.9847 -47.9580 -47.9438 -47.9400 -47.9338 -47.8694 -47.8551 -47.8509
    -4.2403  -2.9820  -2.4771  -2.1033  -1.9579  -1.9058  -1.8392  -1.7604
    -1.6679  -1.6238  -1.4900  -1.3704  -1.3104  -1.2334  -1.1920  -1.0336
    -0.8432  -0.8262  -0.6722  -0.4323  -0.3998  -0.3749  -0.1740  -0.1117
     0.0538   0.1257   0.1471   0.2987   0.4858   0.5299   0.5986   0.6870
     0.7118   0.7676   0.7786   0.8133   0.9062   0.9573   1.0043   1.0344
     1.0703   1.1706   1.2013   1.2643   1.3315   1.3872   1.5574   1.6939
     1.7615   1.8219   1.8746   1.9136   1.9682   2.0055   2.0455   2.0890
     2.1532   2.1860   2.2289   2.2623   2.4105   2.6996   2.7340   2.7705
     2.7933   2.8497   2.9366   3.0204   3.0956   3.1260   3.1626   3.3300
     3.3606   3.5215   3.5722   3.6660   3.7262   3.8274   3.8602   3.8903
     3.9223   3.9705   3.9822   4.0450   4.1570   4.1645   4.8179   5.0792
     5.1440   5.5014   6.1115   6.9865   7.2151   7.4191   7.6589   8.1960
     8.4281   8.8350   9.4449   9.7434   9.7756  10.1899  10.3664  10.4076
    10.6831  10.8096  10.9666  11.3834  11.5787  11.8361

     occupation numbers 
     1.0000   1.0000   1.0000   1.0000   1.0000   1.0000   1.0000   1.0000
     1.0000   1.0000   1.0000   1.0000   1.0000   1.0000   1.0000   1.0000
     1.0000   1.0000   1.0000   1.0000   1.0000   1.0000   1.0000   1.0000
     1.0000   1.0000   1.0000   1.0000   1.0000   1.0000   1.0000   1.0000
     1.0000   1.0000   1.0000   1.0000   1.0000   1.0000   1.0000   1.0000
     1.0000   1.0000   1.0000   1.0000   1.0000   1.0000   1.0000   1.0000
     1.0000   1.0000   1.0000   1.0000   1.0000   1.0000   1.0000   1.0000
     1.0000   1.0000   1.0000   1.0000   1.0000   1.0000   1.0000   1.0000
     1.0000   1.0000   1.0000   1.0000   1.0000   1.0000   1.0000   1.0000
     1.0000   1.0000   1.0000   1.0000   1.0000   1.0000   1.0000   1.0000
     1.0000   1.0000   1.0000   1.0000   1.0000   1.0000   1.0000   1.0000
     1.0000   1.0000   1.0000   1.0000   1.0000   1.0000   1.0000   1.0000
     1.0000   1.0000   1.0000   1.0000   1.0000   1.0000   1.0000   1.0000
     1.0000   1.0000   1.0000   1.0000   1.0000   1.0000   1.0000   1.0000
     1.0000   1.0000   1.0000   1.0000   1.0000   1.0000   1.0000   1.0000
     1.0000   1.0000   1.0000   1.0000   1.0000   1.0000   1.0000   1.0000
     1.0000   1.0000   1.0000   1.0000   1.0000   1.0000   1.0000   1.0000
     1.0000   0.9999   0.9997   0.9979   0.9931   0.9500   0.9079   0.8439
     0.7400   0.5205   0.4623   0.1965   0.0254   0.0220   0.0000   0.0000
     0.0000   0.0000   0.0000   0.0000   0.0000   0.0000   0.0000   0.0000
     0.0000   0.0000   0.0000   0.0000   0.0000   0.0000   0.0000   0.0000
     0.0000   0.0000   0.0000   0.0000   0.0000   0.0000

          k = 0.1250-0.2165 0.0000 ( 39141 PWs)   bands (ev):

   -94.4761 -94.4578 -94.4494 -94.4482 -94.4448 -94.4349 -94.4333 -94.3894
   -94.0579 -94.0280 -94.0152 -94.0140 -94.0084 -93.9615 -93.9505 -93.9498
   -48.7679 -48.7570 -48.7558 -48.7423 -48.7272 -48.7230 -48.7058 -48.6109
   -48.6002 -48.5948 -48.5841 -48.5543 -48.5524 -48.5330 -48.5304 -48.5294
   -48.5215 -48.5021 -48.4992 -48.4960 -48.4782 -48.4754 -48.4564 -48.4335
   -48.3839 -48.3747 -48.3726 -48.3705 -48.3637 -48.3327 -48.2140 -48.1946
   -48.1877 -48.1873 -48.1715 -48.1462 -48.1433 -48.1218 -48.1056 -48.0830
   -47.9853 -47.9617 -47.9411 -47.9394 -47.9339 -47.8715 -47.8527 -47.8511
    -4.7266  -3.4391  -2.3507  -2.3155  -2.3131  -2.2707  -2.0453  -2.0407
    -2.0315  -1.9051  -1.6039  -1.5978  -1.5600  -1.4394  -1.4334  -1.2215
    -1.2057  -1.1658  -1.0639  -0.5455  -0.5444  -0.5370   0.0373   0.1779
     0.2356   0.2427   0.2942   0.3888   0.5111   0.5635   0.5716   0.8434
     0.8773   0.8811   0.8976   0.9120   0.9137   0.9398   0.9969   1.1263
     1.1522   1.2042   1.2123   1.3365   1.3655   1.4761   1.5636   1.5985
     1.6764   2.0585   2.0835   2.1549   2.2974   2.3898   2.5659   2.6284
     2.6752   2.6997   2.8186   2.8691   2.8991   2.9275   3.0209   3.0391
     3.0548   3.1102   3.2464   3.4328   3.4549   3.5159   3.5826   3.5908
     3.6626   3.7282   3.7478   3.7636   3.8510   3.9042   3.9257   3.9404
     3.9603   4.1953   4.2094   4.2111   4.5773   4.5875   4.8838   4.9293
     4.9391   5.9355   5.9737   6.2496   6.5556   7.2559   7.6610   7.8544
     8.1853   8.2145   9.1904   9.3880   9.6890   9.8913   9.9953  10.0714
    10.0936  10.5589  10.6635  10.8557  10.8917  11.5637

     occupation numbers 
     1.0000   1.0000   1.0000   1.0000   1.0000   1.0000   1.0000   1.0000
     1.0000   1.0000   1.0000   1.0000   1.0000   1.0000   1.0000   1.0000
     1.0000   1.0000   1.0000   1.0000   1.0000   1.0000   1.0000   1.0000
     1.0000   1.0000   1.0000   1.0000   1.0000   1.0000   1.0000   1.0000
     1.0000   1.0000   1.0000   1.0000   1.0000   1.0000   1.0000   1.0000
     1.0000   1.0000   1.0000   1.0000   1.0000   1.0000   1.0000   1.0000
     1.0000   1.0000   1.0000   1.0000   1.0000   1.0000   1.0000   1.0000
     1.0000   1.0000   1.0000   1.0000   1.0000   1.0000   1.0000   1.0000
     1.0000   1.0000   1.0000   1.0000   1.0000   1.0000   1.0000   1.0000
     1.0000   1.0000   1.0000   1.0000   1.0000   1.0000   1.0000   1.0000
     1.0000   1.0000   1.0000   1.0000   1.0000   1.0000   1.0000   1.0000
     1.0000   1.0000   1.0000   1.0000   1.0000   1.0000   1.0000   1.0000
     1.0000   1.0000   1.0000   1.0000   1.0000   1.0000   1.0000   1.0000
     1.0000   1.0000   1.0000   1.0000   1.0000   1.0000   1.0000   1.0000
     1.0000   1.0000   1.0000   1.0000   1.0000   1.0000   1.0000   1.0000
     1.0000   1.0000   1.0000   1.0000   1.0000   1.0000   1.0000   1.0000
     1.0000   1.0000   1.0000   1.0000   1.0000   0.9999   0.9996   0.9995
     0.9981   0.9928   0.9894   0.9855   0.9222   0.8036   0.7269   0.6648
     0.5711   0.0120   0.0091   0.0088   0.0000   0.0000   0.0000   0.0000
     0.0000   0.0000   0.0000   0.0000   0.0000   0.0000   0.0000   0.0000
     0.0000   0.0000   0.0000   0.0000   0.0000   0.0000   0.0000   0.0000
     0.0000   0.0000   0.0000   0.0000   0.0000   0.0000

          k = 0.2500-0.1443 0.0000 ( 39161 PWs)   bands (ev):

   -94.4758 -94.4578 -94.4498 -94.4482 -94.4443 -94.4352 -94.4334 -94.3895
   -94.0578 -94.0274 -94.0158 -94.0138 -94.0085 -93.9612 -93.9510 -93.9497
   -48.7606 -48.7575 -48.7442 -48.7351 -48.7237 -48.7149 -48.7023 -48.6129
   -48.5994 -48.5978 -48.5782 -48.5773 -48.5393 -48.5382 -48.5319 -48.5286
   -48.5192 -48.5186 -48.5033 -48.4886 -48.4781 -48.4778 -48.4669 -48.4352
   -48.3772 -48.3741 -48.3703 -48.3586 -48.3557 -48.3260 -48.2107 -48.2098
   -48.1980 -48.1772 -48.1764 -48.1568 -48.1418 -48.1242 -48.1157 -48.0847
   -47.9851 -47.9608 -47.9422 -47.9390 -47.9341 -47.8709 -47.8535 -47.8509
    -4.6022  -3.3206  -2.4612  -2.2352  -2.1596  -2.0808  -2.0386  -2.0361
    -1.8607  -1.8601  -1.5908  -1.5156  -1.5024  -1.4753  -1.2301  -1.1845
    -1.1756  -1.0093  -0.9906  -0.5198  -0.5146  -0.4896   0.0566   0.0590
     0.0896   0.2471   0.3159   0.3416   0.5393   0.5481   0.6409   0.8184
     0.8516   0.8611   0.8710   0.9616   0.9777   0.9823   1.0127   1.0181
     1.1011   1.1240   1.1853   1.3170   1.3564   1.4269   1.5509   1.5702
     1.6945   2.0093   2.0868   2.0932   2.2320   2.3376   2.4133   2.4360
     2.5262   2.5817   2.6347   2.6580   2.8078   2.8761   2.8895   2.9167
     2.9802   2.9887   3.3462   3.3483   3.3953   3.4015   3.4051   3.5068
     3.5400   3.5844   3.5957   3.7293   3.7380   3.7646   3.8590   3.9038
     3.9736   3.9933   4.0072   4.1295   4.2689   4.2703   5.0485   5.2748
     5.7541   5.7568   6.2479   6.2500   6.5240   7.2197   7.2289   7.6624
     8.8506   8.8738   9.2636   9.4748   9.6613   9.6666  10.0769  10.2836
    10.2897  10.3438  10.6584  11.2461  11.2909  11.4721

     occupation numbers 
     1.0000   1.0000   1.0000   1.0000   1.0000   1.0000   1.0000   1.0000
     1.0000   1.0000   1.0000   1.0000   1.0000   1.0000   1.0000   1.0000
     1.0000   1.0000   1.0000   1.0000   1.0000   1.0000   1.0000   1.0000
     1.0000   1.0000   1.0000   1.0000   1.0000   1.0000   1.0000   1.0000
     1.0000   1.0000   1.0000   1.0000   1.0000   1.0000   1.0000   1.0000
     1.0000   1.0000   1.0000   1.0000   1.0000   1.0000   1.0000   1.0000
     1.0000   1.0000   1.0000   1.0000   1.0000   1.0000   1.0000   1.0000
     1.0000   1.0000   1.0000   1.0000   1.0000   1.0000   1.0000   1.0000
     1.0000   1.0000   1.0000   1.0000   1.0000   1.0000   1.0000   1.0000
     1.0000   1.0000   1.0000   1.0000   1.0000   1.0000   1.0000   1.0000
     1.0000   1.0000   1.0000   1.0000   1.0000   1.0000   1.0000   1.0000
     1.0000   1.0000   1.0000   1.0000   1.0000   1.0000   1.0000   1.0000
     1.0000   1.0000   1.0000   1.0000   1.0000   1.0000   1.0000   1.0000
     1.0000   1.0000   1.0000   1.0000   1.0000   1.0000   1.0000   1.0000
     1.0000   1.0000   1.0000   1.0000   1.0000   1.0000   1.0000   1.0000
     1.0000   1.0000   1.0000   1.0000   1.0000   1.0000   1.0000   1.0000
     1.0000   1.0000   1.0000   1.0000   1.0000   1.0000   1.0000   0.9999
     0.9998   0.9996   0.9995   0.9927   0.9913   0.9852   0.9099   0.8047
     0.5054   0.4079   0.3426   0.0433   0.0028   0.0027   0.0000   0.0000
     0.0000   0.0000   0.0000   0.0000   0.0000   0.0000   0.0000   0.0000
     0.0000   0.0000   0.0000   0.0000   0.0000   0.0000   0.0000   0.0000
     0.0000   0.0000   0.0000   0.0000   0.0000   0.0000

          k = 0.2500 0.0000 0.0000 ( 39141 PWs)   bands (ev):

   -94.4761 -94.4578 -94.4496 -94.4480 -94.4448 -94.4346 -94.4336 -94.3894
   -94.0579 -94.0280 -94.0151 -94.0140 -94.0084 -93.9615 -93.9510 -93.9494
   -48.7689 -48.7568 -48.7553 -48.7423 -48.7272 -48.7232 -48.7057 -48.6106
   -48.6002 -48.5948 -48.5836 -48.5547 -48.5528 -48.5327 -48.5303 -48.5295
   -48.5208 -48.5023 -48.4996 -48.4957 -48.4787 -48.4755 -48.4559 -48.4341
   -48.3841 -48.3750 -48.3725 -48.3704 -48.3634 -48.3327 -48.2138 -48.1941
   -48.1878 -48.1874 -48.1719 -48.1460 -48.1434 -48.1221 -48.1052 -48.0834
   -47.9853 -47.9617 -47.9411 -47.9395 -47.9339 -47.8714 -47.8532 -47.8506
    -4.7267  -3.4391  -2.3509  -2.3163  -2.3136  -2.2711  -2.0449  -2.0406
    -2.0309  -1.9055  -1.6038  -1.5978  -1.5602  -1.4394  -1.4333  -1.2220
    -1.2065  -1.1657  -1.0631  -0.5458  -0.5438  -0.5373   0.0364   0.1786
     0.2346   0.2418   0.2951   0.3889   0.5094   0.5672   0.5754   0.8435
     0.8786   0.8799   0.8971   0.9106   0.9131   0.9414   0.9949   1.1275
     1.1531   1.2050   1.2127   1.3355   1.3648   1.4754   1.5656   1.6003
     1.6767   2.0578   2.0826   2.1531   2.2993   2.3882   2.5650   2.6272
     2.6762   2.6998   2.8205   2.8695   2.8994   2.9279   3.0210   3.0390
     3.0543   3.1088   3.2452   3.4318   3.4540   3.5165   3.5826   3.5907
     3.6632   3.7283   3.7495   3.7652   3.8510   3.9074   3.9256   3.9406
     3.9604   4.1932   4.2077   4.2097   4.5772   4.5875   4.8825   4.9293
     4.9391   5.9369   5.9745   6.2482   6.5572   7.2560   7.6578   7.8485
     8.1853   8.2140   9.1903   9.3880   9.6931   9.8917   9.9950  10.0702
    10.0927  10.5591  10.6692  10.8546  10.8903  11.5629

     occupation numbers 
     1.0000   1.0000   1.0000   1.0000   1.0000   1.0000   1.0000   1.0000
     1.0000   1.0000   1.0000   1.0000   1.0000   1.0000   1.0000   1.0000
     1.0000   1.0000   1.0000   1.0000   1.0000   1.0000   1.0000   1.0000
     1.0000   1.0000   1.0000   1.0000   1.0000   1.0000   1.0000   1.0000
     1.0000   1.0000   1.0000   1.0000   1.0000   1.0000   1.0000   1.0000
     1.0000   1.0000   1.0000   1.0000   1.0000   1.0000   1.0000   1.0000
     1.0000   1.0000   1.0000   1.0000   1.0000   1.0000   1.0000   1.0000
     1.0000   1.0000   1.0000   1.0000   1.0000   1.0000   1.0000   1.0000
     1.0000   1.0000   1.0000   1.0000   1.0000   1.0000   1.0000   1.0000
     1.0000   1.0000   1.0000   1.0000   1.0000   1.0000   1.0000   1.0000
     1.0000   1.0000   1.0000   1.0000   1.0000   1.0000   1.0000   1.0000
     1.0000   1.0000   1.0000   1.0000   1.0000   1.0000   1.0000   1.0000
     1.0000   1.0000   1.0000   1.0000   1.0000   1.0000   1.0000   1.0000
     1.0000   1.0000   1.0000   1.0000   1.0000   1.0000   1.0000   1.0000
     1.0000   1.0000   1.0000   1.0000   1.0000   1.0000   1.0000   1.0000
     1.0000   1.0000   1.0000   1.0000   1.0000   1.0000   1.0000   1.0000
     1.0000   1.0000   1.0000   1.0000   1.0000   0.9999   0.9996   0.9995
     0.9980   0.9928   0.9891   0.9851   0.9222   0.7933   0.7273   0.6637
     0.5706   0.0125   0.0094   0.0090   0.0000   0.0000   0.0000   0.0000
     0.0000   0.0000   0.0000   0.0000   0.0000   0.0000   0.0000   0.0000
     0.0000   0.0000   0.0000   0.0000   0.0000   0.0000   0.0000   0.0000
     0.0000   0.0000   0.0000   0.0000   0.0000   0.0000

          k = 0.2500 0.1443 0.0000 ( 39161 PWs)   bands (ev):

   -94.4758 -94.4578 -94.4500 -94.4480 -94.4444 -94.4348 -94.4338 -94.3895
   -94.0578 -94.0274 -94.0157 -94.0139 -94.0085 -93.9611 -93.9515 -93.9493
   -48.7612 -48.7581 -48.7437 -48.7348 -48.7237 -48.7152 -48.7021 -48.6124
   -48.5990 -48.5976 -48.5781 -48.5773 -48.5401 -48.5378 -48.5326 -48.5281
   -48.5189 -48.5180 -48.5028 -48.4895 -48.4787 -48.4780 -48.4660 -48.4358
   -48.3774 -48.3742 -48.3708 -48.3582 -48.3553 -48.3260 -48.2106 -48.2096
   -48.1976 -48.1772 -48.1766 -48.1565 -48.1423 -48.1244 -48.1153 -48.0850
   -47.9851 -47.9608 -47.9421 -47.9391 -47.9341 -47.8708 -47.8540 -47.8505
    -4.6023  -3.3207  -2.4627  -2.2353  -2.1603  -2.0806  -2.0380  -2.0359
    -1.8608  -1.8604  -1.5906  -1.5160  -1.5028  -1.4751  -1.2312  -1.1844
    -1.1753  -1.0095  -0.9902  -0.5194  -0.5142  -0.4902   0.0565   0.0572
     0.0904   0.2465   0.3180   0.3416   0.5424   0.5507   0.6442   0.8208
     0.8519   0.8593   0.8702   0.9608   0.9778   0.9807   1.0123   1.0147
     1.1004   1.1235   1.1853   1.3190   1.3585   1.4263   1.5506   1.5719
     1.6969   2.0075   2.0853   2.0924   2.2352   2.3352   2.4134   2.4365
     2.5260   2.5821   2.6358   2.6592   2.8079   2.8719   2.8887   2.9169
     2.9803   2.9890   3.3470   3.3479   3.3953   3.4013   3.4043   3.5070
     3.5406   3.5842   3.5950   3.7303   3.7393   3.7655   3.8590   3.9043
     3.9766   3.9936   4.0078   4.1296   4.2666   4.2677   5.0470   5.2744
     5.7544   5.7572   6.2473   6.2490   6.5217   7.2191   7.2283   7.6596
     8.8499   8.8728   9.2634   9.4748   9.6641   9.6673  10.0763  10.2819
    10.2895  10.3417  10.6582  11.2483  11.2924  11.4722

     occupation numbers 
     1.0000   1.0000   1.0000   1.0000   1.0000   1.0000   1.0000   1.0000
     1.0000   1.0000   1.0000   1.0000   1.0000   1.0000   1.0000   1.0000
     1.0000   1.0000   1.0000   1.0000   1.0000   1.0000   1.0000   1.0000
     1.0000   1.0000   1.0000   1.0000   1.0000   1.0000   1.0000   1.0000
     1.0000   1.0000   1.0000   1.0000   1.0000   1.0000   1.0000   1.0000
     1.0000   1.0000   1.0000   1.0000   1.0000   1.0000   1.0000   1.0000
     1.0000   1.0000   1.0000   1.0000   1.0000   1.0000   1.0000   1.0000
     1.0000   1.0000   1.0000   1.0000   1.0000   1.0000   1.0000   1.0000
     1.0000   1.0000   1.0000   1.0000   1.0000   1.0000   1.0000   1.0000
     1.0000   1.0000   1.0000   1.0000   1.0000   1.0000   1.0000   1.0000
     1.0000   1.0000   1.0000   1.0000   1.0000   1.0000   1.0000   1.0000
     1.0000   1.0000   1.0000   1.0000   1.0000   1.0000   1.0000   1.0000
     1.0000   1.0000   1.0000   1.0000   1.0000   1.0000   1.0000   1.0000
     1.0000   1.0000   1.0000   1.0000   1.0000   1.0000   1.0000   1.0000
     1.0000   1.0000   1.0000   1.0000   1.0000   1.0000   1.0000   1.0000
     1.0000   1.0000   1.0000   1.0000   1.0000   1.0000   1.0000   1.0000
     1.0000   1.0000   1.0000   1.0000   1.0000   1.0000   1.0000   0.9999
     0.9998   0.9996   0.9995   0.9925   0.9911   0.9850   0.9099   0.8032
     0.4902   0.4061   0.3402   0.0432   0.0029   0.0028   0.0000   0.0000
     0.0000   0.0000   0.0000   0.0000   0.0000   0.0000   0.0000   0.0000
     0.0000   0.0000   0.0000   0.0000   0.0000   0.0000   0.0000   0.0000
     0.0000   0.0000   0.0000   0.0000   0.0000   0.0000

          k = 0.2500 0.2887 0.0000 ( 39199 PWs)   bands (ev):

   -94.4750 -94.4576 -94.4512 -94.4479 -94.4432 -94.4358 -94.4338 -94.3896
   -94.0577 -94.0258 -94.0168 -94.0144 -94.0086 -93.9602 -93.9525 -93.9494
   -48.7506 -48.7351 -48.7271 -48.7149 -48.7076 -48.7004 -48.6914 -48.6183
   -48.6123 -48.6033 -48.5921 -48.5661 -48.5576 -48.5490 -48.5389 -48.5287
   -48.5204 -48.5159 -48.5095 -48.4976 -48.4884 -48.4812 -48.4752 -48.4441
   -48.3681 -48.3600 -48.3515 -48.3372 -48.3349 -48.3089 -48.2413 -48.2185
   -48.1997 -48.1847 -48.1768 -48.1760 -48.1485 -48.1346 -48.1330 -48.0929
   -47.9847 -47.9580 -47.9437 -47.9401 -47.9338 -47.8693 -47.8557 -47.8505
    -4.2405  -2.9822  -2.4784  -2.1037  -1.9575  -1.9061  -1.8404  -1.7603
    -1.6674  -1.6250  -1.4904  -1.3710  -1.3101  -1.2332  -1.1918  -1.0349
    -0.8440  -0.8258  -0.6718  -0.4323  -0.4001  -0.3742  -0.1742  -0.1095
     0.0542   0.1233   0.1471   0.2982   0.4873   0.5334   0.5982   0.6880
     0.7144   0.7716   0.7813   0.8160   0.9057   0.9532   1.0011   1.0322
     1.0726   1.1690   1.1973   1.2653   1.3368   1.3911   1.5575   1.6936
     1.7613   1.8201   1.8751   1.9135   1.9677   2.0063   2.0458   2.0889
     2.1524   2.1843   2.2301   2.2631   2.4116   2.6999   2.7329   2.7697
     2.7931   2.8495   2.9357   3.0187   3.0969   3.1249   3.1608   3.3303
     3.3604   3.5217   3.5723   3.6672   3.7274   3.8299   3.8604   3.8904
     3.9220   3.9710   3.9825   4.0442   4.1548   4.1618   4.8181   5.0787
     5.1442   5.4992   6.1129   6.9864   7.2124   7.4171   7.6584   8.1967
     8.4264   8.8325   9.4448   9.7435   9.7765  10.1864  10.3651  10.4067
    10.6830  10.8094  10.9721  11.3835  11.5785  11.8361

     occupation numbers 
     1.0000   1.0000   1.0000   1.0000   1.0000   1.0000   1.0000   1.0000
     1.0000   1.0000   1.0000   1.0000   1.0000   1.0000   1.0000   1.0000
     1.0000   1.0000   1.0000   1.0000   1.0000   1.0000   1.0000   1.0000
     1.0000   1.0000   1.0000   1.0000   1.0000   1.0000   1.0000   1.0000
     1.0000   1.0000   1.0000   1.0000   1.0000   1.0000   1.0000   1.0000
     1.0000   1.0000   1.0000   1.0000   1.0000   1.0000   1.0000   1.0000
     1.0000   1.0000   1.0000   1.0000   1.0000   1.0000   1.0000   1.0000
     1.0000   1.0000   1.0000   1.0000   1.0000   1.0000   1.0000   1.0000
     1.0000   1.0000   1.0000   1.0000   1.0000   1.0000   1.0000   1.0000
     1.0000   1.0000   1.0000   1.0000   1.0000   1.0000   1.0000   1.0000
     1.0000   1.0000   1.0000   1.0000   1.0000   1.0000   1.0000   1.0000
     1.0000   1.0000   1.0000   1.0000   1.0000   1.0000   1.0000   1.0000
     1.0000   1.0000   1.0000   1.0000   1.0000   1.0000   1.0000   1.0000
     1.0000   1.0000   1.0000   1.0000   1.0000   1.0000   1.0000   1.0000
     1.0000   1.0000   1.0000   1.0000   1.0000   1.0000   1.0000   1.0000
     1.0000   1.0000   1.0000   1.0000   1.0000   1.0000   1.0000   1.0000
     1.0000   1.0000   1.0000   1.0000   1.0000   1.0000   1.0000   1.0000
     1.0000   0.9999   0.9997   0.9979   0.9929   0.9476   0.9076   0.8437
     0.7412   0.5183   0.4608   0.1992   0.0265   0.0231   0.0000   0.0000
     0.0000   0.0000   0.0000   0.0000   0.0000   0.0000   0.0000   0.0000
     0.0000   0.0000   0.0000   0.0000   0.0000   0.0000   0.0000   0.0000
     0.0000   0.0000   0.0000   0.0000   0.0000   0.0000

          k = 0.2500-0.7217 0.0000 ( 39201 PWs)   bands (ev):

   -94.4741 -94.4570 -94.4530 -94.4477 -94.4416 -94.4372 -94.4339 -94.3898
   -94.0576 -94.0234 -94.0182 -94.0155 -94.0085 -93.9590 -93.9537 -93.9494
   -48.7305 -48.7129 -48.6987 -48.6953 -48.6863 -48.6804 -48.6759 -48.6499
   -48.6181 -48.6078 -48.6021 -48.5951 -48.5637 -48.5495 -48.5434 -48.5378
   -48.5297 -48.5161 -48.5097 -48.5003 -48.4978 -48.4891 -48.4737 -48.4584
   -48.3499 -48.3421 -48.3157 -48.3147 -48.3120 -48.2873 -48.2757 -48.2428
   -48.2248 -48.1938 -48.1846 -48.1835 -48.1528 -48.1476 -48.1426 -48.1062
   -47.9843 -47.9540 -47.9456 -47.9425 -47.9331 -47.8671 -47.8579 -47.8505
    -3.6808  -2.4917  -2.4208  -2.3995  -1.7585  -1.7389  -1.4325  -1.3983
    -1.3698  -1.2912  -1.2546  -1.2382  -1.0531  -1.0387  -0.8689  -0.6521
    -0.6386  -0.6135  -0.5347  -0.3327  -0.3073  -0.2903  -0.2354  -0.1868
    -0.1440  -0.0997   0.0134   0.0276   0.2477   0.2572   0.4077   0.4563
     0.6077   0.6423   0.6962   0.7337   0.7671   0.8722   0.8985   0.9940
     1.0460   1.0588   1.0876   1.1577   1.1866   1.2308   1.2979   1.4598
     1.5100   1.5963   1.6364   1.7050   1.7662   1.8897   1.9541   1.9883
     2.0469   2.0647   2.1047   2.2909   2.3232   2.3853   2.5168   2.5293
     2.7217   2.7359   2.7596   2.8928   2.9739   3.0165   3.1637   3.2396
     3.3569   3.5159   3.5460   3.5675   3.5897   3.6733   3.7598   3.7817
     3.8821   3.8982   3.9607   4.0173   4.0383   4.0796   4.1236   4.2600
     5.1730   5.2174   6.0386   7.2980   7.3285   8.0906   8.1531   8.2090
     9.1084   9.1704   9.6953   9.9167  10.0210  10.2062  10.3518  10.6588
    10.8382  10.9867  11.0084  11.3419  11.6266  11.6807

     occupation numbers 
     1.0000   1.0000   1.0000   1.0000   1.0000   1.0000   1.0000   1.0000
     1.0000   1.0000   1.0000   1.0000   1.0000   1.0000   1.0000   1.0000
     1.0000   1.0000   1.0000   1.0000   1.0000   1.0000   1.0000   1.0000
     1.0000   1.0000   1.0000   1.0000   1.0000   1.0000   1.0000   1.0000
     1.0000   1.0000   1.0000   1.0000   1.0000   1.0000   1.0000   1.0000
     1.0000   1.0000   1.0000   1.0000   1.0000   1.0000   1.0000   1.0000
     1.0000   1.0000   1.0000   1.0000   1.0000   1.0000   1.0000   1.0000
     1.0000   1.0000   1.0000   1.0000   1.0000   1.0000   1.0000   1.0000
     1.0000   1.0000   1.0000   1.0000   1.0000   1.0000   1.0000   1.0000
     1.0000   1.0000   1.0000   1.0000   1.0000   1.0000   1.0000   1.0000
     1.0000   1.0000   1.0000   1.0000   1.0000   1.0000   1.0000   1.0000
     1.0000   1.0000   1.0000   1.0000   1.0000   1.0000   1.0000   1.0000
     1.0000   1.0000   1.0000   1.0000   1.0000   1.0000   1.0000   1.0000
     1.0000   1.0000   1.0000   1.0000   1.0000   1.0000   1.0000   1.0000
     1.0000   1.0000   1.0000   1.0000   1.0000   1.0000   1.0000   1.0000
     1.0000   1.0000   1.0000   1.0000   1.0000   1.0000   1.0000   1.0000
     1.0000   1.0000   1.0000   1.0000   1.0000   1.0000   1.0000   1.0000
     1.0000   0.9999   0.9998   0.9997   0.9995   0.9976   0.9866   0.9793
     0.8642   0.8218   0.5694   0.2989   0.2185   0.1092   0.0484   0.0033
     0.0000   0.0000   0.0000   0.0000   0.0000   0.0000   0.0000   0.0000
     0.0000   0.0000   0.0000   0.0000   0.0000   0.0000   0.0000   0.0000
     0.0000   0.0000   0.0000   0.0000   0.0000   0.0000

          k = 0.2500-0.5774 0.0000 ( 39257 PWs)   bands (ev):

   -94.4737 -94.4564 -94.4540 -94.4477 -94.4402 -94.4386 -94.4338 -94.3898
   -94.0576 -94.0213 -94.0199 -94.0160 -94.0084 -93.9584 -93.9543 -93.9495
   -48.7117 -48.7041 -48.6881 -48.6854 -48.6773 -48.6709 -48.6681 -48.6413
   -48.6389 -48.6264 -48.6095 -48.5907 -48.5856 -48.5597 -48.5403 -48.5343
   -48.5223 -48.5190 -48.5119 -48.5088 -48.5000 -48.4840 -48.4728 -48.4695
   -48.3332 -48.3289 -48.3055 -48.3049 -48.2985 -48.2775 -48.2712 -48.2697
   -48.2403 -48.2231 -48.1890 -48.1671 -48.1641 -48.1502 -48.1412 -48.1155
   -47.9842 -47.9504 -47.9485 -47.9434 -47.9328 -47.8659 -47.8591 -47.8505
    -3.0266  -2.9965  -2.3678  -2.0164  -1.9838  -1.6466  -1.1835  -1.1736
    -1.1559  -1.1021  -1.0354  -0.9535  -0.9330  -0.9018  -0.7309  -0.6559
    -0.5690  -0.5422  -0.5136  -0.3956  -0.3572  -0.3467  -0.2630  -0.2338
    -0.1598  -0.1457  -0.0887  -0.0511   0.1808   0.3232   0.3470   0.4490
     0.4930   0.5193   0.5297   0.5510   0.5851   0.6082   0.6533   0.6951
     0.9019   0.9569   1.1144   1.2090   1.2544   1.2942   1.3254   1.3362
     1.3597   1.3930   1.5580   1.5707   1.7627   1.9145   1.9280   1.9789
     2.0573   2.0866   2.1605   2.3066   2.3860   2.3999   2.4585   2.4951
     2.6734   2.8840   2.9098   2.9199   3.0330   3.0782   3.1558   3.2104
     3.3125   3.3587   3.3885   3.3913   3.4269   3.4926   3.6138   3.6872
     3.7183   3.7628   3.7905   3.8618   3.8749   4.0850   4.1271   4.6002
     4.6595   5.2244   6.5886   6.6693   7.2975   8.0461   8.9864   9.0274
     9.1126   9.2100   9.2472   9.9979  10.1913  10.3806  10.5919  10.6769
    10.8132  10.9061  11.2013  11.4575  11.4834  11.5264

     occupation numbers 
     1.0000   1.0000   1.0000   1.0000   1.0000   1.0000   1.0000   1.0000
     1.0000   1.0000   1.0000   1.0000   1.0000   1.0000   1.0000   1.0000
     1.0000   1.0000   1.0000   1.0000   1.0000   1.0000   1.0000   1.0000
     1.0000   1.0000   1.0000   1.0000   1.0000   1.0000   1.0000   1.0000
     1.0000   1.0000   1.0000   1.0000   1.0000   1.0000   1.0000   1.0000
     1.0000   1.0000   1.0000   1.0000   1.0000   1.0000   1.0000   1.0000
     1.0000   1.0000   1.0000   1.0000   1.0000   1.0000   1.0000   1.0000
     1.0000   1.0000   1.0000   1.0000   1.0000   1.0000   1.0000   1.0000
     1.0000   1.0000   1.0000   1.0000   1.0000   1.0000   1.0000   1.0000
     1.0000   1.0000   1.0000   1.0000   1.0000   1.0000   1.0000   1.0000
     1.0000   1.0000   1.0000   1.0000   1.0000   1.0000   1.0000   1.0000
     1.0000   1.0000   1.0000   1.0000   1.0000   1.0000   1.0000   1.0000
     1.0000   1.0000   1.0000   1.0000   1.0000   1.0000   1.0000   1.0000
     1.0000   1.0000   1.0000   1.0000   1.0000   1.0000   1.0000   1.0000
     1.0000   1.0000   1.0000   1.0000   1.0000   1.0000   1.0000   1.0000
     1.0000   1.0000   1.0000   1.0000   1.0000   1.0000   1.0000   1.0000
     1.0000   1.0000   1.0000   1.0000   1.0000   1.0000   1.0000   1.0000
     1.0000   1.0000   1.0000   1.0000   1.0000   0.9999   0.9993   0.9968
     0.9941   0.9857   0.9755   0.9053   0.8802   0.0991   0.0452   0.0000
     0.0000   0.0000   0.0000   0.0000   0.0000   0.0000   0.0000   0.0000
     0.0000   0.0000   0.0000   0.0000   0.0000   0.0000   0.0000   0.0000
     0.0000   0.0000   0.0000   0.0000   0.0000   0.0000

          k = 0.2500-0.4330 0.0000 ( 39201 PWs)   bands (ev):

   -94.4741 -94.4571 -94.4528 -94.4478 -94.4414 -94.4376 -94.4336 -94.3898
   -94.0576 -94.0234 -94.0183 -94.0154 -94.0085 -93.9592 -93.9533 -93.9497
   -48.7293 -48.7128 -48.6990 -48.6950 -48.6865 -48.6801 -48.6757 -48.6508
   -48.6183 -48.6081 -48.6024 -48.5958 -48.5639 -48.5494 -48.5436 -48.5379
   -48.5295 -48.5160 -48.5095 -48.5000 -48.4974 -48.4895 -48.4739 -48.4577
   -48.3497 -48.3417 -48.3157 -48.3147 -48.3122 -48.2872 -48.2760 -48.2436
   -48.2250 -48.1930 -48.1846 -48.1835 -48.1532 -48.1473 -48.1427 -48.1058
   -47.9843 -47.9540 -47.9457 -47.9424 -47.9331 -47.8673 -47.8575 -47.8507
    -3.6806  -2.4915  -2.4207  -2.3988  -1.7588  -1.7391  -1.4322  -1.3968
    -1.3679  -1.2913  -1.2544  -1.2380  -1.0529  -1.0386  -0.8695  -0.6511
    -0.6374  -0.6142  -0.5350  -0.3335  -0.3072  -0.2913  -0.2369  -0.1862
    -0.1448  -0.0994   0.0131   0.0276   0.2491   0.2590   0.4074   0.4553
     0.6051   0.6414   0.6956   0.7313   0.7648   0.8708   0.8975   0.9935
     1.0431   1.0578   1.0858   1.1589   1.1874   1.2308   1.3047   1.4590
     1.5091   1.5936   1.6360   1.7045   1.7664   1.8888   1.9549   1.9885
     2.0478   2.0658   2.1061   2.2925   2.3229   2.3852   2.5166   2.5303
     2.7209   2.7362   2.7579   2.8939   2.9751   3.0180   3.1644   3.2396
     3.3566   3.5150   3.5455   3.5677   3.5901   3.6710   3.7606   3.7801
     3.8839   3.9001   3.9612   4.0168   4.0383   4.0795   4.1246   4.2617
     5.1715   5.2163   6.0411   7.2980   7.3285   8.0914   8.1551   8.2094
     9.1095   9.1700   9.6954   9.9167  10.0222  10.2061  10.3528  10.6622
    10.8383  10.9866  11.0086  11.3422  11.6231  11.6790

     occupation numbers 
     1.0000   1.0000   1.0000   1.0000   1.0000   1.0000   1.0000   1.0000
     1.0000   1.0000   1.0000   1.0000   1.0000   1.0000   1.0000   1.0000
     1.0000   1.0000   1.0000   1.0000   1.0000   1.0000   1.0000   1.0000
     1.0000   1.0000   1.0000   1.0000   1.0000   1.0000   1.0000   1.0000
     1.0000   1.0000   1.0000   1.0000   1.0000   1.0000   1.0000   1.0000
     1.0000   1.0000   1.0000   1.0000   1.0000   1.0000   1.0000   1.0000
     1.0000   1.0000   1.0000   1.0000   1.0000   1.0000   1.0000   1.0000
     1.0000   1.0000   1.0000   1.0000   1.0000   1.0000   1.0000   1.0000
     1.0000   1.0000   1.0000   1.0000   1.0000   1.0000   1.0000   1.0000
     1.0000   1.0000   1.0000   1.0000   1.0000   1.0000   1.0000   1.0000
     1.0000   1.0000   1.0000   1.0000   1.0000   1.0000   1.0000   1.0000
     1.0000   1.0000   1.0000   1.0000   1.0000   1.0000   1.0000   1.0000
     1.0000   1.0000   1.0000   1.0000   1.0000   1.0000   1.0000   1.0000
     1.0000   1.0000   1.0000   1.0000   1.0000   1.0000   1.0000   1.0000
     1.0000   1.0000   1.0000   1.0000   1.0000   1.0000   1.0000   1.0000
     1.0000   1.0000   1.0000   1.0000   1.0000   1.0000   1.0000   1.0000
     1.0000   1.0000   1.0000   1.0000   1.0000   1.0000   1.0000   1.0000
     1.0000   0.9999   0.9998   0.9997   0.9995   0.9977   0.9864   0.9800
     0.8598   0.8162   0.5669   0.3009   0.2186   0.1093   0.0475   0.0032
     0.0000   0.0000   0.0000   0.0000   0.0000   0.0000   0.0000   0.0000
     0.0000   0.0000   0.0000   0.0000   0.0000   0.0000   0.0000   0.0000
     0.0000   0.0000   0.0000   0.0000   0.0000   0.0000

          k = 0.2500-0.2887 0.0000 ( 39199 PWs)   bands (ev):

   -94.4749 -94.4577 -94.4510 -94.4481 -94.4431 -94.4363 -94.4334 -94.3896
   -94.0577 -94.0258 -94.0169 -94.0143 -94.0086 -93.9604 -93.9519 -93.9498
   -48.7495 -48.7347 -48.7273 -48.7155 -48.7075 -48.6999 -48.6916 -48.6192
   -48.6131 -48.6035 -48.5920 -48.5661 -48.5582 -48.5493 -48.5384 -48.5285
   -48.5205 -48.5161 -48.5098 -48.4973 -48.4878 -48.4810 -48.4754 -48.4434
   -48.3678 -48.3595 -48.3515 -48.3376 -48.3352 -48.3089 -48.2416 -48.2192
   -48.1998 -48.1849 -48.1766 -48.1755 -48.1486 -48.1349 -48.1327 -48.0925
   -47.9847 -47.9580 -47.9438 -47.9400 -47.9338 -47.8694 -47.8551 -47.8509
    -4.2403  -2.9820  -2.4770  -2.1035  -1.9579  -1.9058  -1.8392  -1.7603
    -1.6679  -1.6238  -1.4900  -1.3704  -1.3105  -1.2334  -1.1921  -1.0335
    -0.8433  -0.8262  -0.6722  -0.4324  -0.3997  -0.3748  -0.1739  -0.1120
     0.0539   0.1259   0.1471   0.2985   0.4856   0.5294   0.5986   0.6869
     0.7117   0.7675   0.7785   0.8134   0.9062   0.9579   1.0046   1.0342
     1.0705   1.1702   1.2013   1.2643   1.3315   1.3870   1.5574   1.6940
     1.7615   1.8219   1.8746   1.9134   1.9680   2.0057   2.0456   2.0888
     2.1532   2.1860   2.2289   2.2623   2.4105   2.6996   2.7340   2.7706
     2.7933   2.8495   2.9368   3.0207   3.0956   3.1260   3.1626   3.3299
     3.3606   3.5215   3.5723   3.6660   3.7261   3.8275   3.8601   3.8902
     3.9223   3.9704   3.9820   4.0449   4.1572   4.1647   4.8179   5.0793
     5.1442   5.5015   6.1114   6.9865   7.2154   7.4195   7.6590   8.1957
     8.4281   8.8349   9.4450   9.7434   9.7757  10.1903  10.3665  10.4077
    10.6829  10.8095  10.9666  11.3833  11.5787  11.8361

     occupation numbers 
     1.0000   1.0000   1.0000   1.0000   1.0000   1.0000   1.0000   1.0000
     1.0000   1.0000   1.0000   1.0000   1.0000   1.0000   1.0000   1.0000
     1.0000   1.0000   1.0000   1.0000   1.0000   1.0000   1.0000   1.0000
     1.0000   1.0000   1.0000   1.0000   1.0000   1.0000   1.0000   1.0000
     1.0000   1.0000   1.0000   1.0000   1.0000   1.0000   1.0000   1.0000
     1.0000   1.0000   1.0000   1.0000   1.0000   1.0000   1.0000   1.0000
     1.0000   1.0000   1.0000   1.0000   1.0000   1.0000   1.0000   1.0000
     1.0000   1.0000   1.0000   1.0000   1.0000   1.0000   1.0000   1.0000
     1.0000   1.0000   1.0000   1.0000   1.0000   1.0000   1.0000   1.0000
     1.0000   1.0000   1.0000   1.0000   1.0000   1.0000   1.0000   1.0000
     1.0000   1.0000   1.0000   1.0000   1.0000   1.0000   1.0000   1.0000
     1.0000   1.0000   1.0000   1.0000   1.0000   1.0000   1.0000   1.0000
     1.0000   1.0000   1.0000   1.0000   1.0000   1.0000   1.0000   1.0000
     1.0000   1.0000   1.0000   1.0000   1.0000   1.0000   1.0000   1.0000
     1.0000   1.0000   1.0000   1.0000   1.0000   1.0000   1.0000   1.0000
     1.0000   1.0000   1.0000   1.0000   1.0000   1.0000   1.0000   1.0000
     1.0000   1.0000   1.0000   1.0000   1.0000   1.0000   1.0000   1.0000
     1.0000   0.9999   0.9997   0.9979   0.9931   0.9499   0.9081   0.8440
     0.7400   0.5210   0.4631   0.1970   0.0253   0.0218   0.0000   0.0000
     0.0000   0.0000   0.0000   0.0000   0.0000   0.0000   0.0000   0.0000
     0.0000   0.0000   0.0000   0.0000   0.0000   0.0000   0.0000   0.0000
     0.0000   0.0000   0.0000   0.0000   0.0000   0.0000

          k = 0.3750-0.2165 0.0000 ( 39194 PWs)   bands (ev):

   -94.4746 -94.4577 -94.4512 -94.4482 -94.4425 -94.4369 -94.4334 -94.3897
   -94.0577 -94.0248 -94.0181 -94.0138 -94.0088 -93.9599 -93.9524 -93.9497
   -48.7395 -48.7350 -48.7220 -48.7038 -48.6986 -48.6926 -48.6804 -48.6191
   -48.6141 -48.6038 -48.5856 -48.5828 -48.5753 -48.5506 -48.5430 -48.5266
   -48.5224 -48.5198 -48.5179 -48.5008 -48.4925 -48.4775 -48.4756 -48.4448
   -48.3583 -48.3564 -48.3543 -48.3261 -48.3133 -48.2987 -48.2318 -48.2304
   -48.2203 -48.2041 -48.1883 -48.1645 -48.1564 -48.1383 -48.1361 -48.0934
   -47.9846 -47.9564 -47.9460 -47.9388 -47.9343 -47.8687 -47.8559 -47.8509
    -4.0195  -2.7985  -2.7548  -2.0583  -1.7790  -1.7007  -1.6991  -1.6507
    -1.5610  -1.5552  -1.5316  -1.2391  -1.1580  -1.1575  -1.0332  -0.9348
    -0.9066  -0.5730  -0.5606  -0.3472  -0.3343  -0.3162  -0.2863  -0.0732
    -0.0576   0.0187   0.1202   0.3614   0.3758   0.4050   0.4468   0.6151
     0.6457   0.6824   0.7603   0.8575   0.8917   1.0058   1.0151   1.1123
     1.1938   1.2263   1.2460   1.2652   1.3396   1.4028   1.4910   1.5623
     1.6159   1.7180   1.7431   1.7800   1.7836   1.8701   1.9531   1.9646
     2.0293   2.0547   2.0776   2.3130   2.3625   2.6151   2.6206   2.6599
     2.7057   2.7693   2.8193   2.8425   2.8748   2.9981   3.0076   3.0431
     3.1134   3.2973   3.3318   3.4858   3.5326   3.6774   3.6924   3.9189
     3.9920   3.9986   4.0077   4.0480   4.2696   4.2754   4.7154   5.7134
     5.8927   5.8936   6.3902   6.3920   6.9458   7.4770   7.4891   7.6198
     9.3185   9.3518   9.4446   9.8622   9.9411  10.2250  10.2285  10.5426
    10.7500  11.1202  11.1655  11.3033  11.4215  11.9987

     occupation numbers 
     1.0000   1.0000   1.0000   1.0000   1.0000   1.0000   1.0000   1.0000
     1.0000   1.0000   1.0000   1.0000   1.0000   1.0000   1.0000   1.0000
     1.0000   1.0000   1.0000   1.0000   1.0000   1.0000   1.0000   1.0000
     1.0000   1.0000   1.0000   1.0000   1.0000   1.0000   1.0000   1.0000
     1.0000   1.0000   1.0000   1.0000   1.0000   1.0000   1.0000   1.0000
     1.0000   1.0000   1.0000   1.0000   1.0000   1.0000   1.0000   1.0000
     1.0000   1.0000   1.0000   1.0000   1.0000   1.0000   1.0000   1.0000
     1.0000   1.0000   1.0000   1.0000   1.0000   1.0000   1.0000   1.0000
     1.0000   1.0000   1.0000   1.0000   1.0000   1.0000   1.0000   1.0000
     1.0000   1.0000   1.0000   1.0000   1.0000   1.0000   1.0000   1.0000
     1.0000   1.0000   1.0000   1.0000   1.0000   1.0000   1.0000   1.0000
     1.0000   1.0000   1.0000   1.0000   1.0000   1.0000   1.0000   1.0000
     1.0000   1.0000   1.0000   1.0000   1.0000   1.0000   1.0000   1.0000
     1.0000   1.0000   1.0000   1.0000   1.0000   1.0000   1.0000   1.0000
     1.0000   1.0000   1.0000   1.0000   1.0000   1.0000   1.0000   1.0000
     1.0000   1.0000   1.0000   1.0000   1.0000   1.0000   1.0000   1.0000
     1.0000   1.0000   1.0000   1.0000   1.0000   1.0000   1.0000   1.0000
     1.0000   1.0000   1.0000   0.9999   0.9999   0.9974   0.9965   0.7531
     0.4143   0.3823   0.3404   0.1874   0.0027   0.0024   0.0000   0.0000
     0.0000   0.0000   0.0000   0.0000   0.0000   0.0000   0.0000   0.0000
     0.0000   0.0000   0.0000   0.0000   0.0000   0.0000   0.0000   0.0000
     0.0000   0.0000   0.0000   0.0000   0.0000   0.0000

          k = 0.3750-0.0722 0.0000 ( 39199 PWs)   bands (ev):

   -94.4749 -94.4576 -94.4511 -94.4480 -94.4432 -94.4361 -94.4336 -94.3896
   -94.0577 -94.0258 -94.0169 -94.0143 -94.0086 -93.9603 -93.9522 -93.9495
   -48.7504 -48.7341 -48.7272 -48.7155 -48.7076 -48.7000 -48.6916 -48.6188
   -48.6126 -48.6035 -48.5919 -48.5665 -48.5577 -48.5490 -48.5383 -48.5288
   -48.5204 -48.5162 -48.5100 -48.4973 -48.4878 -48.4811 -48.4753 -48.4438
   -48.3680 -48.3597 -48.3513 -48.3375 -48.3352 -48.3089 -48.2414 -48.2186
   -48.2000 -48.1848 -48.1766 -48.1764 -48.1482 -48.1347 -48.1328 -48.0927
   -47.9847 -47.9580 -47.9438 -47.9401 -47.9338 -47.8693 -47.8554 -47.8507
    -4.2404  -2.9821  -2.4770  -2.1046  -1.9579  -1.9060  -1.8396  -1.7595
    -1.6673  -1.6249  -1.4901  -1.3706  -1.3106  -1.2331  -1.1921  -1.0338
    -0.8446  -0.8258  -0.6716  -0.4330  -0.3996  -0.3743  -0.1738  -0.1119
     0.0552   0.1252   0.1469   0.2964   0.4853   0.5296   0.5982   0.6875
     0.7139   0.7705   0.7803   0.8162   0.9065   0.9581   1.0042   1.0318
     1.0738   1.1661   1.1974   1.2652   1.3358   1.3898   1.5574   1.6939
     1.7614   1.8199   1.8750   1.9128   1.9672   2.0068   2.0458   2.0884
     2.1525   2.1847   2.2299   2.2632   2.4112   2.6996   2.7328   2.7699
     2.7932   2.8485   2.9371   3.0210   3.0969   3.1245   3.1611   3.3297
     3.3609   3.5213   3.5727   3.6665   3.7266   3.8304   3.8596   3.8901
     3.9220   3.9701   3.9810   4.0431   4.1569   4.1640   4.8179   5.0796
     5.1457   5.5002   6.1121   6.9864   7.2143   7.4200   7.6587   8.1944
     8.4267   8.8322   9.4450   9.7435   9.7773  10.1903  10.3656  10.4075
    10.6812  10.8092  10.9716  11.3834  11.5782  11.8359

     occupation numbers 
     1.0000   1.0000   1.0000   1.0000   1.0000   1.0000   1.0000   1.0000
     1.0000   1.0000   1.0000   1.0000   1.0000   1.0000   1.0000   1.0000
     1.0000   1.0000   1.0000   1.0000   1.0000   1.0000   1.0000   1.0000
     1.0000   1.0000   1.0000   1.0000   1.0000   1.0000   1.0000   1.0000
     1.0000   1.0000   1.0000   1.0000   1.0000   1.0000   1.0000   1.0000
     1.0000   1.0000   1.0000   1.0000   1.0000   1.0000   1.0000   1.0000
     1.0000   1.0000   1.0000   1.0000   1.0000   1.0000   1.0000   1.0000
     1.0000   1.0000   1.0000   1.0000   1.0000   1.0000   1.0000   1.0000
     1.0000   1.0000   1.0000   1.0000   1.0000   1.0000   1.0000   1.0000
     1.0000   1.0000   1.0000   1.0000   1.0000   1.0000   1.0000   1.0000
     1.0000   1.0000   1.0000   1.0000   1.0000   1.0000   1.0000   1.0000
     1.0000   1.0000   1.0000   1.0000   1.0000   1.0000   1.0000   1.0000
     1.0000   1.0000   1.0000   1.0000   1.0000   1.0000   1.0000   1.0000
     1.0000   1.0000   1.0000   1.0000   1.0000   1.0000   1.0000   1.0000
     1.0000   1.0000   1.0000   1.0000   1.0000   1.0000   1.0000   1.0000
     1.0000   1.0000   1.0000   1.0000   1.0000   1.0000   1.0000   1.0000
     1.0000   1.0000   1.0000   1.0000   1.0000   1.0000   1.0000   1.0000
     1.0000   0.9999   0.9997   0.9979   0.9930   0.9471   0.9090   0.8443
     0.7413   0.5229   0.4680   0.2028   0.0254   0.0222   0.0000   0.0000
     0.0000   0.0000   0.0000   0.0000   0.0000   0.0000   0.0000   0.0000
     0.0000   0.0000   0.0000   0.0000   0.0000   0.0000   0.0000   0.0000
     0.0000   0.0000   0.0000   0.0000   0.0000   0.0000

          k = 0.3750 0.0722 0.0000 ( 39199 PWs)   bands (ev):

   -94.4750 -94.4576 -94.4512 -94.4479 -94.4432 -94.4358 -94.4338 -94.3896
   -94.0577 -94.0258 -94.0168 -94.0144 -94.0086 -93.9602 -93.9525 -93.9494
   -48.7505 -48.7351 -48.7271 -48.7148 -48.7076 -48.7004 -48.6914 -48.6184
   -48.6124 -48.6033 -48.5921 -48.5661 -48.5576 -48.5490 -48.5389 -48.5287
   -48.5204 -48.5159 -48.5094 -48.4975 -48.4884 -48.4812 -48.4752 -48.4441
   -48.3680 -48.3600 -48.3516 -48.3372 -48.3349 -48.3089 -48.2413 -48.2186
   -48.1997 -48.1847 -48.1768 -48.1759 -48.1486 -48.1346 -48.1330 -48.0928
   -47.9847 -47.9580 -47.9437 -47.9401 -47.9338 -47.8693 -47.8557 -47.8505
    -4.2405  -2.9822  -2.4784  -2.1035  -1.9575  -1.9061  -1.8403  -1.7604
    -1.6675  -1.6249  -1.4904  -1.3710  -1.3101  -1.2333  -1.1918  -1.0348
    -0.8438  -0.8259  -0.6719  -0.4322  -0.4001  -0.3743  -0.1742  -0.1095
     0.0540   0.1234   0.1471   0.2985   0.4873   0.5334   0.5982   0.6879
     0.7141   0.7713   0.7810   0.8156   0.9056   0.9532   1.0012   1.0326
     1.0722   1.1696   1.1978   1.2652   1.3362   1.3908   1.5576   1.6937
     1.7614   1.8205   1.8750   1.9136   1.9679   2.0060   2.0458   2.0890
     2.1525   2.1846   2.2299   2.2629   2.4113   2.6998   2.7332   2.7698
     2.7931   2.8497   2.9356   3.0187   3.0968   3.1251   3.1610   3.3304
     3.3603   3.5218   3.5722   3.6671   3.7273   3.8295   3.8605   3.8904
     3.9221   3.9710   3.9826   4.0444   4.1549   4.1619   4.8181   5.0787
     5.1439   5.4994   6.1128   6.9864   7.2126   7.4170   7.6584   8.1969
     8.4266   8.8329   9.4448   9.7435   9.7763  10.1864  10.3652  10.4067
    10.6832  10.8094  10.9715  11.3835  11.5785  11.8361

     occupation numbers 
     1.0000   1.0000   1.0000   1.0000   1.0000   1.0000   1.0000   1.0000
     1.0000   1.0000   1.0000   1.0000   1.0000   1.0000   1.0000   1.0000
     1.0000   1.0000   1.0000   1.0000   1.0000   1.0000   1.0000   1.0000
     1.0000   1.0000   1.0000   1.0000   1.0000   1.0000   1.0000   1.0000
     1.0000   1.0000   1.0000   1.0000   1.0000   1.0000   1.0000   1.0000
     1.0000   1.0000   1.0000   1.0000   1.0000   1.0000   1.0000   1.0000
     1.0000   1.0000   1.0000   1.0000   1.0000   1.0000   1.0000   1.0000
     1.0000   1.0000   1.0000   1.0000   1.0000   1.0000   1.0000   1.0000
     1.0000   1.0000   1.0000   1.0000   1.0000   1.0000   1.0000   1.0000
     1.0000   1.0000   1.0000   1.0000   1.0000   1.0000   1.0000   1.0000
     1.0000   1.0000   1.0000   1.0000   1.0000   1.0000   1.0000   1.0000
     1.0000   1.0000   1.0000   1.0000   1.0000   1.0000   1.0000   1.0000
     1.0000   1.0000   1.0000   1.0000   1.0000   1.0000   1.0000   1.0000
     1.0000   1.0000   1.0000   1.0000   1.0000   1.0000   1.0000   1.0000
     1.0000   1.0000   1.0000   1.0000   1.0000   1.0000   1.0000   1.0000
     1.0000   1.0000   1.0000   1.0000   1.0000   1.0000   1.0000   1.0000
     1.0000   1.0000   1.0000   1.0000   1.0000   1.0000   1.0000   1.0000
     1.0000   0.9999   0.9997   0.9979   0.9929   0.9480   0.9074   0.8436
     0.7410   0.5181   0.4602   0.1984   0.0265   0.0231   0.0000   0.0000
     0.0000   0.0000   0.0000   0.0000   0.0000   0.0000   0.0000   0.0000
     0.0000   0.0000   0.0000   0.0000   0.0000   0.0000   0.0000   0.0000
     0.0000   0.0000   0.0000   0.0000   0.0000   0.0000

          k = 0.3750 0.2165 0.0000 ( 39194 PWs)   bands (ev):

   -94.4746 -94.4576 -94.4515 -94.4480 -94.4426 -94.4364 -94.4338 -94.3897
   -94.0577 -94.0248 -94.0181 -94.0139 -94.0088 -93.9597 -93.9530 -93.9493
   -48.7404 -48.7358 -48.7223 -48.7040 -48.6988 -48.6920 -48.6802 -48.6180
   -48.6131 -48.6031 -48.5857 -48.5831 -48.5746 -48.5510 -48.5425 -48.5274
   -48.5222 -48.5194 -48.5177 -48.5005 -48.4932 -48.4784 -48.4754 -48.4453
   -48.3586 -48.3569 -48.3545 -48.3256 -48.3130 -48.2986 -48.2317 -48.2302
   -48.2201 -48.2038 -48.1880 -48.1648 -48.1559 -48.1390 -48.1363 -48.0936
   -47.9846 -47.9564 -47.9459 -47.9389 -47.9342 -47.8684 -47.8566 -47.8504
    -4.0198  -2.7989  -2.7557  -2.0581  -1.7797  -1.7009  -1.6993  -1.6523
    -1.5618  -1.5560  -1.5323  -1.2391  -1.1578  -1.1577  -1.0339  -0.9348
    -0.9061  -0.5735  -0.5605  -0.3468  -0.3334  -0.3149  -0.2853  -0.0747
    -0.0584   0.0188   0.1208   0.3652   0.3798   0.4051   0.4486   0.6149
     0.6459   0.6853   0.7604   0.8595   0.8942   1.0017   1.0107   1.1090
     1.1924   1.2265   1.2466   1.2666   1.3429   1.4033   1.4917   1.5631
     1.6164   1.7203   1.7429   1.7810   1.7831   1.8703   1.9531   1.9643
     2.0285   2.0550   2.0775   2.3149   2.3614   2.6152   2.6209   2.6606
     2.7047   2.7692   2.8190   2.8426   2.8713   2.9976   3.0073   3.0435
     3.1129   3.2969   3.3320   3.4855   3.5320   3.6781   3.6933   3.9185
     3.9941   3.9993   4.0089   4.0490   4.2667   4.2727   4.7140   5.7111
     5.8925   5.8935   6.3904   6.3908   6.9424   7.4770   7.4895   7.6168
     9.3194   9.3527   9.4422   9.8598   9.9407  10.2238  10.2274  10.5425
    10.7504  11.1184  11.1643  11.3033  11.4213  11.9992

     occupation numbers 
     1.0000   1.0000   1.0000   1.0000   1.0000   1.0000   1.0000   1.0000
     1.0000   1.0000   1.0000   1.0000   1.0000   1.0000   1.0000   1.0000
     1.0000   1.0000   1.0000   1.0000   1.0000   1.0000   1.0000   1.0000
     1.0000   1.0000   1.0000   1.0000   1.0000   1.0000   1.0000   1.0000
     1.0000   1.0000   1.0000   1.0000   1.0000   1.0000   1.0000   1.0000
     1.0000   1.0000   1.0000   1.0000   1.0000   1.0000   1.0000   1.0000
     1.0000   1.0000   1.0000   1.0000   1.0000   1.0000   1.0000   1.0000
     1.0000   1.0000   1.0000   1.0000   1.0000   1.0000   1.0000   1.0000
     1.0000   1.0000   1.0000   1.0000   1.0000   1.0000   1.0000   1.0000
     1.0000   1.0000   1.0000   1.0000   1.0000   1.0000   1.0000   1.0000
     1.0000   1.0000   1.0000   1.0000   1.0000   1.0000   1.0000   1.0000
     1.0000   1.0000   1.0000   1.0000   1.0000   1.0000   1.0000   1.0000
     1.0000   1.0000   1.0000   1.0000   1.0000   1.0000   1.0000   1.0000
     1.0000   1.0000   1.0000   1.0000   1.0000   1.0000   1.0000   1.0000
     1.0000   1.0000   1.0000   1.0000   1.0000   1.0000   1.0000   1.0000
     1.0000   1.0000   1.0000   1.0000   1.0000   1.0000   1.0000   1.0000
     1.0000   1.0000   1.0000   1.0000   1.0000   1.0000   1.0000   1.0000
     1.0000   1.0000   1.0000   0.9999   0.9999   0.9973   0.9964   0.7545
     0.4037   0.3790   0.3351   0.1842   0.0029   0.0026   0.0000   0.0000
     0.0000   0.0000   0.0000   0.0000   0.0000   0.0000   0.0000   0.0000
     0.0000   0.0000   0.0000   0.0000   0.0000   0.0000   0.0000   0.0000
     0.0000   0.0000   0.0000   0.0000   0.0000   0.0000

          k = 0.3750-0.7939 0.0000 ( 39195 PWs)   bands (ev):

   -94.4740 -94.4572 -94.4526 -94.4479 -94.4416 -94.4372 -94.4339 -94.3898
   -94.0576 -94.0231 -94.0192 -94.0146 -94.0087 -93.9589 -93.9539 -93.9493
   -48.7304 -48.7187 -48.7083 -48.6926 -48.6886 -48.6803 -48.6611 -48.6406
   -48.6170 -48.6058 -48.6024 -48.5911 -48.5676 -48.5612 -48.5532 -48.5322
   -48.5237 -48.5200 -48.5146 -48.5047 -48.5000 -48.4795 -48.4740 -48.4546
   -48.3503 -48.3466 -48.3349 -48.3066 -48.2901 -48.2877 -48.2658 -48.2349
   -48.2338 -48.2119 -48.1975 -48.1656 -48.1629 -48.1471 -48.1387 -48.1017
   -47.9843 -47.9535 -47.9478 -47.9404 -47.9336 -47.8670 -47.8581 -47.8504
    -3.5957  -2.9346  -2.4413  -2.0498  -1.8734  -1.5238  -1.5124  -1.4283
    -1.3921  -1.3144  -1.3028  -1.1162  -1.0768  -0.9300  -0.8939  -0.8351
    -0.6338  -0.5019  -0.4741  -0.4251  -0.2787  -0.2273  -0.2101  -0.1556
    -0.1314  -0.0329  -0.0097   0.0708   0.2419   0.3526   0.4296   0.4640
     0.5488   0.5969   0.6363   0.7827   0.8639   0.9178   0.9885   1.0489
     1.0831   1.1161   1.1514   1.1710   1.2433   1.2548   1.3274   1.3866
     1.4294   1.4783   1.5566   1.6426   1.7543   1.8284   1.9495   1.9965
     2.0213   2.0616   2.1283   2.2693   2.3626   2.4621   2.4843   2.5089
     2.5657   2.6508   2.6950   2.8384   2.8781   2.9313   2.9806   3.0119
     3.1281   3.2058   3.3275   3.4154   3.4789   3.6167   3.6916   3.8685
     3.8867   3.9360   3.9586   4.1369   4.1542   4.2451   4.6197   4.9336
     5.1813   6.0984   6.2184   6.7213   6.9812   7.7900   8.1843   8.2869
     8.9996   9.2552   9.5443   9.9240  10.2207  10.2933  10.5831  10.7657
    10.9111  11.0178  11.1120  11.2078  11.4205  11.6928

     occupation numbers 
     1.0000   1.0000   1.0000   1.0000   1.0000   1.0000   1.0000   1.0000
     1.0000   1.0000   1.0000   1.0000   1.0000   1.0000   1.0000   1.0000
     1.0000   1.0000   1.0000   1.0000   1.0000   1.0000   1.0000   1.0000
     1.0000   1.0000   1.0000   1.0000   1.0000   1.0000   1.0000   1.0000
     1.0000   1.0000   1.0000   1.0000   1.0000   1.0000   1.0000   1.0000
     1.0000   1.0000   1.0000   1.0000   1.0000   1.0000   1.0000   1.0000
     1.0000   1.0000   1.0000   1.0000   1.0000   1.0000   1.0000   1.0000
     1.0000   1.0000   1.0000   1.0000   1.0000   1.0000   1.0000   1.0000
     1.0000   1.0000   1.0000   1.0000   1.0000   1.0000   1.0000   1.0000
     1.0000   1.0000   1.0000   1.0000   1.0000   1.0000   1.0000   1.0000
     1.0000   1.0000   1.0000   1.0000   1.0000   1.0000   1.0000   1.0000
     1.0000   1.0000   1.0000   1.0000   1.0000   1.0000   1.0000   1.0000
     1.0000   1.0000   1.0000   1.0000   1.0000   1.0000   1.0000   1.0000
     1.0000   1.0000   1.0000   1.0000   1.0000   1.0000   1.0000   1.0000
     1.0000   1.0000   1.0000   1.0000   1.0000   1.0000   1.0000   1.0000
     1.0000   1.0000   1.0000   1.0000   1.0000   1.0000   1.0000   1.0000
     1.0000   1.0000   1.0000   1.0000   1.0000   1.0000   1.0000   1.0000
     1.0000   1.0000   1.0000   1.0000   1.0000   0.9992   0.9965   0.8930
     0.8530   0.6843   0.5794   0.0375   0.0268   0.0045   0.0000   0.0000
     0.0000   0.0000   0.0000   0.0000   0.0000   0.0000   0.0000   0.0000
     0.0000   0.0000   0.0000   0.0000   0.0000   0.0000   0.0000   0.0000
     0.0000   0.0000   0.0000   0.0000   0.0000   0.0000

          k = 0.3750-0.6495 0.0000 ( 39257 PWs)   bands (ev):

   -94.4737 -94.4562 -94.4542 -94.4476 -94.4404 -94.4382 -94.4339 -94.3898
   -94.0576 -94.0214 -94.0198 -94.0161 -94.0084 -93.9582 -93.9546 -93.9494
   -48.7124 -48.7047 -48.6880 -48.6859 -48.6768 -48.6708 -48.6682 -48.6406
   -48.6385 -48.6263 -48.6092 -48.5906 -48.5853 -48.5599 -48.5400 -48.5343
   -48.5226 -48.5190 -48.5122 -48.5090 -48.4998 -48.4840 -48.4727 -48.4700
   -48.3335 -48.3293 -48.3054 -48.3048 -48.2983 -48.2773 -48.2710 -48.2695
   -48.2402 -48.2231 -48.1888 -48.1673 -48.1642 -48.1498 -48.1417 -48.1156
   -47.9842 -47.9505 -47.9484 -47.9435 -47.9328 -47.8657 -47.8595 -47.8504
    -3.0274  -2.9964  -2.3675  -2.0164  -1.9835  -1.6474  -1.1849  -1.1743
    -1.1566  -1.1036  -1.0344  -0.9548  -0.9335  -0.9002  -0.7303  -0.6567
    -0.5683  -0.5413  -0.5134  -0.3953  -0.3570  -0.3467  -0.2627  -0.2345
    -0.1599  -0.1454  -0.0881  -0.0511   0.1810   0.3234   0.3478   0.4491
     0.4932   0.5197   0.5293   0.5513   0.5856   0.6091   0.6547   0.6957
     0.9024   0.9570   1.1145   1.2083   1.2545   1.2942   1.3256   1.3362
     1.3595   1.3916   1.5580   1.5712   1.7627   1.9170   1.9280   1.9776
     2.0577   2.0858   2.1603   2.3060   2.3858   2.4001   2.4589   2.4954
     2.6727   2.8836   2.9101   2.9199   3.0328   3.0783   3.1551   3.2109
     3.3120   3.3587   3.3896   3.3904   3.4268   3.4928   3.6132   3.6882
     3.7193   3.7636   3.7916   3.8597   3.8732   4.0851   4.1263   4.5991
     4.6586   5.2265   6.5868   6.6678   7.2996   8.0462   8.9870   9.0265
     9.1127   9.2074   9.2440   9.9994  10.1916  10.3810  10.5920  10.6770
    10.8132  10.9060  11.2012  11.4571  11.4831  11.5262

     occupation numbers 
     1.0000   1.0000   1.0000   1.0000   1.0000   1.0000   1.0000   1.0000
     1.0000   1.0000   1.0000   1.0000   1.0000   1.0000   1.0000   1.0000
     1.0000   1.0000   1.0000   1.0000   1.0000   1.0000   1.0000   1.0000
     1.0000   1.0000   1.0000   1.0000   1.0000   1.0000   1.0000   1.0000
     1.0000   1.0000   1.0000   1.0000   1.0000   1.0000   1.0000   1.0000
     1.0000   1.0000   1.0000   1.0000   1.0000   1.0000   1.0000   1.0000
     1.0000   1.0000   1.0000   1.0000   1.0000   1.0000   1.0000   1.0000
     1.0000   1.0000   1.0000   1.0000   1.0000   1.0000   1.0000   1.0000
     1.0000   1.0000   1.0000   1.0000   1.0000   1.0000   1.0000   1.0000
     1.0000   1.0000   1.0000   1.0000   1.0000   1.0000   1.0000   1.0000
     1.0000   1.0000   1.0000   1.0000   1.0000   1.0000   1.0000   1.0000
     1.0000   1.0000   1.0000   1.0000   1.0000   1.0000   1.0000   1.0000
     1.0000   1.0000   1.0000   1.0000   1.0000   1.0000   1.0000   1.0000
     1.0000   1.0000   1.0000   1.0000   1.0000   1.0000   1.0000   1.0000
     1.0000   1.0000   1.0000   1.0000   1.0000   1.0000   1.0000   1.0000
     1.0000   1.0000   1.0000   1.0000   1.0000   1.0000   1.0000   1.0000
     1.0000   1.0000   1.0000   1.0000   1.0000   1.0000   1.0000   1.0000
     1.0000   1.0000   1.0000   1.0000   1.0000   0.9999   0.9993   0.9968
     0.9940   0.9855   0.9750   0.9088   0.8838   0.0988   0.0459   0.0000
     0.0000   0.0000   0.0000   0.0000   0.0000   0.0000   0.0000   0.0000
     0.0000   0.0000   0.0000   0.0000   0.0000   0.0000   0.0000   0.0000
     0.0000   0.0000   0.0000   0.0000   0.0000   0.0000

          k = 0.3750-0.5052 0.0000 ( 39257 PWs)   bands (ev):

   -94.4737 -94.4564 -94.4540 -94.4477 -94.4401 -94.4387 -94.4338 -94.3898
   -94.0576 -94.0213 -94.0199 -94.0160 -94.0084 -93.9584 -93.9543 -93.9495
   -48.7116 -48.7041 -48.6881 -48.6854 -48.6773 -48.6710 -48.6681 -48.6414
   -48.6389 -48.6264 -48.6096 -48.5907 -48.5857 -48.5597 -48.5404 -48.5343
   -48.5223 -48.5190 -48.5119 -48.5088 -48.5000 -48.4840 -48.4727 -48.4695
   -48.3332 -48.3288 -48.3055 -48.3049 -48.2985 -48.2775 -48.2712 -48.2697
   -48.2403 -48.2231 -48.1890 -48.1671 -48.1641 -48.1503 -48.1412 -48.1154
   -47.9842 -47.9504 -47.9485 -47.9434 -47.9328 -47.8659 -47.8592 -47.8505
    -3.0265  -2.9965  -2.3678  -2.0164  -1.9838  -1.6465  -1.1834  -1.1735
    -1.1558  -1.1020  -1.0355  -0.9533  -0.9330  -0.9020  -0.7310  -0.6558
    -0.5691  -0.5424  -0.5136  -0.3957  -0.3573  -0.3467  -0.2630  -0.2337
    -0.1598  -0.1458  -0.0888  -0.0511   0.1808   0.3233   0.3468   0.4489
     0.4930   0.5192   0.5298   0.5509   0.5850   0.6081   0.6529   0.6950
     0.9018   0.9569   1.1143   1.2091   1.2545   1.2942   1.3255   1.3362
     1.3597   1.3933   1.5580   1.5705   1.7627   1.9142   1.9281   1.9790
     2.0573   2.0867   2.1605   2.3067   2.3860   2.3999   2.4585   2.4951
     2.6735   2.8841   2.9098   2.9199   3.0330   3.0781   3.1560   3.2102
     3.3125   3.3586   3.3884   3.3914   3.4269   3.4926   3.6139   3.6870
     3.7182   3.7627   3.7904   3.8620   3.8752   4.0850   4.1272   4.6004
     4.6596   5.2241   6.5889   6.6695   7.2972   8.0461   8.9865   9.0276
     9.1126   9.2103   9.2475   9.9977  10.1913  10.3806  10.5919  10.6769
    10.8132  10.9061  11.2013  11.4576  11.4835  11.5264

     occupation numbers 
     1.0000   1.0000   1.0000   1.0000   1.0000   1.0000   1.0000   1.0000
     1.0000   1.0000   1.0000   1.0000   1.0000   1.0000   1.0000   1.0000
     1.0000   1.0000   1.0000   1.0000   1.0000   1.0000   1.0000   1.0000
     1.0000   1.0000   1.0000   1.0000   1.0000   1.0000   1.0000   1.0000
     1.0000   1.0000   1.0000   1.0000   1.0000   1.0000   1.0000   1.0000
     1.0000   1.0000   1.0000   1.0000   1.0000   1.0000   1.0000   1.0000
     1.0000   1.0000   1.0000   1.0000   1.0000   1.0000   1.0000   1.0000
     1.0000   1.0000   1.0000   1.0000   1.0000   1.0000   1.0000   1.0000
     1.0000   1.0000   1.0000   1.0000   1.0000   1.0000   1.0000   1.0000
     1.0000   1.0000   1.0000   1.0000   1.0000   1.0000   1.0000   1.0000
     1.0000   1.0000   1.0000   1.0000   1.0000   1.0000   1.0000   1.0000
     1.0000   1.0000   1.0000   1.0000   1.0000   1.0000   1.0000   1.0000
     1.0000   1.0000   1.0000   1.0000   1.0000   1.0000   1.0000   1.0000
     1.0000   1.0000   1.0000   1.0000   1.0000   1.0000   1.0000   1.0000
     1.0000   1.0000   1.0000   1.0000   1.0000   1.0000   1.0000   1.0000
     1.0000   1.0000   1.0000   1.0000   1.0000   1.0000   1.0000   1.0000
     1.0000   1.0000   1.0000   1.0000   1.0000   1.0000   1.0000   1.0000
     1.0000   1.0000   1.0000   1.0000   1.0000   0.9999   0.9993   0.9968
     0.9941   0.9858   0.9755   0.9049   0.8797   0.0991   0.0451   0.0000
     0.0000   0.0000   0.0000   0.0000   0.0000   0.0000   0.0000   0.0000
     0.0000   0.0000   0.0000   0.0000   0.0000   0.0000   0.0000   0.0000
     0.0000   0.0000   0.0000   0.0000   0.0000   0.0000

          k = 0.3750-0.3608 0.0000 ( 39195 PWs)   bands (ev):

   -94.4740 -94.4574 -94.4523 -94.4480 -94.4413 -94.4379 -94.4335 -94.3898
   -94.0576 -94.0230 -94.0193 -94.0145 -94.0087 -93.9592 -93.9533 -93.9497
   -48.7293 -48.7180 -48.7079 -48.6922 -48.6881 -48.6808 -48.6615 -48.6420
   -48.6178 -48.6065 -48.6030 -48.5916 -48.5674 -48.5616 -48.5532 -48.5321
   -48.5236 -48.5198 -48.5150 -48.5046 -48.4996 -48.4788 -48.4740 -48.4540
   -48.3500 -48.3460 -48.3347 -48.3070 -48.2903 -48.2879 -48.2661 -48.2352
   -48.2342 -48.2121 -48.1973 -48.1663 -48.1627 -48.1468 -48.1380 -48.1015
   -47.9843 -47.9534 -47.9479 -47.9404 -47.9336 -47.8674 -47.8574 -47.8508
    -3.5952  -2.9338  -2.4412  -2.0500  -1.8730  -1.5226  -1.5113  -1.4272
    -1.3909  -1.3134  -1.3010  -1.1169  -1.0760  -0.9308  -0.8934  -0.8350
    -0.6343  -0.5037  -0.4745  -0.4257  -0.2790  -0.2272  -0.2097  -0.1567
    -0.1321  -0.0324  -0.0104   0.0702   0.2422   0.3513   0.4299   0.4623
     0.5470   0.5953   0.6346   0.7809   0.8603   0.9182   0.9884   1.0477
     1.0827   1.1141   1.1521   1.1719   1.2454   1.2579   1.3280   1.3867
     1.4279   1.4785   1.5549   1.6411   1.7542   1.8284   1.9474   1.9974
     2.0216   2.0619   2.1300   2.2692   2.3622   2.4635   2.4855   2.5091
     2.5662   2.6493   2.6940   2.8390   2.8786   2.9321   2.9812   3.0135
     3.1289   3.2058   3.3268   3.4158   3.4798   3.6161   3.6904   3.8661
     3.8857   3.9355   3.9585   4.1393   4.1574   4.2467   4.6198   4.9335
     5.1819   6.1013   6.2172   6.7236   6.9816   7.7902   8.1836   8.2897
     8.9992   9.2587   9.5462   9.9243  10.2239  10.2934  10.5830  10.7682
    10.9109  11.0174  11.1114  11.2037  11.4201  11.6931

     occupation numbers 
     1.0000   1.0000   1.0000   1.0000   1.0000   1.0000   1.0000   1.0000
     1.0000   1.0000   1.0000   1.0000   1.0000   1.0000   1.0000   1.0000
     1.0000   1.0000   1.0000   1.0000   1.0000   1.0000   1.0000   1.0000
     1.0000   1.0000   1.0000   1.0000   1.0000   1.0000   1.0000   1.0000
     1.0000   1.0000   1.0000   1.0000   1.0000   1.0000   1.0000   1.0000
     1.0000   1.0000   1.0000   1.0000   1.0000   1.0000   1.0000   1.0000
     1.0000   1.0000   1.0000   1.0000   1.0000   1.0000   1.0000   1.0000
     1.0000   1.0000   1.0000   1.0000   1.0000   1.0000   1.0000   1.0000
     1.0000   1.0000   1.0000   1.0000   1.0000   1.0000   1.0000   1.0000
     1.0000   1.0000   1.0000   1.0000   1.0000   1.0000   1.0000   1.0000
     1.0000   1.0000   1.0000   1.0000   1.0000   1.0000   1.0000   1.0000
     1.0000   1.0000   1.0000   1.0000   1.0000   1.0000   1.0000   1.0000
     1.0000   1.0000   1.0000   1.0000   1.0000   1.0000   1.0000   1.0000
     1.0000   1.0000   1.0000   1.0000   1.0000   1.0000   1.0000   1.0000
     1.0000   1.0000   1.0000   1.0000   1.0000   1.0000   1.0000   1.0000
     1.0000   1.0000   1.0000   1.0000   1.0000   1.0000   1.0000   1.0000
     1.0000   1.0000   1.0000   1.0000   1.0000   1.0000   1.0000   1.0000
     1.0000   1.0000   1.0000   1.0000   0.9999   0.9992   0.9966   0.8975
     0.8557   0.6863   0.5801   0.0358   0.0252   0.0043   0.0000   0.0000
     0.0000   0.0000   0.0000   0.0000   0.0000   0.0000   0.0000   0.0000
     0.0000   0.0000   0.0000   0.0000   0.0000   0.0000   0.0000   0.0000
     0.0000   0.0000   0.0000   0.0000   0.0000   0.0000

          k =-0.5000 0.2887 0.0000 ( 39264 PWs)   bands (ev):

   -94.4740 -94.4577 -94.4518 -94.4482 -94.4412 -94.4381 -94.4334 -94.3898
   -94.0576 -94.0225 -94.0203 -94.0139 -94.0089 -93.9593 -93.9532 -93.9498
   -48.7285 -48.7233 -48.7119 -48.6935 -48.6905 -48.6787 -48.6431 -48.6310
   -48.6258 -48.6178 -48.5892 -48.5776 -48.5755 -48.5722 -48.5654 -48.5373
   -48.5201 -48.5199 -48.5152 -48.5053 -48.5028 -48.4751 -48.4715 -48.4511
   -48.3492 -48.3484 -48.3442 -48.3041 -48.2890 -48.2604 -48.2590 -48.2429
   -48.2401 -48.2264 -48.1947 -48.1838 -48.1523 -48.1484 -48.1349 -48.0980
   -47.9843 -47.9524 -47.9498 -47.9388 -47.9343 -47.8674 -47.8572 -47.8508
    -3.3577  -3.3252  -2.3117  -2.2796  -1.5457  -1.5211  -1.5210  -1.5081
    -1.3693  -1.3683  -1.2202  -1.1925  -1.0614  -1.0483  -0.7361  -0.7168
    -0.5980  -0.5782  -0.5419  -0.5414  -0.1777  -0.1749  -0.1227  -0.1195
    -0.1147  -0.0722   0.0255   0.0557   0.2828   0.2870   0.4395   0.4417
     0.5605   0.6051   0.7751   0.8073   1.0074   1.0264   1.0541   1.0770
     1.1382   1.1600   1.2005   1.2012   1.2473   1.2565   1.2772   1.3091
     1.3519   1.4006   1.4466   1.5298   1.8533   1.8607   1.8763   1.9296
     1.9447   2.1136   2.1396   2.1889   2.3154   2.4260   2.4867   2.5501
     2.5597   2.5718   2.6015   2.6930   2.7856   2.8186   2.8356   2.8832
     2.9496   2.9759   3.0322   3.4582   3.4779   3.6668   3.6856   4.0077
     4.0163   4.0183   4.0393   4.2595   4.2686   4.2763   4.3378   5.9292
     5.9312   6.2721   6.3799   6.4474   6.4606   7.5570   7.5608   8.5505
     8.7734   9.3690   9.3720   9.9106  10.4586  10.6076  10.6224  11.1339
    11.1438  11.1898  11.2376  11.3223  11.3645  11.5283

     occupation numbers 
     1.0000   1.0000   1.0000   1.0000   1.0000   1.0000   1.0000   1.0000
     1.0000   1.0000   1.0000   1.0000   1.0000   1.0000   1.0000   1.0000
     1.0000   1.0000   1.0000   1.0000   1.0000   1.0000   1.0000   1.0000
     1.0000   1.0000   1.0000   1.0000   1.0000   1.0000   1.0000   1.0000
     1.0000   1.0000   1.0000   1.0000   1.0000   1.0000   1.0000   1.0000
     1.0000   1.0000   1.0000   1.0000   1.0000   1.0000   1.0000   1.0000
     1.0000   1.0000   1.0000   1.0000   1.0000   1.0000   1.0000   1.0000
     1.0000   1.0000   1.0000   1.0000   1.0000   1.0000   1.0000   1.0000
     1.0000   1.0000   1.0000   1.0000   1.0000   1.0000   1.0000   1.0000
     1.0000   1.0000   1.0000   1.0000   1.0000   1.0000   1.0000   1.0000
     1.0000   1.0000   1.0000   1.0000   1.0000   1.0000   1.0000   1.0000
     1.0000   1.0000   1.0000   1.0000   1.0000   1.0000   1.0000   1.0000
     1.0000   1.0000   1.0000   1.0000   1.0000   1.0000   1.0000   1.0000
     1.0000   1.0000   1.0000   1.0000   1.0000   1.0000   1.0000   1.0000
     1.0000   1.0000   1.0000   1.0000   1.0000   1.0000   1.0000   1.0000
     1.0000   1.0000   1.0000   1.0000   1.0000   1.0000   1.0000   1.0000
     1.0000   1.0000   1.0000   1.0000   1.0000   1.0000   1.0000   1.0000
     1.0000   1.0000   1.0000   1.0000   1.0000   0.9979   0.9969   0.3402
     0.3028   0.2947   0.2151   0.0033   0.0028   0.0024   0.0007   0.0000
     0.0000   0.0000   0.0000   0.0000   0.0000   0.0000   0.0000   0.0000
     0.0000   0.0000   0.0000   0.0000   0.0000   0.0000   0.0000   0.0000
     0.0000   0.0000   0.0000   0.0000   0.0000   0.0000

          k =-0.5000 0.4330 0.0000 ( 39195 PWs)   bands (ev):

   -94.4740 -94.4574 -94.4523 -94.4480 -94.4413 -94.4378 -94.4335 -94.3898
   -94.0576 -94.0230 -94.0193 -94.0145 -94.0087 -93.9592 -93.9534 -93.9496
   -48.7298 -48.7177 -48.7078 -48.6922 -48.6881 -48.6809 -48.6617 -48.6416
   -48.6178 -48.6064 -48.6029 -48.5915 -48.5672 -48.5614 -48.5534 -48.5322
   -48.5235 -48.5198 -48.5149 -48.5047 -48.4998 -48.4789 -48.4738 -48.4542
   -48.3501 -48.3461 -48.3346 -48.3070 -48.2903 -48.2880 -48.2660 -48.2351
   -48.2336 -48.2121 -48.1981 -48.1660 -48.1626 -48.1469 -48.1380 -48.1016
   -47.9843 -47.9534 -47.9478 -47.9404 -47.9336 -47.8673 -47.8575 -47.8507
    -3.5953  -2.9338  -2.4413  -2.0500  -1.8737  -1.5224  -1.5109  -1.4273
    -1.3915  -1.3132  -1.3014  -1.1172  -1.0761  -0.9305  -0.8939  -0.8352
    -0.6338  -0.5036  -0.4742  -0.4260  -0.2793  -0.2272  -0.2092  -0.1564
    -0.1317  -0.0332  -0.0106   0.0703   0.2411   0.3513   0.4279   0.4635
     0.5484   0.5957   0.6356   0.7811   0.8609   0.9187   0.9894   1.0502
     1.0834   1.1144   1.1536   1.1727   1.2433   1.2539   1.3270   1.3865
     1.4288   1.4789   1.5562   1.6428   1.7536   1.8284   1.9468   1.9962
     2.0219   2.0616   2.1286   2.2685   2.3627   2.4634   2.4844   2.5093
     2.5663   2.6507   2.6951   2.8377   2.8776   2.9316   2.9809   3.0135
     3.1294   3.2054   3.3272   3.4155   3.4798   3.6162   3.6907   3.8680
     3.8855   3.9341   3.9583   4.1394   4.1571   4.2449   4.6217   4.9336
     5.1819   6.1001   6.2174   6.7245   6.9815   7.7899   8.1829   8.2892
     8.9988   9.2591   9.5462   9.9243  10.2243  10.2934  10.5826  10.7670
    10.9106  11.0171  11.1111  11.2040  11.4197  11.6931

     occupation numbers 
     1.0000   1.0000   1.0000   1.0000   1.0000   1.0000   1.0000   1.0000
     1.0000   1.0000   1.0000   1.0000   1.0000   1.0000   1.0000   1.0000
     1.0000   1.0000   1.0000   1.0000   1.0000   1.0000   1.0000   1.0000
     1.0000   1.0000   1.0000   1.0000   1.0000   1.0000   1.0000   1.0000
     1.0000   1.0000   1.0000   1.0000   1.0000   1.0000   1.0000   1.0000
     1.0000   1.0000   1.0000   1.0000   1.0000   1.0000   1.0000   1.0000
     1.0000   1.0000   1.0000   1.0000   1.0000   1.0000   1.0000   1.0000
     1.0000   1.0000   1.0000   1.0000   1.0000   1.0000   1.0000   1.0000
     1.0000   1.0000   1.0000   1.0000   1.0000   1.0000   1.0000   1.0000
     1.0000   1.0000   1.0000   1.0000   1.0000   1.0000   1.0000   1.0000
     1.0000   1.0000   1.0000   1.0000   1.0000   1.0000   1.0000   1.0000
     1.0000   1.0000   1.0000   1.0000   1.0000   1.0000   1.0000   1.0000
     1.0000   1.0000   1.0000   1.0000   1.0000   1.0000   1.0000   1.0000
     1.0000   1.0000   1.0000   1.0000   1.0000   1.0000   1.0000   1.0000
     1.0000   1.0000   1.0000   1.0000   1.0000   1.0000   1.0000   1.0000
     1.0000   1.0000   1.0000   1.0000   1.0000   1.0000   1.0000   1.0000
     1.0000   1.0000   1.0000   1.0000   1.0000   1.0000   1.0000   1.0000
     1.0000   1.0000   1.0000   1.0000   0.9999   0.9992   0.9966   0.8941
     0.8561   0.6922   0.5808   0.0357   0.0253   0.0045   0.0000   0.0000
     0.0000   0.0000   0.0000   0.0000   0.0000   0.0000   0.0000   0.0000
     0.0000   0.0000   0.0000   0.0000   0.0000   0.0000   0.0000   0.0000
     0.0000   0.0000   0.0000   0.0000   0.0000   0.0000

          k =-0.5000 0.5774 0.0000 ( 39201 PWs)   bands (ev):

   -94.4741 -94.4570 -94.4529 -94.4477 -94.4415 -94.4373 -94.4338 -94.3898
   -94.0576 -94.0234 -94.0182 -94.0155 -94.0085 -93.9590 -93.9537 -93.9494
   -48.7303 -48.7129 -48.6988 -48.6952 -48.6864 -48.6803 -48.6758 -48.6500
   -48.6181 -48.6078 -48.6022 -48.5952 -48.5637 -48.5495 -48.5434 -48.5378
   -48.5296 -48.5161 -48.5097 -48.5002 -48.4978 -48.4892 -48.4737 -48.4584
   -48.3499 -48.3421 -48.3157 -48.3147 -48.3120 -48.2872 -48.2758 -48.2429
   -48.2248 -48.1937 -48.1846 -48.1835 -48.1530 -48.1476 -48.1426 -48.1061
   -47.9843 -47.9540 -47.9456 -47.9425 -47.9331 -47.8671 -47.8580 -47.8504
    -3.6808  -2.4917  -2.4208  -2.3995  -1.7585  -1.7390  -1.4325  -1.3981
    -1.3695  -1.2912  -1.2546  -1.2381  -1.0530  -1.0387  -0.8690  -0.6520
    -0.6384  -0.6136  -0.5348  -0.3328  -0.3072  -0.2904  -0.2356  -0.1867
    -0.1441  -0.0997   0.0133   0.0276   0.2478   0.2574   0.4076   0.4561
     0.6074   0.6422   0.6961   0.7334   0.7668   0.8720   0.8983   0.9939
     1.0456   1.0586   1.0875   1.1579   1.1866   1.2310   1.2987   1.4597
     1.5099   1.5960   1.6363   1.7049   1.7663   1.8896   1.9542   1.9884
     2.0470   2.0648   2.1049   2.2910   2.3231   2.3853   2.5167   2.5294
     2.7216   2.7360   2.7594   2.8930   2.9741   3.0167   3.1637   3.2396
     3.3569   3.5157   3.5460   3.5675   3.5898   3.6730   3.7600   3.7815
     3.8823   3.8985   3.9607   4.0172   4.0383   4.0795   4.1238   4.2602
     5.1728   5.2173   6.0389   7.2979   7.3285   8.0907   8.1534   8.2091
     9.1086   9.1703   9.6954   9.9167  10.0211  10.2062  10.3520  10.6592
    10.8382  10.9867  11.0085  11.3420  11.6262  11.6805

     occupation numbers 
     1.0000   1.0000   1.0000   1.0000   1.0000   1.0000   1.0000   1.0000
     1.0000   1.0000   1.0000   1.0000   1.0000   1.0000   1.0000   1.0000
     1.0000   1.0000   1.0000   1.0000   1.0000   1.0000   1.0000   1.0000
     1.0000   1.0000   1.0000   1.0000   1.0000   1.0000   1.0000   1.0000
     1.0000   1.0000   1.0000   1.0000   1.0000   1.0000   1.0000   1.0000
     1.0000   1.0000   1.0000   1.0000   1.0000   1.0000   1.0000   1.0000
     1.0000   1.0000   1.0000   1.0000   1.0000   1.0000   1.0000   1.0000
     1.0000   1.0000   1.0000   1.0000   1.0000   1.0000   1.0000   1.0000
     1.0000   1.0000   1.0000   1.0000   1.0000   1.0000   1.0000   1.0000
     1.0000   1.0000   1.0000   1.0000   1.0000   1.0000   1.0000   1.0000
     1.0000   1.0000   1.0000   1.0000   1.0000   1.0000   1.0000   1.0000
     1.0000   1.0000   1.0000   1.0000   1.0000   1.0000   1.0000   1.0000
     1.0000   1.0000   1.0000   1.0000   1.0000   1.0000   1.0000   1.0000
     1.0000   1.0000   1.0000   1.0000   1.0000   1.0000   1.0000   1.0000
     1.0000   1.0000   1.0000   1.0000   1.0000   1.0000   1.0000   1.0000
     1.0000   1.0000   1.0000   1.0000   1.0000   1.0000   1.0000   1.0000
     1.0000   1.0000   1.0000   1.0000   1.0000   1.0000   1.0000   1.0000
     1.0000   0.9999   0.9998   0.9997   0.9995   0.9976   0.9865   0.9794
     0.8637   0.8210   0.5691   0.2992   0.2186   0.1093   0.0482   0.0033
     0.0000   0.0000   0.0000   0.0000   0.0000   0.0000   0.0000   0.0000
     0.0000   0.0000   0.0000   0.0000   0.0000   0.0000   0.0000   0.0000
     0.0000   0.0000   0.0000   0.0000   0.0000   0.0000

          k =-0.5000 0.7217 0.0000 ( 39195 PWs)   bands (ev):

   -94.4740 -94.4572 -94.4526 -94.4479 -94.4416 -94.4373 -94.4338 -94.3898
   -94.0576 -94.0231 -94.0192 -94.0146 -94.0087 -93.9589 -93.9539 -93.9493
   -48.7304 -48.7187 -48.7083 -48.6926 -48.6886 -48.6803 -48.6610 -48.6406
   -48.6170 -48.6058 -48.6024 -48.5912 -48.5676 -48.5612 -48.5532 -48.5322
   -48.5237 -48.5200 -48.5146 -48.5047 -48.4999 -48.4795 -48.4740 -48.4546
   -48.3502 -48.3466 -48.3349 -48.3066 -48.2901 -48.2877 -48.2658 -48.2349
   -48.2338 -48.2119 -48.1974 -48.1656 -48.1629 -48.1471 -48.1387 -48.1017
   -47.9843 -47.9535 -47.9478 -47.9404 -47.9336 -47.8670 -47.8581 -47.8504
    -3.5957  -2.9346  -2.4413  -2.0498  -1.8733  -1.5238  -1.5125  -1.4283
    -1.3921  -1.3145  -1.3027  -1.1161  -1.0767  -0.9300  -0.8938  -0.8351
    -0.6338  -0.5019  -0.4741  -0.4251  -0.2786  -0.2272  -0.2102  -0.1556
    -0.1315  -0.0327  -0.0097   0.0708   0.2420   0.3526   0.4298   0.4639
     0.5486   0.5968   0.6362   0.7827   0.8639   0.9178   0.9884   1.0486
     1.0830   1.1161   1.1513   1.1709   1.2434   1.2555   1.3276   1.3867
     1.4292   1.4783   1.5565   1.6423   1.7544   1.8284   1.9496   1.9967
     2.0213   2.0617   2.1285   2.2693   2.3625   2.4621   2.4844   2.5088
     2.5656   2.6507   2.6949   2.8386   2.8782   2.9314   2.9806   3.0119
     3.1280   3.2058   3.3275   3.4154   3.4789   3.6166   3.6915   3.8683
     3.8867   3.9362   3.9586   4.1369   4.1542   4.2454   4.6195   4.9336
     5.1813   6.0986   6.2183   6.7211   6.9813   7.7900   8.1844   8.2870
     8.9996   9.2551   9.5443   9.9240  10.2206  10.2933  10.5831  10.7659
    10.9111  11.0178  11.1121  11.2078  11.4205  11.6928

     occupation numbers 
     1.0000   1.0000   1.0000   1.0000   1.0000   1.0000   1.0000   1.0000
     1.0000   1.0000   1.0000   1.0000   1.0000   1.0000   1.0000   1.0000
     1.0000   1.0000   1.0000   1.0000   1.0000   1.0000   1.0000   1.0000
     1.0000   1.0000   1.0000   1.0000   1.0000   1.0000   1.0000   1.0000
     1.0000   1.0000   1.0000   1.0000   1.0000   1.0000   1.0000   1.0000
     1.0000   1.0000   1.0000   1.0000   1.0000   1.0000   1.0000   1.0000
     1.0000   1.0000   1.0000   1.0000   1.0000   1.0000   1.0000   1.0000
     1.0000   1.0000   1.0000   1.0000   1.0000   1.0000   1.0000   1.0000
     1.0000   1.0000   1.0000   1.0000   1.0000   1.0000   1.0000   1.0000
     1.0000   1.0000   1.0000   1.0000   1.0000   1.0000   1.0000   1.0000
     1.0000   1.0000   1.0000   1.0000   1.0000   1.0000   1.0000   1.0000
     1.0000   1.0000   1.0000   1.0000   1.0000   1.0000   1.0000   1.0000
     1.0000   1.0000   1.0000   1.0000   1.0000   1.0000   1.0000   1.0000
     1.0000   1.0000   1.0000   1.0000   1.0000   1.0000   1.0000   1.0000
     1.0000   1.0000   1.0000   1.0000   1.0000   1.0000   1.0000   1.0000
     1.0000   1.0000   1.0000   1.0000   1.0000   1.0000   1.0000   1.0000
     1.0000   1.0000   1.0000   1.0000   1.0000   1.0000   1.0000   1.0000
     1.0000   1.0000   1.0000   1.0000   1.0000   0.9992   0.9965   0.8934
     0.8531   0.6834   0.5793   0.0375   0.0268   0.0044   0.0000   0.0000
     0.0000   0.0000   0.0000   0.0000   0.0000   0.0000   0.0000   0.0000
     0.0000   0.0000   0.0000   0.0000   0.0000   0.0000   0.0000   0.0000
     0.0000   0.0000   0.0000   0.0000   0.0000   0.0000

          k =-0.5000-0.2887 0.0000 ( 39264 PWs)   bands (ev):

   -94.4740 -94.4575 -94.4522 -94.4481 -94.4415 -94.4374 -94.4338 -94.3898
   -94.0576 -94.0226 -94.0202 -94.0139 -94.0089 -93.9589 -93.9539 -93.9493
   -48.7295 -48.7241 -48.7126 -48.6938 -48.6912 -48.6783 -48.6421 -48.6302
   -48.6245 -48.6166 -48.5891 -48.5775 -48.5749 -48.5717 -48.5661 -48.5371
   -48.5198 -48.5196 -48.5161 -48.5052 -48.5033 -48.4750 -48.4726 -48.4515
   -48.3498 -48.3487 -48.3444 -48.3038 -48.2886 -48.2603 -48.2587 -48.2427
   -48.2399 -48.2265 -48.1943 -48.1832 -48.1526 -48.1485 -48.1358 -48.0981
   -47.9843 -47.9525 -47.9496 -47.9389 -47.9343 -47.8671 -47.8581 -47.8504
    -3.3589  -3.3253  -2.3119  -2.2794  -1.5476  -1.5221  -1.5217  -1.5091
    -1.3709  -1.3699  -1.2226  -1.1942  -1.0601  -1.0468  -0.7342  -0.7153
    -0.5982  -0.5789  -0.5413  -0.5412  -0.1767  -0.1742  -0.1223  -0.1196
    -0.1141  -0.0716   0.0265   0.0568   0.2837   0.2885   0.4401   0.4419
     0.5612   0.6057   0.7783   0.8108   1.0092   1.0305   1.0525   1.0759
     1.1359   1.1601   1.1975   1.2018   1.2455   1.2558   1.2784   1.3094
     1.3521   1.4003   1.4474   1.5314   1.8534   1.8600   1.8776   1.9308
     1.9470   2.1129   2.1384   2.1875   2.3163   2.4249   2.4866   2.5498
     2.5599   2.5723   2.6023   2.6913   2.7864   2.8183   2.8350   2.8827
     2.9488   2.9746   3.0318   3.4571   3.4775   3.6675   3.6864   4.0093
     4.0183   4.0191   4.0403   4.2584   4.2655   4.2733   4.3369   5.9290
     5.9309   6.2689   6.3775   6.4470   6.4597   7.5575   7.5614   8.5460
     8.7693   9.3703   9.3728   9.9108  10.4585  10.6076  10.6222  11.1280
    11.1397  11.1899  11.2377  11.3215  11.3626  11.5293

     occupation numbers 
     1.0000   1.0000   1.0000   1.0000   1.0000   1.0000   1.0000   1.0000
     1.0000   1.0000   1.0000   1.0000   1.0000   1.0000   1.0000   1.0000
     1.0000   1.0000   1.0000   1.0000   1.0000   1.0000   1.0000   1.0000
     1.0000   1.0000   1.0000   1.0000   1.0000   1.0000   1.0000   1.0000
     1.0000   1.0000   1.0000   1.0000   1.0000   1.0000   1.0000   1.0000
     1.0000   1.0000   1.0000   1.0000   1.0000   1.0000   1.0000   1.0000
     1.0000   1.0000   1.0000   1.0000   1.0000   1.0000   1.0000   1.0000
     1.0000   1.0000   1.0000   1.0000   1.0000   1.0000   1.0000   1.0000
     1.0000   1.0000   1.0000   1.0000   1.0000   1.0000   1.0000   1.0000
     1.0000   1.0000   1.0000   1.0000   1.0000   1.0000   1.0000   1.0000
     1.0000   1.0000   1.0000   1.0000   1.0000   1.0000   1.0000   1.0000
     1.0000   1.0000   1.0000   1.0000   1.0000   1.0000   1.0000   1.0000
     1.0000   1.0000   1.0000   1.0000   1.0000   1.0000   1.0000   1.0000
     1.0000   1.0000   1.0000   1.0000   1.0000   1.0000   1.0000   1.0000
     1.0000   1.0000   1.0000   1.0000   1.0000   1.0000   1.0000   1.0000
     1.0000   1.0000   1.0000   1.0000   1.0000   1.0000   1.0000   1.0000
     1.0000   1.0000   1.0000   1.0000   1.0000   1.0000   1.0000   1.0000
     1.0000   1.0000   1.0000   1.0000   1.0000   0.9979   0.9969   0.3332
     0.2944   0.2914   0.2119   0.0034   0.0030   0.0025   0.0007   0.0000
     0.0000   0.0000   0.0000   0.0000   0.0000   0.0000   0.0000   0.0000
     0.0000   0.0000   0.0000   0.0000   0.0000   0.0000   0.0000   0.0000
     0.0000   0.0000   0.0000   0.0000   0.0000   0.0000

 ------ SPIN DOWN ----------


          k = 0.0000 0.0000 0.0000 ( 39143 PWs)   bands (ev):

   -94.4802 -94.4611 -94.4517 -94.4514 -94.4471 -94.4345 -94.4341 -94.3830
   -94.0461 -94.0325 -94.0169 -94.0168 -94.0074 -93.9565 -93.9439 -93.9433
   -48.7876 -48.7868 -48.7824 -48.7629 -48.7466 -48.7464 -48.7175 -48.6047
   -48.6011 -48.6009 -48.5545 -48.5538 -48.5537 -48.5389 -48.5385 -48.5292
   -48.5038 -48.4962 -48.4956 -48.4795 -48.4703 -48.4693 -48.4253 -48.4244
   -48.4032 -48.3966 -48.3965 -48.3781 -48.3776 -48.3432 -48.1911 -48.1897
   -48.1895 -48.1622 -48.1618 -48.1298 -48.1163 -48.1160 -48.0664 -48.0660
   -47.9709 -47.9669 -47.9428 -47.9427 -47.9317 -47.8676 -47.8456 -47.8449
    -5.1159  -3.8204  -2.7389  -2.6327  -2.3862  -2.3805  -2.3798  -2.2202
    -2.2201  -2.2187  -1.7904  -1.7714  -1.7710  -1.5419  -1.5419  -1.5418
    -1.4488  -1.4485  -1.4236  -0.6523  -0.6511  -0.6506   0.2775   0.2801
     0.2950   0.3826   0.3849   0.3957   0.4418   0.5808   0.5988   0.5989
     0.7113   0.7113   0.8763   0.8780   0.8806   1.0908   1.0913   1.2019
     1.2020   1.3952   1.4662   1.4900   1.4915   1.9464   1.9478   1.9812
     2.0019   2.0521   2.0547   2.5171   2.5228   2.8618   2.8669   3.0887
     3.0888   3.0937   3.2687   3.2723   3.2809   3.5180   3.5192   3.5986
     3.7857   3.8014   3.8033   3.8419   3.8527   3.8529   3.9516   3.9566
     4.0746   4.0797   4.0803   4.2446   4.2448   4.2453   4.4871   4.4873
     4.4925   4.5204   4.5207   4.5496   4.6230   4.9674   4.9823   4.9847
     6.3384   6.3702   6.3724   6.6519   6.6733   6.6763   6.9452   6.9672
     6.9703   7.3459   9.0763   9.4635   9.6700   9.6744   9.6765   9.8084
     9.8086   9.8407  10.0859  10.3316  10.3357  10.3731

     occupation numbers 
     1.0000   1.0000   1.0000   1.0000   1.0000   1.0000   1.0000   1.0000
     1.0000   1.0000   1.0000   1.0000   1.0000   1.0000   1.0000   1.0000
     1.0000   1.0000   1.0000   1.0000   1.0000   1.0000   1.0000   1.0000
     1.0000   1.0000   1.0000   1.0000   1.0000   1.0000   1.0000   1.0000
     1.0000   1.0000   1.0000   1.0000   1.0000   1.0000   1.0000   1.0000
     1.0000   1.0000   1.0000   1.0000   1.0000   1.0000   1.0000   1.0000
     1.0000   1.0000   1.0000   1.0000   1.0000   1.0000   1.0000   1.0000
     1.0000   1.0000   1.0000   1.0000   1.0000   1.0000   1.0000   1.0000
     1.0000   1.0000   1.0000   1.0000   1.0000   1.0000   1.0000   1.0000
     1.0000   1.0000   1.0000   1.0000   1.0000   1.0000   1.0000   1.0000
     1.0000   1.0000   1.0000   1.0000   1.0000   1.0000   1.0000   1.0000
     1.0000   1.0000   1.0000   1.0000   1.0000   1.0000   1.0000   1.0000
     1.0000   1.0000   1.0000   1.0000   1.0000   1.0000   1.0000   1.0000
     1.0000   1.0000   1.0000   1.0000   1.0000   1.0000   1.0000   1.0000
     1.0000   1.0000   1.0000   1.0000   1.0000   1.0000   1.0000   1.0000
     1.0000   1.0000   1.0000   1.0000   1.0000   0.9999   0.9999   0.9995
     0.9777   0.9696   0.9685   0.9343   0.9197   0.9194   0.6133   0.5890
     0.1192   0.1090   0.1077   0.0045   0.0045   0.0044   0.0000   0.0000
     0.0000   0.0000   0.0000   0.0000   0.0000   0.0000   0.0000   0.0000
     0.0000   0.0000   0.0000   0.0000   0.0000   0.0000   0.0000   0.0000
     0.0000   0.0000   0.0000   0.0000   0.0000   0.0000   0.0000   0.0000
     0.0000   0.0000   0.0000   0.0000   0.0000   0.0000

          k = 0.0000 0.1443 0.0000 ( 39121 PWs)   bands (ev):

   -94.4798 -94.4611 -94.4520 -94.4516 -94.4466 -94.4348 -94.4342 -94.3831
   -94.0460 -94.0319 -94.0174 -94.0169 -94.0076 -93.9561 -93.9440 -93.9435
   -48.7810 -48.7786 -48.7737 -48.7560 -48.7404 -48.7383 -48.7143 -48.6084
   -48.6006 -48.5998 -48.5640 -48.5625 -48.5507 -48.5356 -48.5344 -48.5294
   -48.5087 -48.5026 -48.4949 -48.4855 -48.4728 -48.4722 -48.4359 -48.4271
   -48.3968 -48.3910 -48.3878 -48.3729 -48.3695 -48.3363 -48.1969 -48.1958
   -48.1872 -48.1689 -48.1623 -48.1324 -48.1275 -48.1189 -48.0769 -48.0687
   -47.9704 -47.9660 -47.9434 -47.9426 -47.9319 -47.8670 -47.8460 -47.8453
    -4.9839  -3.6901  -2.6059  -2.5086  -2.3882  -2.2936  -2.2899  -2.1770
    -2.1221  -2.1212  -1.7254  -1.7099  -1.7055  -1.5399  -1.4448  -1.4426
    -1.3807  -1.3337  -1.3141  -0.6159  -0.6150  -0.6088   0.2146   0.2267
     0.2811   0.3747   0.4196   0.4412   0.4467   0.4695   0.5293   0.6935
     0.7838   0.8171   0.8866   0.8914   0.9114   1.0196   1.1052   1.1778
     1.2908   1.3300   1.3466   1.3746   1.3879   1.6560   1.6964   1.9353
     1.9750   2.1563   2.1689   2.4370   2.4543   2.8547   2.8754   2.9721
     2.9915   3.0554   3.0792   3.1293   3.1328   3.1451   3.4329   3.4398
     3.4746   3.5175   3.5968   3.7457   3.7489   3.7985   3.8575   3.8655
     3.9325   3.9581   4.0355   4.0470   4.1337   4.1790   4.1881   4.2259
     4.2523   4.3164   4.3359   4.3416   4.3973   5.1524   5.2913   5.3949
     5.3984   5.9971   6.2348   6.2363   6.7102   6.7480   7.3646   7.8152
     7.8193   8.1317   9.1737   9.5517   9.6100   9.6649   9.6717   9.8920
     9.9130  10.1682  10.2579  10.5378  10.5518  10.8997

     occupation numbers 
     1.0000   1.0000   1.0000   1.0000   1.0000   1.0000   1.0000   1.0000
     1.0000   1.0000   1.0000   1.0000   1.0000   1.0000   1.0000   1.0000
     1.0000   1.0000   1.0000   1.0000   1.0000   1.0000   1.0000   1.0000
     1.0000   1.0000   1.0000   1.0000   1.0000   1.0000   1.0000   1.0000
     1.0000   1.0000   1.0000   1.0000   1.0000   1.0000   1.0000   1.0000
     1.0000   1.0000   1.0000   1.0000   1.0000   1.0000   1.0000   1.0000
     1.0000   1.0000   1.0000   1.0000   1.0000   1.0000   1.0000   1.0000
     1.0000   1.0000   1.0000   1.0000   1.0000   1.0000   1.0000   1.0000
     1.0000   1.0000   1.0000   1.0000   1.0000   1.0000   1.0000   1.0000
     1.0000   1.0000   1.0000   1.0000   1.0000   1.0000   1.0000   1.0000
     1.0000   1.0000   1.0000   1.0000   1.0000   1.0000   1.0000   1.0000
     1.0000   1.0000   1.0000   1.0000   1.0000   1.0000   1.0000   1.0000
     1.0000   1.0000   1.0000   1.0000   1.0000   1.0000   1.0000   1.0000
     1.0000   1.0000   1.0000   1.0000   1.0000   1.0000   1.0000   1.0000
     1.0000   1.0000   1.0000   1.0000   1.0000   1.0000   1.0000   1.0000
     1.0000   1.0000   1.0000   1.0000   1.0000   1.0000   1.0000   1.0000
     1.0000   0.9999   0.9995   0.9898   0.9892   0.9713   0.9124   0.8987
     0.6993   0.5822   0.2285   0.1904   0.0399   0.0165   0.0138   0.0065
     0.0039   0.0011   0.0007   0.0006   0.0002   0.0000   0.0000   0.0000
     0.0000   0.0000   0.0000   0.0000   0.0000   0.0000   0.0000   0.0000
     0.0000   0.0000   0.0000   0.0000   0.0000   0.0000   0.0000   0.0000
     0.0000   0.0000   0.0000   0.0000   0.0000   0.0000

          k = 0.0000 0.2887 0.0000 ( 39161 PWs)   bands (ev):

   -94.4786 -94.4611 -94.4532 -94.4516 -94.4452 -94.4360 -94.4342 -94.3833
   -94.0459 -94.0301 -94.0187 -94.0169 -94.0080 -93.9552 -93.9450 -93.9437
   -48.7642 -48.7599 -48.7460 -48.7374 -48.7241 -48.7161 -48.7042 -48.6151
   -48.6024 -48.6000 -48.5810 -48.5799 -48.5424 -48.5403 -48.5332 -48.5295
   -48.5215 -48.5189 -48.5045 -48.4897 -48.4806 -48.4721 -48.4647 -48.4340
   -48.3813 -48.3759 -48.3602 -48.3601 -48.3463 -48.3163 -48.2139 -48.2124
   -48.1875 -48.1794 -48.1679 -48.1594 -48.1342 -48.1268 -48.1066 -48.0757
   -47.9695 -47.9634 -47.9455 -47.9425 -47.9324 -47.8653 -47.8478 -47.8453
    -4.6022  -3.3208  -2.4618  -2.2359  -2.1599  -2.0810  -2.0389  -2.0371
    -1.8611  -1.8603  -1.5910  -1.5163  -1.5036  -1.4756  -1.2289  -1.1839
    -1.1750  -1.0074  -0.9891  -0.5186  -0.5129  -0.4881   0.0583   0.0588
     0.0898   0.2477   0.3179   0.3416   0.5410   0.5469   0.6429   0.8218
     0.8541   0.8608   0.8774   0.9587   0.9797   0.9828   1.0127   1.0255
     1.1021   1.1222   1.1935   1.3198   1.3536   1.4270   1.5554   1.6371
     2.0112   2.0864   2.0907   2.2269   2.3375   2.4024   2.4346   2.4619
     2.5718   2.6335   2.6395   2.7557   2.8754   2.8768   2.9073   2.9158
     2.9912   3.3446   3.3473   3.3893   3.3984   3.4018   3.4988   3.5109
     3.5388   3.5966   3.7225   3.7310   3.7584   3.8580   3.9085   3.9729
     3.9937   4.0070   4.1307   4.2641   4.2711   4.9158   5.2330   5.7512
     5.7526   6.2028   6.2468   6.2822   7.1388   7.2240   7.4739   7.7880
     8.8636   8.8718   9.4651   9.6494   9.6639   9.8194  10.2308  10.2927
    10.3127  10.4690  10.9406  11.2649  11.3230  11.5161

     occupation numbers 
     1.0000   1.0000   1.0000   1.0000   1.0000   1.0000   1.0000   1.0000
     1.0000   1.0000   1.0000   1.0000   1.0000   1.0000   1.0000   1.0000
     1.0000   1.0000   1.0000   1.0000   1.0000   1.0000   1.0000   1.0000
     1.0000   1.0000   1.0000   1.0000   1.0000   1.0000   1.0000   1.0000
     1.0000   1.0000   1.0000   1.0000   1.0000   1.0000   1.0000   1.0000
     1.0000   1.0000   1.0000   1.0000   1.0000   1.0000   1.0000   1.0000
     1.0000   1.0000   1.0000   1.0000   1.0000   1.0000   1.0000   1.0000
     1.0000   1.0000   1.0000   1.0000   1.0000   1.0000   1.0000   1.0000
     1.0000   1.0000   1.0000   1.0000   1.0000   1.0000   1.0000   1.0000
     1.0000   1.0000   1.0000   1.0000   1.0000   1.0000   1.0000   1.0000
     1.0000   1.0000   1.0000   1.0000   1.0000   1.0000   1.0000   1.0000
     1.0000   1.0000   1.0000   1.0000   1.0000   1.0000   1.0000   1.0000
     1.0000   1.0000   1.0000   1.0000   1.0000   1.0000   1.0000   1.0000
     1.0000   1.0000   1.0000   1.0000   1.0000   1.0000   1.0000   1.0000
     1.0000   1.0000   1.0000   1.0000   1.0000   1.0000   1.0000   1.0000
     1.0000   1.0000   1.0000   1.0000   1.0000   1.0000   1.0000   1.0000
     1.0000   1.0000   1.0000   1.0000   1.0000   1.0000   0.9999   0.9999
     0.9998   0.9995   0.9936   0.9924   0.9869   0.9115   0.7898   0.5087
     0.4056   0.3436   0.0423   0.0030   0.0027   0.0000   0.0000   0.0000
     0.0000   0.0000   0.0000   0.0000   0.0000   0.0000   0.0000   0.0000
     0.0000   0.0000   0.0000   0.0000   0.0000   0.0000   0.0000   0.0000
     0.0000   0.0000   0.0000   0.0000   0.0000   0.0000

          k = 0.0000 0.4330 0.0000 ( 39194 PWs)   bands (ev):

   -94.4773 -94.4610 -94.4545 -94.4516 -94.4434 -94.4376 -94.4343 -94.3835
   -94.0457 -94.0276 -94.0209 -94.0169 -94.0084 -93.9539 -93.9464 -93.9437
   -48.7433 -48.7372 -48.7238 -48.7041 -48.7020 -48.6944 -48.6822 -48.6204
   -48.6175 -48.6056 -48.5887 -48.5853 -48.5776 -48.5521 -48.5431 -48.5295
   -48.5237 -48.5224 -48.5188 -48.4993 -48.4954 -48.4787 -48.4686 -48.4433
   -48.3625 -48.3564 -48.3451 -48.3166 -48.3151 -48.2878 -48.2352 -48.2330
   -48.2106 -48.2064 -48.1803 -48.1676 -48.1473 -48.1386 -48.1297 -48.0844
   -47.9688 -47.9593 -47.9489 -47.9424 -47.9327 -47.8631 -47.8502 -47.8453
    -4.0194  -2.7986  -2.7549  -2.0583  -1.7797  -1.7016  -1.6992  -1.6511
    -1.5608  -1.5561  -1.5315  -1.2395  -1.1586  -1.1581  -1.0328  -0.9336
    -0.9065  -0.5720  -0.5603  -0.3459  -0.3335  -0.3157  -0.2854  -0.0738
    -0.0551   0.0177   0.1210   0.3642   0.3754   0.4058   0.4479   0.6156
     0.6441   0.6845   0.7611   0.8575   0.8975   1.0122   1.0151   1.1100
     1.1924   1.2307   1.2537   1.2644   1.3660   1.4019   1.5622   1.5801
     1.7123   1.7433   1.7542   1.7835   1.8266   1.9021   1.9557   2.0300
     2.0490   2.0768   2.1838   2.3636   2.6158   2.6184   2.6595   2.6624
     2.7243   2.8170   2.8378   2.8758   2.9910   3.0033   3.0421   3.0741
     3.2967   3.3377   3.4897   3.5346   3.6694   3.6818   3.8507   3.9891
     3.9971   4.0075   4.0484   4.2644   4.2768   4.6749   5.5802   5.8911
     5.8913   6.3666   6.3902   6.7835   7.1010   7.4806   7.4846   8.0133
     9.3478   9.3525   9.6285   9.9484  10.2013  10.2248  10.2791  10.7560
    10.9900  11.1358  11.1701  11.4663  11.7386  12.1174

     occupation numbers 
     1.0000   1.0000   1.0000   1.0000   1.0000   1.0000   1.0000   1.0000
     1.0000   1.0000   1.0000   1.0000   1.0000   1.0000   1.0000   1.0000
     1.0000   1.0000   1.0000   1.0000   1.0000   1.0000   1.0000   1.0000
     1.0000   1.0000   1.0000   1.0000   1.0000   1.0000   1.0000   1.0000
     1.0000   1.0000   1.0000   1.0000   1.0000   1.0000   1.0000   1.0000
     1.0000   1.0000   1.0000   1.0000   1.0000   1.0000   1.0000   1.0000
     1.0000   1.0000   1.0000   1.0000   1.0000   1.0000   1.0000   1.0000
     1.0000   1.0000   1.0000   1.0000   1.0000   1.0000   1.0000   1.0000
     1.0000   1.0000   1.0000   1.0000   1.0000   1.0000   1.0000   1.0000
     1.0000   1.0000   1.0000   1.0000   1.0000   1.0000   1.0000   1.0000
     1.0000   1.0000   1.0000   1.0000   1.0000   1.0000   1.0000   1.0000
     1.0000   1.0000   1.0000   1.0000   1.0000   1.0000   1.0000   1.0000
     1.0000   1.0000   1.0000   1.0000   1.0000   1.0000   1.0000   1.0000
     1.0000   1.0000   1.0000   1.0000   1.0000   1.0000   1.0000   1.0000
     1.0000   1.0000   1.0000   1.0000   1.0000   1.0000   1.0000   1.0000
     1.0000   1.0000   1.0000   1.0000   1.0000   1.0000   1.0000   1.0000
     1.0000   1.0000   1.0000   1.0000   1.0000   1.0000   1.0000   1.0000
     1.0000   1.0000   0.9999   0.9998   0.9978   0.9971   0.9226   0.4284
     0.3895   0.3415   0.1863   0.0030   0.0024   0.0000   0.0000   0.0000
     0.0000   0.0000   0.0000   0.0000   0.0000   0.0000   0.0000   0.0000
     0.0000   0.0000   0.0000   0.0000   0.0000   0.0000   0.0000   0.0000
     0.0000   0.0000   0.0000   0.0000   0.0000   0.0000

          k = 0.0000-0.5774 0.0000 ( 39264 PWs)   bands (ev):

   -94.4768 -94.4610 -94.4552 -94.4516 -94.4422 -94.4388 -94.4343 -94.3836
   -94.0457 -94.0256 -94.0228 -94.0169 -94.0085 -93.9533 -93.9471 -93.9437
   -48.7323 -48.7252 -48.7143 -48.6936 -48.6935 -48.6807 -48.6452 -48.6343
   -48.6294 -48.6184 -48.5919 -48.5805 -48.5775 -48.5737 -48.5666 -48.5340
   -48.5224 -48.5213 -48.5186 -48.5063 -48.5054 -48.4733 -48.4678 -48.4491
   -48.3527 -48.3459 -48.3379 -48.2952 -48.2751 -48.2640 -48.2622 -48.2465
   -48.2410 -48.2185 -48.1871 -48.1745 -48.1566 -48.1497 -48.1260 -48.0891
   -47.9685 -47.9559 -47.9520 -47.9423 -47.9329 -47.8619 -47.8515 -47.8453
    -3.3578  -3.3250  -2.3116  -2.2794  -1.5467  -1.5220  -1.5215  -1.5077
    -1.3704  -1.3684  -1.2209  -1.1920  -1.0602  -1.0482  -0.7363  -0.7169
    -0.5987  -0.5800  -0.5414  -0.5410  -0.1776  -0.1741  -0.1227  -0.1197
    -0.1129  -0.0710   0.0257   0.0559   0.2841   0.2891   0.4401   0.4411
     0.5631   0.6055   0.7768   0.8085   1.0093   1.0280   1.0646   1.0776
     1.1395   1.1586   1.1992   1.2151   1.2461   1.2549   1.2995   1.3526
     1.3937   1.4038   1.4818   1.5573   1.8526   1.8760   1.9275   1.9351
     2.1136   2.1409   2.1851   2.2177   2.4282   2.4870   2.5491   2.5605
     2.5738   2.6011   2.6946   2.7881   2.8002   2.8129   2.8582   2.8771
     2.9761   3.0357   3.4611   3.4812   3.6584   3.6714   4.0051   4.0162
     4.0180   4.0388   4.2239   4.2634   4.2637   4.2799   5.9282   5.9298
     6.1456   6.2658   6.4411   6.4467   7.2378   7.5562   7.6390   8.5873
     8.9563   9.3729   9.3872  10.3285  10.6176  10.6693  10.9779  11.1384
    11.1495  11.3102  11.3242  11.3477  11.5142  11.5932

     occupation numbers 
     1.0000   1.0000   1.0000   1.0000   1.0000   1.0000   1.0000   1.0000
     1.0000   1.0000   1.0000   1.0000   1.0000   1.0000   1.0000   1.0000
     1.0000   1.0000   1.0000   1.0000   1.0000   1.0000   1.0000   1.0000
     1.0000   1.0000   1.0000   1.0000   1.0000   1.0000   1.0000   1.0000
     1.0000   1.0000   1.0000   1.0000   1.0000   1.0000   1.0000   1.0000
     1.0000   1.0000   1.0000   1.0000   1.0000   1.0000   1.0000   1.0000
     1.0000   1.0000   1.0000   1.0000   1.0000   1.0000   1.0000   1.0000
     1.0000   1.0000   1.0000   1.0000   1.0000   1.0000   1.0000   1.0000
     1.0000   1.0000   1.0000   1.0000   1.0000   1.0000   1.0000   1.0000
     1.0000   1.0000   1.0000   1.0000   1.0000   1.0000   1.0000   1.0000
     1.0000   1.0000   1.0000   1.0000   1.0000   1.0000   1.0000   1.0000
     1.0000   1.0000   1.0000   1.0000   1.0000   1.0000   1.0000   1.0000
     1.0000   1.0000   1.0000   1.0000   1.0000   1.0000   1.0000   1.0000
     1.0000   1.0000   1.0000   1.0000   1.0000   1.0000   1.0000   1.0000
     1.0000   1.0000   1.0000   1.0000   1.0000   1.0000   1.0000   1.0000
     1.0000   1.0000   1.0000   1.0000   1.0000   1.0000   1.0000   1.0000
     1.0000   1.0000   1.0000   1.0000   1.0000   1.0000   1.0000   1.0000
     1.0000   1.0000   1.0000   0.9999   0.9982   0.9977   0.3523   0.3036
     0.2960   0.2169   0.0068   0.0031   0.0031   0.0022   0.0000   0.0000
     0.0000   0.0000   0.0000   0.0000   0.0000   0.0000   0.0000   0.0000
     0.0000   0.0000   0.0000   0.0000   0.0000   0.0000   0.0000   0.0000
     0.0000   0.0000   0.0000   0.0000   0.0000   0.0000

          k = 0.1250-0.0722 0.0000 ( 39121 PWs)   bands (ev):

   -94.4798 -94.4611 -94.4520 -94.4516 -94.4466 -94.4349 -94.4341 -94.3831
   -94.0460 -94.0319 -94.0174 -94.0169 -94.0076 -93.9561 -93.9440 -93.9435
   -48.7809 -48.7787 -48.7737 -48.7560 -48.7405 -48.7382 -48.7143 -48.6084
   -48.6006 -48.5998 -48.5640 -48.5625 -48.5507 -48.5356 -48.5344 -48.5294
   -48.5087 -48.5027 -48.4948 -48.4856 -48.4727 -48.4722 -48.4360 -48.4271
   -48.3967 -48.3910 -48.3878 -48.3729 -48.3696 -48.3363 -48.1970 -48.1958
   -48.1872 -48.1689 -48.1622 -48.1324 -48.1275 -48.1188 -48.0770 -48.0686
   -47.9704 -47.9660 -47.9434 -47.9426 -47.9319 -47.8670 -47.8460 -47.8453
    -4.9839  -3.6901  -2.6059  -2.5086  -2.3881  -2.2936  -2.2899  -2.1770
    -2.1222  -2.1212  -1.7254  -1.7100  -1.7054  -1.5399  -1.4448  -1.4426
    -1.3806  -1.3337  -1.3142  -0.6159  -0.6151  -0.6087   0.2150   0.2268
     0.2808   0.3744   0.4198   0.4415   0.4465   0.4691   0.5293   0.6935
     0.7838   0.8171   0.8866   0.8912   0.9116   1.0196   1.1052   1.1779
     1.2908   1.3300   1.3466   1.3745   1.3877   1.6560   1.6965   1.9347
     1.9752   2.1564   2.1691   2.4367   2.4547   2.8545   2.8758   2.9721
     2.9915   3.0553   3.0792   3.1291   3.1328   3.1451   3.4331   3.4399
     3.4747   3.5174   3.5965   3.7458   3.7490   3.7985   3.8575   3.8653
     3.9323   3.9576   4.0354   4.0470   4.1337   4.1792   4.1880   4.2262
     4.2526   4.3164   4.3359   4.3416   4.3976   5.1522   5.2914   5.3949
     5.3982   5.9967   6.2350   6.2364   6.7105   6.7483   7.3646   7.8156
     7.8192   8.1316   9.1737   9.5518   9.6104   9.6648   9.6712   9.8919
     9.9130  10.1682  10.2581  10.5375  10.5515  10.8999

     occupation numbers 
     1.0000   1.0000   1.0000   1.0000   1.0000   1.0000   1.0000   1.0000
     1.0000   1.0000   1.0000   1.0000   1.0000   1.0000   1.0000   1.0000
     1.0000   1.0000   1.0000   1.0000   1.0000   1.0000   1.0000   1.0000
     1.0000   1.0000   1.0000   1.0000   1.0000   1.0000   1.0000   1.0000
     1.0000   1.0000   1.0000   1.0000   1.0000   1.0000   1.0000   1.0000
     1.0000   1.0000   1.0000   1.0000   1.0000   1.0000   1.0000   1.0000
     1.0000   1.0000   1.0000   1.0000   1.0000   1.0000   1.0000   1.0000
     1.0000   1.0000   1.0000   1.0000   1.0000   1.0000   1.0000   1.0000
     1.0000   1.0000   1.0000   1.0000   1.0000   1.0000   1.0000   1.0000
     1.0000   1.0000   1.0000   1.0000   1.0000   1.0000   1.0000   1.0000
     1.0000   1.0000   1.0000   1.0000   1.0000   1.0000   1.0000   1.0000
     1.0000   1.0000   1.0000   1.0000   1.0000   1.0000   1.0000   1.0000
     1.0000   1.0000   1.0000   1.0000   1.0000   1.0000   1.0000   1.0000
     1.0000   1.0000   1.0000   1.0000   1.0000   1.0000   1.0000   1.0000
     1.0000   1.0000   1.0000   1.0000   1.0000   1.0000   1.0000   1.0000
     1.0000   1.0000   1.0000   1.0000   1.0000   1.0000   1.0000   1.0000
     1.0000   0.9999   0.9995   0.9898   0.9892   0.9713   0.9124   0.8990
     0.6997   0.5842   0.2287   0.1905   0.0399   0.0165   0.0138   0.0065
     0.0038   0.0011   0.0007   0.0006   0.0002   0.0000   0.0000   0.0000
     0.0000   0.0000   0.0000   0.0000   0.0000   0.0000   0.0000   0.0000
     0.0000   0.0000   0.0000   0.0000   0.0000   0.0000   0.0000   0.0000
     0.0000   0.0000   0.0000   0.0000   0.0000   0.0000

          k = 0.1250 0.0722 0.0000 ( 39121 PWs)   bands (ev):

   -94.4798 -94.4611 -94.4522 -94.4514 -94.4466 -94.4346 -94.4344 -94.3831
   -94.0460 -94.0319 -94.0173 -94.0169 -94.0076 -93.9561 -93.9443 -93.9433
   -48.7814 -48.7788 -48.7731 -48.7561 -48.7404 -48.7384 -48.7143 -48.6081
   -48.6007 -48.5998 -48.5636 -48.5622 -48.5515 -48.5354 -48.5347 -48.5292
   -48.5083 -48.5023 -48.4956 -48.4851 -48.4733 -48.4721 -48.4353 -48.4278
   -48.3968 -48.3911 -48.3877 -48.3733 -48.3691 -48.3364 -48.1968 -48.1957
   -48.1874 -48.1686 -48.1625 -48.1325 -48.1272 -48.1191 -48.0767 -48.0690
   -47.9704 -47.9660 -47.9433 -47.9427 -47.9319 -47.8670 -47.8464 -47.8449
    -4.9840  -3.6902  -2.6060  -2.5087  -2.3894  -2.2929  -2.2895  -2.1771
    -2.1221  -2.1212  -1.7253  -1.7099  -1.7058  -1.5399  -1.4448  -1.4425
    -1.3815  -1.3335  -1.3136  -0.6154  -0.6149  -0.6094   0.2122   0.2254
     0.2833   0.3768   0.4183   0.4418   0.4453   0.4729   0.5293   0.6935
     0.7838   0.8171   0.8874   0.8918   0.9093   1.0198   1.1048   1.1774
     1.2909   1.3294   1.3468   1.3752   1.3893   1.6555   1.6964   1.9392
     1.9732   2.1553   2.1677   2.4410   2.4507   2.8560   2.8714   2.9720
     2.9915   3.0567   3.0793   3.1309   3.1317   3.1453   3.4323   3.4392
     3.4734   3.5182   3.5986   3.7452   3.7484   3.7986   3.8582   3.8662
     3.9334   3.9614   4.0357   4.0473   4.1340   4.1787   4.1885   4.2241
     4.2500   4.3162   4.3351   4.3411   4.3962   5.1540   5.2901   5.3966
     5.3990   5.9995   6.2343   6.2352   6.7081   6.7460   7.3645   7.8155
     7.8163   8.1332   9.1737   9.5515   9.6074   9.6684   9.6719   9.8921
     9.9135  10.1684  10.2562  10.5405  10.5533  10.8987

     occupation numbers 
     1.0000   1.0000   1.0000   1.0000   1.0000   1.0000   1.0000   1.0000
     1.0000   1.0000   1.0000   1.0000   1.0000   1.0000   1.0000   1.0000
     1.0000   1.0000   1.0000   1.0000   1.0000   1.0000   1.0000   1.0000
     1.0000   1.0000   1.0000   1.0000   1.0000   1.0000   1.0000   1.0000
     1.0000   1.0000   1.0000   1.0000   1.0000   1.0000   1.0000   1.0000
     1.0000   1.0000   1.0000   1.0000   1.0000   1.0000   1.0000   1.0000
     1.0000   1.0000   1.0000   1.0000   1.0000   1.0000   1.0000   1.0000
     1.0000   1.0000   1.0000   1.0000   1.0000   1.0000   1.0000   1.0000
     1.0000   1.0000   1.0000   1.0000   1.0000   1.0000   1.0000   1.0000
     1.0000   1.0000   1.0000   1.0000   1.0000   1.0000   1.0000   1.0000
     1.0000   1.0000   1.0000   1.0000   1.0000   1.0000   1.0000   1.0000
     1.0000   1.0000   1.0000   1.0000   1.0000   1.0000   1.0000   1.0000
     1.0000   1.0000   1.0000   1.0000   1.0000   1.0000   1.0000   1.0000
     1.0000   1.0000   1.0000   1.0000   1.0000   1.0000   1.0000   1.0000
     1.0000   1.0000   1.0000   1.0000   1.0000   1.0000   1.0000   1.0000
     1.0000   1.0000   1.0000   1.0000   1.0000   1.0000   1.0000   1.0000
     1.0000   0.9999   0.9995   0.9899   0.9893   0.9713   0.9112   0.8974
     0.6954   0.5658   0.2279   0.1894   0.0396   0.0166   0.0137   0.0068
     0.0040   0.0011   0.0007   0.0007   0.0002   0.0000   0.0000   0.0000
     0.0000   0.0000   0.0000   0.0000   0.0000   0.0000   0.0000   0.0000
     0.0000   0.0000   0.0000   0.0000   0.0000   0.0000   0.0000   0.0000
     0.0000   0.0000   0.0000   0.0000   0.0000   0.0000

          k = 0.1250 0.2165 0.0000 ( 39141 PWs)   bands (ev):

   -94.4790 -94.4610 -94.4530 -94.4515 -94.4457 -94.4353 -94.4344 -94.3832
   -94.0459 -94.0307 -94.0181 -94.0170 -94.0079 -93.9554 -93.9450 -93.9434
   -48.7722 -48.7599 -48.7573 -48.7440 -48.7277 -48.7242 -48.7078 -48.6129
   -48.6027 -48.5978 -48.5859 -48.5569 -48.5562 -48.5347 -48.5316 -48.5307
   -48.5225 -48.5033 -48.5000 -48.4960 -48.4802 -48.4714 -48.4544 -48.4330
   -48.3877 -48.3756 -48.3727 -48.3643 -48.3532 -48.3231 -48.2167 -48.1908
   -48.1903 -48.1838 -48.1617 -48.1485 -48.1363 -48.1247 -48.0961 -48.0742
   -47.9697 -47.9642 -47.9445 -47.9428 -47.9322 -47.8658 -47.8476 -47.8450
    -4.7267  -3.4394  -2.3516  -2.3167  -2.3146  -2.2714  -2.0452  -2.0406
    -2.0316  -1.9058  -1.6044  -1.5990  -1.5614  -1.4390  -1.4327  -1.2205
    -1.2051  -1.1657  -1.0607  -0.5443  -0.5428  -0.5355   0.0373   0.1779
     0.2355   0.2455   0.2952   0.3884   0.5099   0.5675   0.5769   0.8451
     0.8785   0.8827   0.8958   0.9099   0.9164   0.9430   1.0057   1.1305
     1.1521   1.2091   1.2245   1.3348   1.3662   1.4804   1.5850   1.6076
     2.0596   2.0763   2.1521   2.2979   2.3877   2.4955   2.6274   2.6745
     2.6890   2.8179   2.8439   2.8971   2.9190   3.0081   3.0362   3.0417
     3.0544   3.1852   3.4292   3.4410   3.5164   3.5811   3.5899   3.6598
     3.6982   3.7477   3.7615   3.8425   3.9003   3.9259   3.9414   3.9609
     4.1890   4.2071   4.2104   4.5768   4.5831   4.7426   4.9267   4.9356
     5.8970   5.9437   6.0210   6.5465   7.2259   7.4540   7.6735   7.8520
     8.1902   8.2444   9.3681   9.6918   9.7329   9.8927  10.0557  10.0790
    10.3390  10.6614  10.7756  10.8734  11.0109  11.6860

     occupation numbers 
     1.0000   1.0000   1.0000   1.0000   1.0000   1.0000   1.0000   1.0000
     1.0000   1.0000   1.0000   1.0000   1.0000   1.0000   1.0000   1.0000
     1.0000   1.0000   1.0000   1.0000   1.0000   1.0000   1.0000   1.0000
     1.0000   1.0000   1.0000   1.0000   1.0000   1.0000   1.0000   1.0000
     1.0000   1.0000   1.0000   1.0000   1.0000   1.0000   1.0000   1.0000
     1.0000   1.0000   1.0000   1.0000   1.0000   1.0000   1.0000   1.0000
     1.0000   1.0000   1.0000   1.0000   1.0000   1.0000   1.0000   1.0000
     1.0000   1.0000   1.0000   1.0000   1.0000   1.0000   1.0000   1.0000
     1.0000   1.0000   1.0000   1.0000   1.0000   1.0000   1.0000   1.0000
     1.0000   1.0000   1.0000   1.0000   1.0000   1.0000   1.0000   1.0000
     1.0000   1.0000   1.0000   1.0000   1.0000   1.0000   1.0000   1.0000
     1.0000   1.0000   1.0000   1.0000   1.0000   1.0000   1.0000   1.0000
     1.0000   1.0000   1.0000   1.0000   1.0000   1.0000   1.0000   1.0000
     1.0000   1.0000   1.0000   1.0000   1.0000   1.0000   1.0000   1.0000
     1.0000   1.0000   1.0000   1.0000   1.0000   1.0000   1.0000   1.0000
     1.0000   1.0000   1.0000   1.0000   1.0000   1.0000   1.0000   1.0000
     1.0000   1.0000   1.0000   1.0000   0.9999   0.9996   0.9995   0.9982
     0.9960   0.9894   0.9861   0.9336   0.8156   0.7259   0.6605   0.5681
     0.0136   0.0095   0.0089   0.0000   0.0000   0.0000   0.0000   0.0000
     0.0000   0.0000   0.0000   0.0000   0.0000   0.0000   0.0000   0.0000
     0.0000   0.0000   0.0000   0.0000   0.0000   0.0000   0.0000   0.0000
     0.0000   0.0000   0.0000   0.0000   0.0000   0.0000

          k = 0.1250 0.3608 0.0000 ( 39199 PWs)   bands (ev):

   -94.4777 -94.4609 -94.4545 -94.4514 -94.4441 -94.4368 -94.4344 -94.3834
   -94.0458 -94.0285 -94.0198 -94.0172 -94.0082 -93.9543 -93.9462 -93.9435
   -48.7536 -48.7363 -48.7293 -48.7187 -48.7082 -48.7018 -48.6932 -48.6206
   -48.6154 -48.6057 -48.5944 -48.5694 -48.5598 -48.5504 -48.5407 -48.5300
   -48.5224 -48.5181 -48.5118 -48.4974 -48.4886 -48.4811 -48.4688 -48.4425
   -48.3713 -48.3542 -48.3488 -48.3390 -48.3256 -48.2990 -48.2443 -48.2088
   -48.2031 -48.1873 -48.1794 -48.1674 -48.1397 -48.1355 -48.1261 -48.0836
   -47.9690 -47.9608 -47.9470 -47.9431 -47.9325 -47.8637 -47.8497 -47.8451
    -4.2403  -2.9822  -2.4774  -2.1050  -1.9579  -1.9068  -1.8398  -1.7597
    -1.6680  -1.6254  -1.4901  -1.3713  -1.3110  -1.2340  -1.1917  -1.0330
    -0.8435  -0.8249  -0.6706  -0.4318  -0.3986  -0.3725  -0.1730  -0.1127
     0.0552   0.1269   0.1467   0.2983   0.4859   0.5304   0.5988   0.6897
     0.7142   0.7710   0.7812   0.8173   0.9121   0.9600   1.0067   1.0336
     1.0750   1.1672   1.1967   1.2658   1.3389   1.4067   1.6896   1.7431
     1.8170   1.8714   1.9109   1.9632   1.9832   2.0421   2.0698   2.1471
     2.1818   2.2268   2.2541   2.2780   2.6892   2.7026   2.7565   2.7750
     2.8490   2.9364   3.0005   3.0967   3.1196   3.1392   3.3107   3.3543
     3.5207   3.5680   3.6556   3.7201   3.8084   3.8591   3.8862   3.9194
     3.9518   3.9708   4.0435   4.1518   4.1651   4.8161   5.0750   5.1176
     5.3617   6.0782   6.7827   6.9865   7.3349   7.6379   7.8202   8.2354
     8.4327   8.8343   9.7538   9.7759   9.9609  10.2523  10.3719  10.6076
    10.7575  10.9652  11.0343  11.5226  11.8191  12.0924

     occupation numbers 
     1.0000   1.0000   1.0000   1.0000   1.0000   1.0000   1.0000   1.0000
     1.0000   1.0000   1.0000   1.0000   1.0000   1.0000   1.0000   1.0000
     1.0000   1.0000   1.0000   1.0000   1.0000   1.0000   1.0000   1.0000
     1.0000   1.0000   1.0000   1.0000   1.0000   1.0000   1.0000   1.0000
     1.0000   1.0000   1.0000   1.0000   1.0000   1.0000   1.0000   1.0000
     1.0000   1.0000   1.0000   1.0000   1.0000   1.0000   1.0000   1.0000
     1.0000   1.0000   1.0000   1.0000   1.0000   1.0000   1.0000   1.0000
     1.0000   1.0000   1.0000   1.0000   1.0000   1.0000   1.0000   1.0000
     1.0000   1.0000   1.0000   1.0000   1.0000   1.0000   1.0000   1.0000
     1.0000   1.0000   1.0000   1.0000   1.0000   1.0000   1.0000   1.0000
     1.0000   1.0000   1.0000   1.0000   1.0000   1.0000   1.0000   1.0000
     1.0000   1.0000   1.0000   1.0000   1.0000   1.0000   1.0000   1.0000
     1.0000   1.0000   1.0000   1.0000   1.0000   1.0000   1.0000   1.0000
     1.0000   1.0000   1.0000   1.0000   1.0000   1.0000   1.0000   1.0000
     1.0000   1.0000   1.0000   1.0000   1.0000   1.0000   1.0000   1.0000
     1.0000   1.0000   1.0000   1.0000   1.0000   1.0000   1.0000   1.0000
     1.0000   1.0000   1.0000   1.0000   1.0000   1.0000   1.0000   1.0000
     0.9999   0.9997   0.9983   0.9939   0.9653   0.9098   0.8542   0.7510
     0.6121   0.5190   0.2014   0.0281   0.0217   0.0000   0.0000   0.0000
     0.0000   0.0000   0.0000   0.0000   0.0000   0.0000   0.0000   0.0000
     0.0000   0.0000   0.0000   0.0000   0.0000   0.0000   0.0000   0.0000
     0.0000   0.0000   0.0000   0.0000   0.0000   0.0000

          k = 0.1250-0.6495 0.0000 ( 39195 PWs)   bands (ev):

   -94.4768 -94.4607 -94.4557 -94.4514 -94.4423 -94.4385 -94.4344 -94.3836
   -94.0457 -94.0260 -94.0220 -94.0174 -94.0084 -93.9532 -93.9473 -93.9436
   -48.7332 -48.7195 -48.7106 -48.6944 -48.6896 -48.6828 -48.6641 -48.6441
   -48.6199 -48.6087 -48.6047 -48.5928 -48.5695 -48.5640 -48.5545 -48.5324
   -48.5252 -48.5214 -48.5169 -48.5063 -48.5013 -48.4794 -48.4672 -48.4524
   -48.3534 -48.3373 -48.3346 -48.2963 -48.2916 -48.2781 -48.2688 -48.2379
   -48.2253 -48.2146 -48.1898 -48.1659 -48.1571 -48.1493 -48.1293 -48.0926
   -47.9685 -47.9566 -47.9506 -47.9433 -47.9326 -47.8617 -47.8518 -47.8451
    -3.5952  -2.9337  -2.4412  -2.0498  -1.8737  -1.5229  -1.5115  -1.4276
    -1.3921  -1.3137  -1.3015  -1.1168  -1.0765  -0.9303  -0.8948  -0.8350
    -0.6341  -0.5037  -0.4741  -0.4258  -0.2790  -0.2259  -0.2084  -0.1564
    -0.1323  -0.0320  -0.0090   0.0701   0.2411   0.3527   0.4302   0.4649
     0.5487   0.5974   0.6372   0.7832   0.8615   0.9237   0.9918   1.0504
     1.0880   1.1184   1.1539   1.1793   1.2452   1.2815   1.3587   1.3965
     1.4453   1.5176   1.5671   1.6688   1.7716   1.9458   1.9937   2.0002
     2.0491   2.0856   2.2297   2.3448   2.4601   2.4782   2.5023   2.5446
     2.6516   2.6911   2.8171   2.8732   2.9143   2.9523   3.0000   3.1211
     3.2052   3.3274   3.4096   3.4767   3.5997   3.6831   3.8602   3.8848
     3.9275   3.9563   4.1354   4.1564   4.2025   4.5783   4.9328   5.1772
     5.9742   6.1814   6.6071   6.9783   7.3013   7.7972   8.1835   8.4595
     9.0013   9.3708   9.5471  10.2255  10.3001  10.4247  10.7784  10.8890
    11.0203  11.1510  11.2013  11.2891  11.5752  11.8794

     occupation numbers 
     1.0000   1.0000   1.0000   1.0000   1.0000   1.0000   1.0000   1.0000
     1.0000   1.0000   1.0000   1.0000   1.0000   1.0000   1.0000   1.0000
     1.0000   1.0000   1.0000   1.0000   1.0000   1.0000   1.0000   1.0000
     1.0000   1.0000   1.0000   1.0000   1.0000   1.0000   1.0000   1.0000
     1.0000   1.0000   1.0000   1.0000   1.0000   1.0000   1.0000   1.0000
     1.0000   1.0000   1.0000   1.0000   1.0000   1.0000   1.0000   1.0000
     1.0000   1.0000   1.0000   1.0000   1.0000   1.0000   1.0000   1.0000
     1.0000   1.0000   1.0000   1.0000   1.0000   1.0000   1.0000   1.0000
     1.0000   1.0000   1.0000   1.0000   1.0000   1.0000   1.0000   1.0000
     1.0000   1.0000   1.0000   1.0000   1.0000   1.0000   1.0000   1.0000
     1.0000   1.0000   1.0000   1.0000   1.0000   1.0000   1.0000   1.0000
     1.0000   1.0000   1.0000   1.0000   1.0000   1.0000   1.0000   1.0000
     1.0000   1.0000   1.0000   1.0000   1.0000   1.0000   1.0000   1.0000
     1.0000   1.0000   1.0000   1.0000   1.0000   1.0000   1.0000   1.0000
     1.0000   1.0000   1.0000   1.0000   1.0000   1.0000   1.0000   1.0000
     1.0000   1.0000   1.0000   1.0000   1.0000   1.0000   1.0000   1.0000
     1.0000   1.0000   1.0000   1.0000   1.0000   1.0000   1.0000   1.0000
     1.0000   1.0000   1.0000   1.0000   0.9994   0.9971   0.9080   0.8577
     0.7196   0.5907   0.0386   0.0257   0.0104   0.0000   0.0000   0.0000
     0.0000   0.0000   0.0000   0.0000   0.0000   0.0000   0.0000   0.0000
     0.0000   0.0000   0.0000   0.0000   0.0000   0.0000   0.0000   0.0000
     0.0000   0.0000   0.0000   0.0000   0.0000   0.0000

          k = 0.1250-0.5052 0.0000 ( 39195 PWs)   bands (ev):

   -94.4768 -94.4607 -94.4556 -94.4514 -94.4423 -94.4386 -94.4343 -94.3836
   -94.0457 -94.0260 -94.0221 -94.0174 -94.0084 -93.9532 -93.9472 -93.9437
   -48.7326 -48.7198 -48.7107 -48.6943 -48.6895 -48.6828 -48.6639 -48.6445
   -48.6199 -48.6088 -48.6048 -48.5929 -48.5698 -48.5643 -48.5542 -48.5323
   -48.5253 -48.5213 -48.5170 -48.5062 -48.5012 -48.4795 -48.4673 -48.4522
   -48.3533 -48.3374 -48.3346 -48.2963 -48.2915 -48.2781 -48.2690 -48.2380
   -48.2260 -48.2146 -48.1890 -48.1659 -48.1575 -48.1492 -48.1294 -48.0925
   -47.9685 -47.9566 -47.9507 -47.9432 -47.9326 -47.8618 -47.8517 -47.8451
    -3.5951  -2.9338  -2.4411  -2.0498  -1.8730  -1.5231  -1.5120  -1.4275
    -1.3914  -1.3139  -1.3011  -1.1165  -1.0763  -0.9307  -0.8943  -0.8348
    -0.6347  -0.5038  -0.4744  -0.4255  -0.2787  -0.2258  -0.2089  -0.1568
    -0.1328  -0.0311  -0.0089   0.0700   0.2424   0.3526   0.4326   0.4637
     0.5470   0.5970   0.6359   0.7829   0.8609   0.9232   0.9905   1.0475
     1.0867   1.1183   1.1524   1.1790   1.2481   1.2859   1.3590   1.3965
     1.4445   1.5162   1.5668   1.6663   1.7727   1.9465   1.9944   1.9987
     2.0490   2.0884   2.2313   2.3444   2.4605   2.4791   2.5022   2.5447
     2.6500   2.6899   2.8179   2.8745   2.9147   2.9528   2.9995   3.1205
     3.2056   3.3270   3.4099   3.4768   3.5996   3.6828   3.8582   3.8848
     3.9292   3.9565   4.1354   4.1567   4.2043   4.5762   4.9327   5.1772
     5.9755   6.1812   6.6061   6.9785   7.3014   7.7975   8.1844   8.4599
     9.0017   9.3704   9.5471  10.2250  10.3000  10.4247  10.7800  10.8895
    11.0215  11.1511  11.2008  11.2891  11.5753  11.8788

     occupation numbers 
     1.0000   1.0000   1.0000   1.0000   1.0000   1.0000   1.0000   1.0000
     1.0000   1.0000   1.0000   1.0000   1.0000   1.0000   1.0000   1.0000
     1.0000   1.0000   1.0000   1.0000   1.0000   1.0000   1.0000   1.0000
     1.0000   1.0000   1.0000   1.0000   1.0000   1.0000   1.0000   1.0000
     1.0000   1.0000   1.0000   1.0000   1.0000   1.0000   1.0000   1.0000
     1.0000   1.0000   1.0000   1.0000   1.0000   1.0000   1.0000   1.0000
     1.0000   1.0000   1.0000   1.0000   1.0000   1.0000   1.0000   1.0000
     1.0000   1.0000   1.0000   1.0000   1.0000   1.0000   1.0000   1.0000
     1.0000   1.0000   1.0000   1.0000   1.0000   1.0000   1.0000   1.0000
     1.0000   1.0000   1.0000   1.0000   1.0000   1.0000   1.0000   1.0000
     1.0000   1.0000   1.0000   1.0000   1.0000   1.0000   1.0000   1.0000
     1.0000   1.0000   1.0000   1.0000   1.0000   1.0000   1.0000   1.0000
     1.0000   1.0000   1.0000   1.0000   1.0000   1.0000   1.0000   1.0000
     1.0000   1.0000   1.0000   1.0000   1.0000   1.0000   1.0000   1.0000
     1.0000   1.0000   1.0000   1.0000   1.0000   1.0000   1.0000   1.0000
     1.0000   1.0000   1.0000   1.0000   1.0000   1.0000   1.0000   1.0000
     1.0000   1.0000   1.0000   1.0000   1.0000   1.0000   1.0000   1.0000
     1.0000   1.0000   1.0000   1.0000   0.9994   0.9971   0.9113   0.8576
     0.7126   0.5899   0.0386   0.0255   0.0100   0.0000   0.0000   0.0000
     0.0000   0.0000   0.0000   0.0000   0.0000   0.0000   0.0000   0.0000
     0.0000   0.0000   0.0000   0.0000   0.0000   0.0000   0.0000   0.0000
     0.0000   0.0000   0.0000   0.0000   0.0000   0.0000

          k = 0.1250-0.3608 0.0000 ( 39199 PWs)   bands (ev):

   -94.4777 -94.4610 -94.4544 -94.4515 -94.4440 -94.4370 -94.4343 -94.3834
   -94.0458 -94.0285 -94.0199 -94.0172 -94.0082 -93.9543 -93.9459 -93.9438
   -48.7527 -48.7370 -48.7293 -48.7186 -48.7081 -48.7016 -48.6932 -48.6210
   -48.6160 -48.6057 -48.5944 -48.5690 -48.5603 -48.5507 -48.5409 -48.5297
   -48.5225 -48.5180 -48.5115 -48.4974 -48.4885 -48.4813 -48.4688 -48.4421
   -48.3711 -48.3543 -48.3486 -48.3390 -48.3258 -48.2990 -48.2445 -48.2095
   -48.2029 -48.1875 -48.1795 -48.1663 -48.1401 -48.1353 -48.1264 -48.0834
   -47.9690 -47.9608 -47.9471 -47.9430 -47.9325 -47.8638 -47.8494 -47.8453
    -4.2402  -2.9821  -2.4773  -2.1037  -1.9579  -1.9066  -1.8393  -1.7606
    -1.6686  -1.6241  -1.4899  -1.3712  -1.3109  -1.2343  -1.1917  -1.0327
    -0.8420  -0.8253  -0.6713  -0.4312  -0.3987  -0.3731  -0.1732  -0.1127
     0.0537   0.1277   0.1470   0.3007   0.4862   0.5302   0.5992   0.6890
     0.7118   0.7676   0.7791   0.8142   0.9118   0.9599   1.0071   1.0363
     1.0714   1.1720   1.2011   1.2647   1.3337   1.4033   1.6902   1.7432
     1.8199   1.8704   1.9112   1.9642   1.9823   2.0413   2.0697   2.1478
     2.1833   2.2259   2.2528   2.2785   2.6910   2.7027   2.7572   2.7755
     2.8502   2.9361   2.9991   3.0953   3.1211   3.1408   3.3115   3.3537
     3.5209   3.5677   3.6549   3.7196   3.8057   3.8596   3.8867   3.9198
     3.9521   3.9710   4.0455   4.1523   4.1657   4.8161   5.0747   5.1159
     5.3634   6.0773   6.7833   6.9866   7.3346   7.6382   7.8210   8.2366
     8.4343   8.8373   9.7536   9.7741   9.9609  10.2524  10.3730  10.6092
    10.7585  10.9602  11.0334  11.5230  11.8196  12.0931

     occupation numbers 
     1.0000   1.0000   1.0000   1.0000   1.0000   1.0000   1.0000   1.0000
     1.0000   1.0000   1.0000   1.0000   1.0000   1.0000   1.0000   1.0000
     1.0000   1.0000   1.0000   1.0000   1.0000   1.0000   1.0000   1.0000
     1.0000   1.0000   1.0000   1.0000   1.0000   1.0000   1.0000   1.0000
     1.0000   1.0000   1.0000   1.0000   1.0000   1.0000   1.0000   1.0000
     1.0000   1.0000   1.0000   1.0000   1.0000   1.0000   1.0000   1.0000
     1.0000   1.0000   1.0000   1.0000   1.0000   1.0000   1.0000   1.0000
     1.0000   1.0000   1.0000   1.0000   1.0000   1.0000   1.0000   1.0000
     1.0000   1.0000   1.0000   1.0000   1.0000   1.0000   1.0000   1.0000
     1.0000   1.0000   1.0000   1.0000   1.0000   1.0000   1.0000   1.0000
     1.0000   1.0000   1.0000   1.0000   1.0000   1.0000   1.0000   1.0000
     1.0000   1.0000   1.0000   1.0000   1.0000   1.0000   1.0000   1.0000
     1.0000   1.0000   1.0000   1.0000   1.0000   1.0000   1.0000   1.0000
     1.0000   1.0000   1.0000   1.0000   1.0000   1.0000   1.0000   1.0000
     1.0000   1.0000   1.0000   1.0000   1.0000   1.0000   1.0000   1.0000
     1.0000   1.0000   1.0000   1.0000   1.0000   1.0000   1.0000   1.0000
     1.0000   1.0000   1.0000   1.0000   1.0000   1.0000   1.0000   1.0000
     0.9999   0.9997   0.9983   0.9940   0.9671   0.9090   0.8530   0.7495
     0.6108   0.5181   0.1950   0.0278   0.0214   0.0000   0.0000   0.0000
     0.0000   0.0000   0.0000   0.0000   0.0000   0.0000   0.0000   0.0000
     0.0000   0.0000   0.0000   0.0000   0.0000   0.0000   0.0000   0.0000
     0.0000   0.0000   0.0000   0.0000   0.0000   0.0000

          k = 0.1250-0.2165 0.0000 ( 39141 PWs)   bands (ev):

   -94.4790 -94.4611 -94.4528 -94.4516 -94.4457 -94.4357 -94.4341 -94.3832
   -94.0459 -94.0307 -94.0182 -94.0170 -94.0079 -93.9555 -93.9445 -93.9438
   -48.7711 -48.7604 -48.7576 -48.7439 -48.7278 -48.7239 -48.7079 -48.6133
   -48.6027 -48.5977 -48.5866 -48.5564 -48.5558 -48.5351 -48.5314 -48.5308
   -48.5234 -48.5031 -48.4998 -48.4962 -48.4794 -48.4715 -48.4550 -48.4323
   -48.3875 -48.3758 -48.3727 -48.3639 -48.3536 -48.3230 -48.2169 -48.1907
   -48.1902 -48.1844 -48.1612 -48.1488 -48.1361 -48.1245 -48.0965 -48.0739
   -47.9697 -47.9642 -47.9446 -47.9427 -47.9322 -47.8658 -47.8470 -47.8455
    -4.7266  -3.4393  -2.3515  -2.3158  -2.3140  -2.2710  -2.0457  -2.0408
    -2.0323  -1.9053  -1.6045  -1.5991  -1.5611  -1.4390  -1.4328  -1.2199
    -1.2041  -1.1658  -1.0616  -0.5440  -0.5433  -0.5353   0.0384   0.1771
     0.2363   0.2469   0.2942   0.3883   0.5119   0.5632   0.5725   0.8449
     0.8787   0.8826   0.8964   0.9120   0.9161   0.9421   1.0075   1.1289
     1.1511   1.2085   1.2235   1.3359   1.3670   1.4813   1.5821   1.6054
     2.0605   2.0772   2.1542   2.2961   2.3895   2.4964   2.6286   2.6734
     2.6887   2.8157   2.8443   2.8967   2.9189   3.0084   3.0357   3.0428
     3.0548   3.1866   3.4304   3.4419   3.5158   3.5811   3.5901   3.6592
     3.6979   3.7458   3.7597   3.8423   3.8967   3.9260   3.9412   3.9607
     4.1911   4.2098   4.2114   4.5768   4.5832   4.7447   4.9267   4.9356
     5.8960   5.9424   6.0220   6.5446   7.2258   7.4553   7.6762   7.8586
     8.1903   8.2448   9.3681   9.6872   9.7328   9.8922  10.0569  10.0806
    10.3388  10.6554  10.7760  10.8749  11.0114  11.6878

     occupation numbers 
     1.0000   1.0000   1.0000   1.0000   1.0000   1.0000   1.0000   1.0000
     1.0000   1.0000   1.0000   1.0000   1.0000   1.0000   1.0000   1.0000
     1.0000   1.0000   1.0000   1.0000   1.0000   1.0000   1.0000   1.0000
     1.0000   1.0000   1.0000   1.0000   1.0000   1.0000   1.0000   1.0000
     1.0000   1.0000   1.0000   1.0000   1.0000   1.0000   1.0000   1.0000
     1.0000   1.0000   1.0000   1.0000   1.0000   1.0000   1.0000   1.0000
     1.0000   1.0000   1.0000   1.0000   1.0000   1.0000   1.0000   1.0000
     1.0000   1.0000   1.0000   1.0000   1.0000   1.0000   1.0000   1.0000
     1.0000   1.0000   1.0000   1.0000   1.0000   1.0000   1.0000   1.0000
     1.0000   1.0000   1.0000   1.0000   1.0000   1.0000   1.0000   1.0000
     1.0000   1.0000   1.0000   1.0000   1.0000   1.0000   1.0000   1.0000
     1.0000   1.0000   1.0000   1.0000   1.0000   1.0000   1.0000   1.0000
     1.0000   1.0000   1.0000   1.0000   1.0000   1.0000   1.0000   1.0000
     1.0000   1.0000   1.0000   1.0000   1.0000   1.0000   1.0000   1.0000
     1.0000   1.0000   1.0000   1.0000   1.0000   1.0000   1.0000   1.0000
     1.0000   1.0000   1.0000   1.0000   1.0000   1.0000   1.0000   1.0000
     1.0000   1.0000   1.0000   1.0000   0.9999   0.9996   0.9995   0.9982
     0.9961   0.9898   0.9866   0.9338   0.8262   0.7255   0.6614   0.5691
     0.0130   0.0090   0.0087   0.0000   0.0000   0.0000   0.0000   0.0000
     0.0000   0.0000   0.0000   0.0000   0.0000   0.0000   0.0000   0.0000
     0.0000   0.0000   0.0000   0.0000   0.0000   0.0000   0.0000   0.0000
     0.0000   0.0000   0.0000   0.0000   0.0000   0.0000

          k = 0.2500-0.1443 0.0000 ( 39161 PWs)   bands (ev):

   -94.4786 -94.4611 -94.4532 -94.4516 -94.4452 -94.4360 -94.4342 -94.3833
   -94.0459 -94.0301 -94.0188 -94.0169 -94.0080 -93.9552 -93.9450 -93.9437
   -48.7641 -48.7599 -48.7461 -48.7374 -48.7241 -48.7161 -48.7042 -48.6152
   -48.6024 -48.6000 -48.5809 -48.5799 -48.5423 -48.5404 -48.5331 -48.5296
   -48.5215 -48.5190 -48.5045 -48.4896 -48.4805 -48.4721 -48.4648 -48.4340
   -48.3812 -48.3759 -48.3602 -48.3601 -48.3464 -48.3163 -48.2139 -48.2124
   -48.1875 -48.1793 -48.1679 -48.1594 -48.1342 -48.1268 -48.1066 -48.0756
   -47.9695 -47.9634 -47.9455 -47.9425 -47.9324 -47.8653 -47.8478 -47.8453
    -4.6022  -3.3208  -2.4616  -2.2359  -2.1598  -2.0810  -2.0390  -2.0372
    -1.8610  -1.8603  -1.5910  -1.5163  -1.5036  -1.4756  -1.2287  -1.1839
    -1.1751  -1.0073  -0.9892  -0.5187  -0.5129  -0.4881   0.0584   0.0589
     0.0897   0.2477   0.3176   0.3416   0.5408   0.5465   0.6425   0.8215
     0.8540   0.8611   0.8774   0.9588   0.9799   0.9827   1.0130   1.0257
     1.1022   1.1223   1.1934   1.3196   1.3534   1.4271   1.5555   1.6366
     2.0114   2.0867   2.0907   2.2264   2.3378   2.4025   2.4345   2.4620
     2.5718   2.6334   2.6393   2.7556   2.8753   2.8773   2.9076   2.9158
     2.9911   3.3446   3.3472   3.3893   3.3985   3.4019   3.4987   3.5109
     3.5388   3.5967   3.7224   3.7309   3.7582   3.8580   3.9084   3.9726
     3.9937   4.0069   4.1307   4.2644   4.2714   4.9160   5.2331   5.7512
     5.7525   6.2030   6.2469   6.2823   7.1388   7.2241   7.4741   7.7882
     8.8638   8.8719   9.4651   9.6493   9.6636   9.8194  10.2313  10.2928
    10.3127  10.4691  10.9406  11.2646  11.3229  11.5162

     occupation numbers 
     1.0000   1.0000   1.0000   1.0000   1.0000   1.0000   1.0000   1.0000
     1.0000   1.0000   1.0000   1.0000   1.0000   1.0000   1.0000   1.0000
     1.0000   1.0000   1.0000   1.0000   1.0000   1.0000   1.0000   1.0000
     1.0000   1.0000   1.0000   1.0000   1.0000   1.0000   1.0000   1.0000
     1.0000   1.0000   1.0000   1.0000   1.0000   1.0000   1.0000   1.0000
     1.0000   1.0000   1.0000   1.0000   1.0000   1.0000   1.0000   1.0000
     1.0000   1.0000   1.0000   1.0000   1.0000   1.0000   1.0000   1.0000
     1.0000   1.0000   1.0000   1.0000   1.0000   1.0000   1.0000   1.0000
     1.0000   1.0000   1.0000   1.0000   1.0000   1.0000   1.0000   1.0000
     1.0000   1.0000   1.0000   1.0000   1.0000   1.0000   1.0000   1.0000
     1.0000   1.0000   1.0000   1.0000   1.0000   1.0000   1.0000   1.0000
     1.0000   1.0000   1.0000   1.0000   1.0000   1.0000   1.0000   1.0000
     1.0000   1.0000   1.0000   1.0000   1.0000   1.0000   1.0000   1.0000
     1.0000   1.0000   1.0000   1.0000   1.0000   1.0000   1.0000   1.0000
     1.0000   1.0000   1.0000   1.0000   1.0000   1.0000   1.0000   1.0000
     1.0000   1.0000   1.0000   1.0000   1.0000   1.0000   1.0000   1.0000
     1.0000   1.0000   1.0000   1.0000   1.0000   1.0000   0.9999   0.9999
     0.9998   0.9995   0.9936   0.9924   0.9870   0.9115   0.7901   0.5102
     0.4058   0.3439   0.0423   0.0030   0.0026   0.0000   0.0000   0.0000
     0.0000   0.0000   0.0000   0.0000   0.0000   0.0000   0.0000   0.0000
     0.0000   0.0000   0.0000   0.0000   0.0000   0.0000   0.0000   0.0000
     0.0000   0.0000   0.0000   0.0000   0.0000   0.0000

          k = 0.2500 0.0000 0.0000 ( 39141 PWs)   bands (ev):

   -94.4790 -94.4610 -94.4530 -94.4515 -94.4457 -94.4354 -94.4344 -94.3832
   -94.0459 -94.0307 -94.0182 -94.0170 -94.0079 -93.9554 -93.9450 -93.9434
   -48.7721 -48.7600 -48.7573 -48.7440 -48.7277 -48.7241 -48.7078 -48.6130
   -48.6027 -48.5978 -48.5860 -48.5569 -48.5561 -48.5348 -48.5316 -48.5307
   -48.5226 -48.5033 -48.5000 -48.4960 -48.4801 -48.4715 -48.4545 -48.4329
   -48.3877 -48.3756 -48.3727 -48.3642 -48.3532 -48.3231 -48.2167 -48.1908
   -48.1903 -48.1838 -48.1617 -48.1486 -48.1363 -48.1247 -48.0962 -48.0742
   -47.9697 -47.9642 -47.9446 -47.9428 -47.9322 -47.8658 -47.8476 -47.8450
    -4.7267  -3.4394  -2.3516  -2.3167  -2.3145  -2.2714  -2.0453  -2.0407
    -2.0317  -1.9057  -1.6044  -1.5990  -1.5614  -1.4390  -1.4327  -1.2204
    -1.2049  -1.1657  -1.0608  -0.5442  -0.5428  -0.5355   0.0375   0.1778
     0.2354   0.2458   0.2951   0.3883   0.5101   0.5670   0.5764   0.8450
     0.8786   0.8826   0.8958   0.9102   0.9163   0.9429   1.0059   1.1303
     1.1520   1.2090   1.2244   1.3349   1.3663   1.4806   1.5846   1.6073
     2.0598   2.0764   2.1523   2.2977   2.3879   2.4956   2.6276   2.6743
     2.6890   2.8176   2.8440   2.8970   2.9190   3.0082   3.0361   3.0420
     3.0544   3.1853   3.4294   3.4411   3.5163   3.5811   3.5900   3.6598
     3.6981   3.7475   3.7613   3.8425   3.8999   3.9259   3.9413   3.9609
     4.1892   4.2075   4.2106   4.5768   4.5832   4.7429   4.9268   4.9356
     5.8969   5.9435   6.0211   6.5463   7.2259   7.4542   7.6739   7.8527
     8.1902   8.2444   9.3681   9.6912   9.7329   9.8926  10.0559  10.0792
    10.3390  10.6607  10.7758  10.8735  11.0110  11.6863

     occupation numbers 
     1.0000   1.0000   1.0000   1.0000   1.0000   1.0000   1.0000   1.0000
     1.0000   1.0000   1.0000   1.0000   1.0000   1.0000   1.0000   1.0000
     1.0000   1.0000   1.0000   1.0000   1.0000   1.0000   1.0000   1.0000
     1.0000   1.0000   1.0000   1.0000   1.0000   1.0000   1.0000   1.0000
     1.0000   1.0000   1.0000   1.0000   1.0000   1.0000   1.0000   1.0000
     1.0000   1.0000   1.0000   1.0000   1.0000   1.0000   1.0000   1.0000
     1.0000   1.0000   1.0000   1.0000   1.0000   1.0000   1.0000   1.0000
     1.0000   1.0000   1.0000   1.0000   1.0000   1.0000   1.0000   1.0000
     1.0000   1.0000   1.0000   1.0000   1.0000   1.0000   1.0000   1.0000
     1.0000   1.0000   1.0000   1.0000   1.0000   1.0000   1.0000   1.0000
     1.0000   1.0000   1.0000   1.0000   1.0000   1.0000   1.0000   1.0000
     1.0000   1.0000   1.0000   1.0000   1.0000   1.0000   1.0000   1.0000
     1.0000   1.0000   1.0000   1.0000   1.0000   1.0000   1.0000   1.0000
     1.0000   1.0000   1.0000   1.0000   1.0000   1.0000   1.0000   1.0000
     1.0000   1.0000   1.0000   1.0000   1.0000   1.0000   1.0000   1.0000
     1.0000   1.0000   1.0000   1.0000   1.0000   1.0000   1.0000   1.0000
     1.0000   1.0000   1.0000   1.0000   0.9999   0.9996   0.9995   0.9982
     0.9961   0.9895   0.9862   0.9336   0.8168   0.7260   0.6606   0.5682
     0.0135   0.0094   0.0088   0.0000   0.0000   0.0000   0.0000   0.0000
     0.0000   0.0000   0.0000   0.0000   0.0000   0.0000   0.0000   0.0000
     0.0000   0.0000   0.0000   0.0000   0.0000   0.0000   0.0000   0.0000
     0.0000   0.0000   0.0000   0.0000   0.0000   0.0000

          k = 0.2500 0.1443 0.0000 ( 39161 PWs)   bands (ev):

   -94.4786 -94.4610 -94.4534 -94.4515 -94.4453 -94.4356 -94.4345 -94.3833
   -94.0459 -94.0301 -94.0187 -94.0170 -94.0080 -93.9551 -93.9455 -93.9433
   -48.7648 -48.7604 -48.7455 -48.7373 -48.7241 -48.7164 -48.7041 -48.6146
   -48.6020 -48.5998 -48.5809 -48.5798 -48.5431 -48.5399 -48.5338 -48.5291
   -48.5206 -48.5188 -48.5040 -48.4905 -48.4813 -48.4723 -48.4639 -48.4346
   -48.3814 -48.3760 -48.3606 -48.3599 -48.3459 -48.3163 -48.2138 -48.2122
   -48.1872 -48.1796 -48.1678 -48.1592 -48.1346 -48.1271 -48.1063 -48.0759
   -47.9695 -47.9634 -47.9454 -47.9426 -47.9324 -47.8652 -47.8484 -47.8448
    -4.6023  -3.3209  -2.4631  -2.2361  -2.1605  -2.0808  -2.0384  -2.0370
    -1.8611  -1.8606  -1.5908  -1.5167  -1.5039  -1.4755  -1.2298  -1.1838
    -1.1747  -1.0075  -0.9888  -0.5183  -0.5126  -0.4887   0.0563   0.0594
     0.0903   0.2471   0.3197   0.3416   0.5440   0.5489   0.6458   0.8240
     0.8544   0.8593   0.8765   0.9579   0.9797   0.9815   1.0120   1.0227
     1.1014   1.1218   1.1936   1.3215   1.3555   1.4266   1.5552   1.6411
     2.0097   2.0852   2.0898   2.2299   2.3354   2.4023   2.4350   2.4607
     2.5720   2.6347   2.6402   2.7569   2.8730   2.8761   2.9053   2.9159
     2.9915   3.3454   3.3468   3.3891   3.3983   3.4013   3.4997   3.5109
     3.5394   3.5961   3.7234   3.7321   3.7593   3.8580   3.9089   3.9755
     3.9941   4.0076   4.1307   4.2620   4.2690   4.9141   5.2328   5.7516
     5.7528   6.2014   6.2461   6.2811   7.1379   7.2236   7.4723   7.7869
     8.8633   8.8707   9.4651   9.6514   9.6649   9.8192  10.2276  10.2926
    10.3125  10.4684  10.9410  11.2667  11.3245  11.5159

     occupation numbers 
     1.0000   1.0000   1.0000   1.0000   1.0000   1.0000   1.0000   1.0000
     1.0000   1.0000   1.0000   1.0000   1.0000   1.0000   1.0000   1.0000
     1.0000   1.0000   1.0000   1.0000   1.0000   1.0000   1.0000   1.0000
     1.0000   1.0000   1.0000   1.0000   1.0000   1.0000   1.0000   1.0000
     1.0000   1.0000   1.0000   1.0000   1.0000   1.0000   1.0000   1.0000
     1.0000   1.0000   1.0000   1.0000   1.0000   1.0000   1.0000   1.0000
     1.0000   1.0000   1.0000   1.0000   1.0000   1.0000   1.0000   1.0000
     1.0000   1.0000   1.0000   1.0000   1.0000   1.0000   1.0000   1.0000
     1.0000   1.0000   1.0000   1.0000   1.0000   1.0000   1.0000   1.0000
     1.0000   1.0000   1.0000   1.0000   1.0000   1.0000   1.0000   1.0000
     1.0000   1.0000   1.0000   1.0000   1.0000   1.0000   1.0000   1.0000
     1.0000   1.0000   1.0000   1.0000   1.0000   1.0000   1.0000   1.0000
     1.0000   1.0000   1.0000   1.0000   1.0000   1.0000   1.0000   1.0000
     1.0000   1.0000   1.0000   1.0000   1.0000   1.0000   1.0000   1.0000
     1.0000   1.0000   1.0000   1.0000   1.0000   1.0000   1.0000   1.0000
     1.0000   1.0000   1.0000   1.0000   1.0000   1.0000   1.0000   1.0000
     1.0000   1.0000   1.0000   1.0000   1.0000   1.0000   0.9999   0.9999
     0.9998   0.9995   0.9935   0.9922   0.9867   0.9116   0.7883   0.4957
     0.4039   0.3408   0.0422   0.0032   0.0028   0.0000   0.0000   0.0000
     0.0000   0.0000   0.0000   0.0000   0.0000   0.0000   0.0000   0.0000
     0.0000   0.0000   0.0000   0.0000   0.0000   0.0000   0.0000   0.0000
     0.0000   0.0000   0.0000   0.0000   0.0000   0.0000

          k = 0.2500 0.2887 0.0000 ( 39199 PWs)   bands (ev):

   -94.4778 -94.4608 -94.4546 -94.4514 -94.4441 -94.4366 -94.4346 -94.3834
   -94.0458 -94.0285 -94.0198 -94.0173 -94.0082 -93.9542 -93.9465 -93.9433
   -48.7538 -48.7372 -48.7292 -48.7181 -48.7082 -48.7021 -48.6930 -48.6202
   -48.6152 -48.6055 -48.5945 -48.5690 -48.5597 -48.5504 -48.5412 -48.5299
   -48.5224 -48.5179 -48.5112 -48.4977 -48.4892 -48.4811 -48.4687 -48.4428
   -48.3714 -48.3544 -48.3491 -48.3388 -48.3253 -48.2990 -48.2443 -48.2088
   -48.2029 -48.1873 -48.1796 -48.1669 -48.1401 -48.1356 -48.1261 -48.0837
   -47.9690 -47.9608 -47.9470 -47.9431 -47.9325 -47.8636 -47.8501 -47.8448
    -4.2404  -2.9823  -2.4786  -2.1040  -1.9576  -1.9069  -1.8404  -1.7605
    -1.6682  -1.6254  -1.4903  -1.3717  -1.3105  -1.2341  -1.1914  -1.0339
    -0.8429  -0.8250  -0.6709  -0.4312  -0.3990  -0.3725  -0.1733  -0.1105
     0.0541   0.1253   0.1470   0.3001   0.4876   0.5338   0.5988   0.6900
     0.7143   0.7717   0.7818   0.8169   0.9114   0.9557   1.0040   1.0341
     1.0737   1.1703   1.1971   1.2657   1.3392   1.4080   1.6895   1.7430
     1.8177   1.8710   1.9116   1.9635   1.9824   2.0426   2.0703   2.1468
     2.1818   2.2268   2.2542   2.2773   2.6900   2.7029   2.7565   2.7749
     2.8501   2.9352   2.9977   3.0966   3.1201   3.1392   3.3117   3.3536
     3.5212   3.5677   3.6559   3.7207   3.8077   3.8599   3.8865   3.9196
     3.9534   3.9715   4.0446   4.1500   4.1633   4.8163   5.0744   5.1162
     5.3608   6.0786   6.7819   6.9865   7.3321   7.6376   7.8201   8.2372
     8.4326   8.8349   9.7537   9.7750   9.9595  10.2496  10.3715  10.6087
    10.7584  10.9650  11.0343  11.5230  11.8199  12.0936

     occupation numbers 
     1.0000   1.0000   1.0000   1.0000   1.0000   1.0000   1.0000   1.0000
     1.0000   1.0000   1.0000   1.0000   1.0000   1.0000   1.0000   1.0000
     1.0000   1.0000   1.0000   1.0000   1.0000   1.0000   1.0000   1.0000
     1.0000   1.0000   1.0000   1.0000   1.0000   1.0000   1.0000   1.0000
     1.0000   1.0000   1.0000   1.0000   1.0000   1.0000   1.0000   1.0000
     1.0000   1.0000   1.0000   1.0000   1.0000   1.0000   1.0000   1.0000
     1.0000   1.0000   1.0000   1.0000   1.0000   1.0000   1.0000   1.0000
     1.0000   1.0000   1.0000   1.0000   1.0000   1.0000   1.0000   1.0000
     1.0000   1.0000   1.0000   1.0000   1.0000   1.0000   1.0000   1.0000
     1.0000   1.0000   1.0000   1.0000   1.0000   1.0000   1.0000   1.0000
     1.0000   1.0000   1.0000   1.0000   1.0000   1.0000   1.0000   1.0000
     1.0000   1.0000   1.0000   1.0000   1.0000   1.0000   1.0000   1.0000
     1.0000   1.0000   1.0000   1.0000   1.0000   1.0000   1.0000   1.0000
     1.0000   1.0000   1.0000   1.0000   1.0000   1.0000   1.0000   1.0000
     1.0000   1.0000   1.0000   1.0000   1.0000   1.0000   1.0000   1.0000
     1.0000   1.0000   1.0000   1.0000   1.0000   1.0000   1.0000   1.0000
     1.0000   1.0000   1.0000   1.0000   1.0000   1.0000   1.0000   1.0000
     0.9999   0.9997   0.9983   0.9938   0.9657   0.9085   0.8535   0.7504
     0.6045   0.5156   0.1978   0.0291   0.0224   0.0000   0.0000   0.0000
     0.0000   0.0000   0.0000   0.0000   0.0000   0.0000   0.0000   0.0000
     0.0000   0.0000   0.0000   0.0000   0.0000   0.0000   0.0000   0.0000
     0.0000   0.0000   0.0000   0.0000   0.0000   0.0000

          k = 0.2500-0.7217 0.0000 ( 39201 PWs)   bands (ev):

   -94.4768 -94.4603 -94.4563 -94.4511 -94.4425 -94.4381 -94.4346 -94.3836
   -94.0457 -94.0262 -94.0212 -94.0180 -94.0083 -93.9530 -93.9477 -93.9434
   -48.7335 -48.7140 -48.7017 -48.6989 -48.6875 -48.6830 -48.6771 -48.6524
   -48.6197 -48.6096 -48.6035 -48.5977 -48.5659 -48.5515 -48.5457 -48.5398
   -48.5307 -48.5179 -48.5118 -48.5029 -48.4985 -48.4878 -48.4669 -48.4569
   -48.3530 -48.3309 -48.3183 -48.3172 -48.3004 -48.2786 -48.2774 -48.2343
   -48.2276 -48.1880 -48.1859 -48.1850 -48.1502 -48.1436 -48.1347 -48.0969
   -47.9685 -47.9571 -47.9491 -47.9445 -47.9324 -47.8615 -47.8523 -47.8448
    -3.6807  -2.4917  -2.4208  -2.3994  -1.7583  -1.7389  -1.4337  -1.3982
    -1.3698  -1.2920  -1.2547  -1.2380  -1.0534  -1.0398  -0.8693  -0.6516
    -0.6380  -0.6147  -0.5328  -0.3319  -0.3071  -0.2911  -0.2355  -0.1857
    -0.1435  -0.0997   0.0141   0.0280   0.2483   0.2590   0.4082   0.4579
     0.6082   0.6460   0.6983   0.7372   0.7665   0.8727   0.8989   0.9952
     1.0467   1.0650   1.0883   1.1591   1.2194   1.2473   1.2978   1.5006
     1.5300   1.6253   1.6455   1.7237   1.8880   1.9286   1.9610   2.0445
     2.0479   2.0659   2.2885   2.2981   2.3340   2.4806   2.5272   2.7205
     2.7341   2.7592   2.8795   2.9705   2.9979   3.1558   3.2094   3.3506
     3.5060   3.5180   3.5674   3.5892   3.6697   3.7563   3.7799   3.8797
     3.8884   3.9602   4.0179   4.0356   4.0799   4.1268   4.2150   5.1432
     5.1786   5.9109   6.9891   7.2947   7.5078   8.0925   8.1999   8.3766
     9.1116   9.1700   9.9212  10.0337  10.0998  10.2472  10.5579  10.6631
    11.0172  11.2293  11.3038  11.3518  11.6622  11.7868

     occupation numbers 
     1.0000   1.0000   1.0000   1.0000   1.0000   1.0000   1.0000   1.0000
     1.0000   1.0000   1.0000   1.0000   1.0000   1.0000   1.0000   1.0000
     1.0000   1.0000   1.0000   1.0000   1.0000   1.0000   1.0000   1.0000
     1.0000   1.0000   1.0000   1.0000   1.0000   1.0000   1.0000   1.0000
     1.0000   1.0000   1.0000   1.0000   1.0000   1.0000   1.0000   1.0000
     1.0000   1.0000   1.0000   1.0000   1.0000   1.0000   1.0000   1.0000
     1.0000   1.0000   1.0000   1.0000   1.0000   1.0000   1.0000   1.0000
     1.0000   1.0000   1.0000   1.0000   1.0000   1.0000   1.0000   1.0000
     1.0000   1.0000   1.0000   1.0000   1.0000   1.0000   1.0000   1.0000
     1.0000   1.0000   1.0000   1.0000   1.0000   1.0000   1.0000   1.0000
     1.0000   1.0000   1.0000   1.0000   1.0000   1.0000   1.0000   1.0000
     1.0000   1.0000   1.0000   1.0000   1.0000   1.0000   1.0000   1.0000
     1.0000   1.0000   1.0000   1.0000   1.0000   1.0000   1.0000   1.0000
     1.0000   1.0000   1.0000   1.0000   1.0000   1.0000   1.0000   1.0000
     1.0000   1.0000   1.0000   1.0000   1.0000   1.0000   1.0000   1.0000
     1.0000   1.0000   1.0000   1.0000   1.0000   1.0000   1.0000   1.0000
     1.0000   1.0000   1.0000   1.0000   1.0000   1.0000   1.0000   1.0000
     0.9999   0.9999   0.9997   0.9996   0.9978   0.9875   0.9801   0.8697
     0.8486   0.5716   0.2963   0.2281   0.1086   0.0455   0.0081   0.0000
     0.0000   0.0000   0.0000   0.0000   0.0000   0.0000   0.0000   0.0000
     0.0000   0.0000   0.0000   0.0000   0.0000   0.0000   0.0000   0.0000
     0.0000   0.0000   0.0000   0.0000   0.0000   0.0000

          k = 0.2500-0.5774 0.0000 ( 39257 PWs)   bands (ev):

   -94.4765 -94.4597 -94.4574 -94.4510 -94.4411 -94.4395 -94.4346 -94.3836
   -94.0456 -94.0243 -94.0228 -94.0183 -94.0084 -93.9524 -93.9483 -93.9435
   -48.7148 -48.7056 -48.6908 -48.6889 -48.6793 -48.6731 -48.6700 -48.6439
   -48.6417 -48.6276 -48.6105 -48.5922 -48.5859 -48.5621 -48.5434 -48.5347
   -48.5257 -48.5210 -48.5140 -48.5113 -48.5004 -48.4830 -48.4678 -48.4658
   -48.3363 -48.3172 -48.3078 -48.3019 -48.2923 -48.2745 -48.2719 -48.2679
   -48.2322 -48.2147 -48.1919 -48.1709 -48.1657 -48.1419 -48.1327 -48.1061
   -47.9683 -47.9539 -47.9516 -47.9452 -47.9323 -47.8603 -47.8535 -47.8448
    -3.0264  -2.9962  -2.3675  -2.0161  -1.9836  -1.6465  -1.1843  -1.1742
    -1.1558  -1.1026  -1.0355  -0.9539  -0.9332  -0.9023  -0.7315  -0.6572
    -0.5696  -0.5424  -0.5145  -0.3932  -0.3576  -0.3478  -0.2627  -0.2339
    -0.1591  -0.1450  -0.0897  -0.0499   0.1824   0.3252   0.3496   0.4504
     0.5005   0.5195   0.5308   0.5508   0.5860   0.6139   0.6551   0.6961
     0.9067   0.9559   1.1186   1.2119   1.2842   1.3029   1.3272   1.3385
     1.3626   1.4353   1.5671   1.6091   1.9111   1.9255   1.9420   2.0568
     2.0779   2.0935   2.2315   2.3794   2.3955   2.4622   2.4928   2.6741
     2.8653   2.9065   2.9144   3.0275   3.0554   3.1520   3.2106   3.3076
     3.3353   3.3769   3.3893   3.4248   3.4622   3.6136   3.6823   3.7153
     3.7624   3.7853   3.8557   3.8758   4.0821   4.1296   4.5740   4.6053
     5.1882   6.4287   6.5840   7.1448   7.5699   8.0476   8.9936   9.0685
     9.1162   9.2215   9.3611  10.1329  10.3732  10.5780  10.6043  10.8919
    10.9779  11.0677  11.4585  11.4860  11.6388  11.7691

     occupation numbers 
     1.0000   1.0000   1.0000   1.0000   1.0000   1.0000   1.0000   1.0000
     1.0000   1.0000   1.0000   1.0000   1.0000   1.0000   1.0000   1.0000
     1.0000   1.0000   1.0000   1.0000   1.0000   1.0000   1.0000   1.0000
     1.0000   1.0000   1.0000   1.0000   1.0000   1.0000   1.0000   1.0000
     1.0000   1.0000   1.0000   1.0000   1.0000   1.0000   1.0000   1.0000
     1.0000   1.0000   1.0000   1.0000   1.0000   1.0000   1.0000   1.0000
     1.0000   1.0000   1.0000   1.0000   1.0000   1.0000   1.0000   1.0000
     1.0000   1.0000   1.0000   1.0000   1.0000   1.0000   1.0000   1.0000
     1.0000   1.0000   1.0000   1.0000   1.0000   1.0000   1.0000   1.0000
     1.0000   1.0000   1.0000   1.0000   1.0000   1.0000   1.0000   1.0000
     1.0000   1.0000   1.0000   1.0000   1.0000   1.0000   1.0000   1.0000
     1.0000   1.0000   1.0000   1.0000   1.0000   1.0000   1.0000   1.0000
     1.0000   1.0000   1.0000   1.0000   1.0000   1.0000   1.0000   1.0000
     1.0000   1.0000   1.0000   1.0000   1.0000   1.0000   1.0000   1.0000
     1.0000   1.0000   1.0000   1.0000   1.0000   1.0000   1.0000   1.0000
     1.0000   1.0000   1.0000   1.0000   1.0000   1.0000   1.0000   1.0000
     1.0000   1.0000   1.0000   1.0000   1.0000   1.0000   1.0000   1.0000
     1.0000   1.0000   1.0000   1.0000   1.0000   0.9993   0.9971   0.9944
     0.9859   0.9778   0.9152   0.8782   0.1044   0.0431   0.0000   0.0000
     0.0000   0.0000   0.0000   0.0000   0.0000   0.0000   0.0000   0.0000
     0.0000   0.0000   0.0000   0.0000   0.0000   0.0000   0.0000   0.0000
     0.0000   0.0000   0.0000   0.0000   0.0000   0.0000

          k = 0.2500-0.4330 0.0000 ( 39201 PWs)   bands (ev):

   -94.4768 -94.4604 -94.4562 -94.4512 -94.4423 -94.4384 -94.4344 -94.3836
   -94.0457 -94.0262 -94.0213 -94.0179 -94.0083 -93.9532 -93.9473 -93.9436
   -48.7324 -48.7140 -48.7020 -48.6986 -48.6877 -48.6827 -48.6770 -48.6533
   -48.6199 -48.6099 -48.6038 -48.5984 -48.5661 -48.5514 -48.5459 -48.5399
   -48.5306 -48.5179 -48.5115 -48.5025 -48.4982 -48.4883 -48.4671 -48.4561
   -48.3528 -48.3305 -48.3184 -48.3172 -48.3006 -48.2789 -48.2774 -48.2351
   -48.2278 -48.1880 -48.1859 -48.1843 -48.1499 -48.1440 -48.1348 -48.0966
   -47.9685 -47.9571 -47.9492 -47.9444 -47.9324 -47.8617 -47.8519 -47.8450
    -3.6804  -2.4915  -2.4206  -2.3987  -1.7586  -1.7391  -1.4334  -1.3967
    -1.3679  -1.2921  -1.2545  -1.2378  -1.0533  -1.0397  -0.8700  -0.6505
    -0.6369  -0.6154  -0.5331  -0.3327  -0.3072  -0.2921  -0.2370  -0.1852
    -0.1443  -0.0995   0.0137   0.0280   0.2497   0.2610   0.4079   0.4569
     0.6056   0.6452   0.6976   0.7348   0.7641   0.8714   0.8980   0.9947
     1.0438   1.0638   1.0865   1.1608   1.2198   1.2476   1.3045   1.4995
     1.5287   1.6252   1.6434   1.7234   1.8863   1.9267   1.9626   2.0473
     2.0483   2.0665   2.2901   2.3004   2.3334   2.4804   2.5283   2.7199
     2.7341   2.7575   2.8802   2.9718   2.9995   3.1557   3.2098   3.3502
     3.5054   3.5172   3.5676   3.5897   3.6674   3.7571   3.7781   3.8816
     3.8902   3.9607   4.0175   4.0356   4.0798   4.1279   4.2163   5.1419
     5.1774   5.9135   6.9892   7.2946   7.5084   8.0933   8.2002   8.3782
     9.1128   9.1694   9.9214  10.0342  10.1011  10.2473  10.5582  10.6668
    11.0173  11.2288  11.3043  11.3518  11.6558  11.7869

     occupation numbers 
     1.0000   1.0000   1.0000   1.0000   1.0000   1.0000   1.0000   1.0000
     1.0000   1.0000   1.0000   1.0000   1.0000   1.0000   1.0000   1.0000
     1.0000   1.0000   1.0000   1.0000   1.0000   1.0000   1.0000   1.0000
     1.0000   1.0000   1.0000   1.0000   1.0000   1.0000   1.0000   1.0000
     1.0000   1.0000   1.0000   1.0000   1.0000   1.0000   1.0000   1.0000
     1.0000   1.0000   1.0000   1.0000   1.0000   1.0000   1.0000   1.0000
     1.0000   1.0000   1.0000   1.0000   1.0000   1.0000   1.0000   1.0000
     1.0000   1.0000   1.0000   1.0000   1.0000   1.0000   1.0000   1.0000
     1.0000   1.0000   1.0000   1.0000   1.0000   1.0000   1.0000   1.0000
     1.0000   1.0000   1.0000   1.0000   1.0000   1.0000   1.0000   1.0000
     1.0000   1.0000   1.0000   1.0000   1.0000   1.0000   1.0000   1.0000
     1.0000   1.0000   1.0000   1.0000   1.0000   1.0000   1.0000   1.0000
     1.0000   1.0000   1.0000   1.0000   1.0000   1.0000   1.0000   1.0000
     1.0000   1.0000   1.0000   1.0000   1.0000   1.0000   1.0000   1.0000
     1.0000   1.0000   1.0000   1.0000   1.0000   1.0000   1.0000   1.0000
     1.0000   1.0000   1.0000   1.0000   1.0000   1.0000   1.0000   1.0000
     1.0000   1.0000   1.0000   1.0000   1.0000   1.0000   1.0000   1.0000
     0.9999   0.9999   0.9997   0.9995   0.9979   0.9873   0.9808   0.8655
     0.8440   0.5692   0.2981   0.2279   0.1087   0.0446   0.0079   0.0000
     0.0000   0.0000   0.0000   0.0000   0.0000   0.0000   0.0000   0.0000
     0.0000   0.0000   0.0000   0.0000   0.0000   0.0000   0.0000   0.0000
     0.0000   0.0000   0.0000   0.0000   0.0000   0.0000

          k = 0.2500-0.2887 0.0000 ( 39199 PWs)   bands (ev):

   -94.4777 -94.4610 -94.4544 -94.4515 -94.4440 -94.4371 -94.4342 -94.3834
   -94.0458 -94.0285 -94.0199 -94.0172 -94.0082 -93.9543 -93.9459 -93.9437
   -48.7526 -48.7369 -48.7293 -48.7186 -48.7082 -48.7016 -48.6932 -48.6211
   -48.6160 -48.6058 -48.5944 -48.5691 -48.5603 -48.5507 -48.5408 -48.5297
   -48.5225 -48.5181 -48.5116 -48.4973 -48.4884 -48.4813 -48.4689 -48.4421
   -48.3711 -48.3543 -48.3486 -48.3390 -48.3258 -48.2990 -48.2445 -48.2095
   -48.2029 -48.1875 -48.1795 -48.1663 -48.1400 -48.1353 -48.1264 -48.0834
   -47.9690 -47.9608 -47.9471 -47.9430 -47.9325 -47.8638 -47.8494 -47.8453
    -4.2402  -2.9821  -2.4772  -2.1038  -1.9579  -1.9066  -1.8392  -1.7605
    -1.6686  -1.6241  -1.4899  -1.3711  -1.3109  -1.2343  -1.1917  -1.0326
    -0.8421  -0.8253  -0.6713  -0.4313  -0.3987  -0.3731  -0.1731  -0.1130
     0.0538   0.1279   0.1469   0.3004   0.4860   0.5298   0.5992   0.6890
     0.7117   0.7675   0.7790   0.8143   0.9119   0.9605   1.0074   1.0362
     1.0716   1.1716   1.2011   1.2647   1.3337   1.4031   1.6902   1.7433
     1.8198   1.8705   1.9110   1.9642   1.9825   2.0413   2.0696   2.1478
     2.1832   2.2259   2.2529   2.2786   2.6909   2.7027   2.7573   2.7755
     2.8500   2.9363   2.9995   3.0953   3.1210   3.1408   3.3114   3.3538
     3.5209   3.5677   3.6548   3.7195   3.8057   3.8595   3.8867   3.9198
     3.9519   3.9709   4.0454   4.1526   4.1660   4.8161   5.0748   5.1161
     5.3635   6.0773   6.7834   6.9866   7.3350   7.6382   7.8210   8.2363
     8.4343   8.8372   9.7536   9.7742   9.9611  10.2527  10.3730  10.6091
    10.7584  10.9602  11.0334  11.5229  11.8194  12.0929

     occupation numbers 
     1.0000   1.0000   1.0000   1.0000   1.0000   1.0000   1.0000   1.0000
     1.0000   1.0000   1.0000   1.0000   1.0000   1.0000   1.0000   1.0000
     1.0000   1.0000   1.0000   1.0000   1.0000   1.0000   1.0000   1.0000
     1.0000   1.0000   1.0000   1.0000   1.0000   1.0000   1.0000   1.0000
     1.0000   1.0000   1.0000   1.0000   1.0000   1.0000   1.0000   1.0000
     1.0000   1.0000   1.0000   1.0000   1.0000   1.0000   1.0000   1.0000
     1.0000   1.0000   1.0000   1.0000   1.0000   1.0000   1.0000   1.0000
     1.0000   1.0000   1.0000   1.0000   1.0000   1.0000   1.0000   1.0000
     1.0000   1.0000   1.0000   1.0000   1.0000   1.0000   1.0000   1.0000
     1.0000   1.0000   1.0000   1.0000   1.0000   1.0000   1.0000   1.0000
     1.0000   1.0000   1.0000   1.0000   1.0000   1.0000   1.0000   1.0000
     1.0000   1.0000   1.0000   1.0000   1.0000   1.0000   1.0000   1.0000
     1.0000   1.0000   1.0000   1.0000   1.0000   1.0000   1.0000   1.0000
     1.0000   1.0000   1.0000   1.0000   1.0000   1.0000   1.0000   1.0000
     1.0000   1.0000   1.0000   1.0000   1.0000   1.0000   1.0000   1.0000
     1.0000   1.0000   1.0000   1.0000   1.0000   1.0000   1.0000   1.0000
     1.0000   1.0000   1.0000   1.0000   1.0000   1.0000   1.0000   1.0000
     0.9999   0.9997   0.9983   0.9940   0.9670   0.9091   0.8531   0.7495
     0.6117   0.5185   0.1954   0.0277   0.0213   0.0000   0.0000   0.0000
     0.0000   0.0000   0.0000   0.0000   0.0000   0.0000   0.0000   0.0000
     0.0000   0.0000   0.0000   0.0000   0.0000   0.0000   0.0000   0.0000
     0.0000   0.0000   0.0000   0.0000   0.0000   0.0000

          k = 0.3750-0.2165 0.0000 ( 39194 PWs)   bands (ev):

   -94.4773 -94.4610 -94.4545 -94.4517 -94.4434 -94.4377 -94.4342 -94.3835
   -94.0457 -94.0276 -94.0209 -94.0169 -94.0084 -93.9539 -93.9464 -93.9437
   -48.7432 -48.7372 -48.7237 -48.7041 -48.7020 -48.6945 -48.6822 -48.6205
   -48.6176 -48.6056 -48.5886 -48.5853 -48.5777 -48.5520 -48.5432 -48.5294
   -48.5237 -48.5224 -48.5188 -48.4994 -48.4953 -48.4785 -48.4686 -48.4433
   -48.3624 -48.3564 -48.3450 -48.3167 -48.3152 -48.2878 -48.2353 -48.2331
   -48.2107 -48.2064 -48.1803 -48.1676 -48.1474 -48.1386 -48.1296 -48.0844
   -47.9688 -47.9593 -47.9489 -47.9423 -47.9328 -47.8631 -47.8502 -47.8452
    -4.0194  -2.7986  -2.7548  -2.0583  -1.7796  -1.7016  -1.6992  -1.6509
    -1.5607  -1.5561  -1.5314  -1.2395  -1.1586  -1.1581  -1.0327  -0.9337
    -0.9066  -0.5719  -0.5603  -0.3459  -0.3337  -0.3159  -0.2855  -0.0737
    -0.0550   0.0177   0.1210   0.3637   0.3749   0.4058   0.4477   0.6156
     0.6442   0.6841   0.7611   0.8572   0.8972   1.0126   1.0157   1.1103
     1.1926   1.2306   1.2536   1.2642   1.3655   1.4018   1.5620   1.5801
     1.7120   1.7434   1.7541   1.7836   1.8265   1.9020   1.9558   2.0301
     2.0489   2.0769   2.1838   2.3638   2.6158   2.6183   2.6594   2.6622
     2.7245   2.8170   2.8378   2.8762   2.9911   3.0033   3.0420   3.0741
     3.2967   3.3376   3.4897   3.5347   3.6693   3.6817   3.8507   3.9889
     3.9970   4.0073   4.0483   4.2647   4.2771   4.6750   5.5805   5.8911
     5.8913   6.3667   6.3902   6.7837   7.1013   7.4807   7.4846   8.0135
     9.3477   9.3524   9.6291   9.9484  10.2014  10.2249  10.2792  10.7560
    10.9899  11.1360  11.1702  11.4663  11.7386  12.0621

     occupation numbers 
     1.0000   1.0000   1.0000   1.0000   1.0000   1.0000   1.0000   1.0000
     1.0000   1.0000   1.0000   1.0000   1.0000   1.0000   1.0000   1.0000
     1.0000   1.0000   1.0000   1.0000   1.0000   1.0000   1.0000   1.0000
     1.0000   1.0000   1.0000   1.0000   1.0000   1.0000   1.0000   1.0000
     1.0000   1.0000   1.0000   1.0000   1.0000   1.0000   1.0000   1.0000
     1.0000   1.0000   1.0000   1.0000   1.0000   1.0000   1.0000   1.0000
     1.0000   1.0000   1.0000   1.0000   1.0000   1.0000   1.0000   1.0000
     1.0000   1.0000   1.0000   1.0000   1.0000   1.0000   1.0000   1.0000
     1.0000   1.0000   1.0000   1.0000   1.0000   1.0000   1.0000   1.0000
     1.0000   1.0000   1.0000   1.0000   1.0000   1.0000   1.0000   1.0000
     1.0000   1.0000   1.0000   1.0000   1.0000   1.0000   1.0000   1.0000
     1.0000   1.0000   1.0000   1.0000   1.0000   1.0000   1.0000   1.0000
     1.0000   1.0000   1.0000   1.0000   1.0000   1.0000   1.0000   1.0000
     1.0000   1.0000   1.0000   1.0000   1.0000   1.0000   1.0000   1.0000
     1.0000   1.0000   1.0000   1.0000   1.0000   1.0000   1.0000   1.0000
     1.0000   1.0000   1.0000   1.0000   1.0000   1.0000   1.0000   1.0000
     1.0000   1.0000   1.0000   1.0000   1.0000   1.0000   1.0000   1.0000
     1.0000   1.0000   0.9999   0.9998   0.9978   0.9972   0.9227   0.4293
     0.3898   0.3423   0.1865   0.0030   0.0024   0.0000   0.0000   0.0000
     0.0000   0.0000   0.0000   0.0000   0.0000   0.0000   0.0000   0.0000
     0.0000   0.0000   0.0000   0.0000   0.0000   0.0000   0.0000   0.0000
     0.0000   0.0000   0.0000   0.0000   0.0000   0.0000

          k = 0.3750-0.0722 0.0000 ( 39199 PWs)   bands (ev):

   -94.4777 -94.4609 -94.4545 -94.4514 -94.4441 -94.4369 -94.4343 -94.3834
   -94.0458 -94.0285 -94.0198 -94.0172 -94.0082 -93.9543 -93.9462 -93.9435
   -48.7535 -48.7362 -48.7293 -48.7187 -48.7083 -48.7017 -48.6932 -48.6207
   -48.6155 -48.6057 -48.5943 -48.5694 -48.5598 -48.5504 -48.5406 -48.5299
   -48.5225 -48.5181 -48.5119 -48.4973 -48.4886 -48.4811 -48.4688 -48.4425
   -48.3713 -48.3542 -48.3488 -48.3390 -48.3256 -48.2990 -48.2443 -48.2089
   -48.2031 -48.1874 -48.1794 -48.1672 -48.1397 -48.1355 -48.1261 -48.0836
   -47.9690 -47.9608 -47.9471 -47.9431 -47.9325 -47.8637 -47.8498 -47.8450
    -4.2403  -2.9822  -2.4772  -2.1050  -1.9579  -1.9068  -1.8397  -1.7597
    -1.6680  -1.6252  -1.4901  -1.3712  -1.3110  -1.2340  -1.1917  -1.0328
    -0.8434  -0.8249  -0.6707  -0.4318  -0.3985  -0.3726  -0.1730  -0.1130
     0.0551   0.1272   0.1467   0.2983   0.4857   0.5300   0.5988   0.6895
     0.7139   0.7706   0.7809   0.8170   0.9121   0.9607   1.0071   1.0338
     1.0747   1.1674   1.1972   1.2656   1.3383   1.4062   1.6898   1.7432
     1.8173   1.8713   1.9107   1.9633   1.9832   2.0420   2.0697   2.1473
     2.1820   2.2267   2.2539   2.2781   2.6893   2.7025   2.7567   2.7751
     2.8490   2.9365   3.0008   3.0966   3.1197   3.1393   3.3107   3.3543
     3.5207   3.5680   3.6554   3.7199   3.8082   3.8590   3.8863   3.9195
     3.9516   3.9708   4.0436   4.1521   4.1654   4.8161   5.0751   5.1176
     5.3620   6.0781   6.7828   6.9865   7.3353   7.6380   7.8203   8.2353
     8.4329   8.8346   9.7538   9.7758   9.9611  10.2527  10.3721  10.6076
    10.7575  10.9646  11.0342  11.5225  11.8191  12.0923

     occupation numbers 
     1.0000   1.0000   1.0000   1.0000   1.0000   1.0000   1.0000   1.0000
     1.0000   1.0000   1.0000   1.0000   1.0000   1.0000   1.0000   1.0000
     1.0000   1.0000   1.0000   1.0000   1.0000   1.0000   1.0000   1.0000
     1.0000   1.0000   1.0000   1.0000   1.0000   1.0000   1.0000   1.0000
     1.0000   1.0000   1.0000   1.0000   1.0000   1.0000   1.0000   1.0000
     1.0000   1.0000   1.0000   1.0000   1.0000   1.0000   1.0000   1.0000
     1.0000   1.0000   1.0000   1.0000   1.0000   1.0000   1.0000   1.0000
     1.0000   1.0000   1.0000   1.0000   1.0000   1.0000   1.0000   1.0000
     1.0000   1.0000   1.0000   1.0000   1.0000   1.0000   1.0000   1.0000
     1.0000   1.0000   1.0000   1.0000   1.0000   1.0000   1.0000   1.0000
     1.0000   1.0000   1.0000   1.0000   1.0000   1.0000   1.0000   1.0000
     1.0000   1.0000   1.0000   1.0000   1.0000   1.0000   1.0000   1.0000
     1.0000   1.0000   1.0000   1.0000   1.0000   1.0000   1.0000   1.0000
     1.0000   1.0000   1.0000   1.0000   1.0000   1.0000   1.0000   1.0000
     1.0000   1.0000   1.0000   1.0000   1.0000   1.0000   1.0000   1.0000
     1.0000   1.0000   1.0000   1.0000   1.0000   1.0000   1.0000   1.0000
     1.0000   1.0000   1.0000   1.0000   1.0000   1.0000   1.0000   1.0000
     0.9999   0.9997   0.9983   0.9939   0.9654   0.9099   0.8542   0.7508
     0.6130   0.5192   0.2010   0.0279   0.0215   0.0000   0.0000   0.0000
     0.0000   0.0000   0.0000   0.0000   0.0000   0.0000   0.0000   0.0000
     0.0000   0.0000   0.0000   0.0000   0.0000   0.0000   0.0000   0.0000
     0.0000   0.0000   0.0000   0.0000   0.0000   0.0000

          k = 0.3750 0.0722 0.0000 ( 39199 PWs)   bands (ev):

   -94.4778 -94.4609 -94.4546 -94.4514 -94.4441 -94.4367 -94.4345 -94.3834
   -94.0458 -94.0285 -94.0198 -94.0173 -94.0082 -93.9542 -93.9465 -93.9433
   -48.7537 -48.7373 -48.7292 -48.7181 -48.7082 -48.7021 -48.6930 -48.6202
   -48.6153 -48.6055 -48.5945 -48.5690 -48.5598 -48.5505 -48.5413 -48.5298
   -48.5225 -48.5179 -48.5111 -48.4977 -48.4892 -48.4811 -48.4687 -48.4428
   -48.3713 -48.3544 -48.3490 -48.3388 -48.3253 -48.2990 -48.2443 -48.2089
   -48.2028 -48.1873 -48.1797 -48.1667 -48.1402 -48.1356 -48.1261 -48.0836
   -47.9690 -47.9608 -47.9470 -47.9431 -47.9325 -47.8636 -47.8501 -47.8448
    -4.2404  -2.9823  -2.4786  -2.1039  -1.9576  -1.9069  -1.8403  -1.7606
    -1.6682  -1.6252  -1.4903  -1.3717  -1.3105  -1.2342  -1.1914  -1.0338
    -0.8427  -0.8250  -0.6709  -0.4311  -0.3990  -0.3726  -0.1734  -0.1105
     0.0539   0.1253   0.1470   0.3004   0.4876   0.5338   0.5988   0.6899
     0.7141   0.7713   0.7815   0.8165   0.9114   0.9557   1.0040   1.0344
     1.0732   1.1709   1.1976   1.2656   1.3386   1.4076   1.6896   1.7430
     1.8182   1.8708   1.9116   1.9636   1.9823   2.0425   2.0703   2.1470
     2.1820   2.2267   2.2540   2.2773   2.6902   2.7029   2.7567   2.7750
     2.8502   2.9351   2.9976   3.0964   3.1203   3.1394   3.3119   3.3535
     3.5212   3.5676   3.6558   3.7207   3.8074   3.8599   3.8866   3.9197
     3.9534   3.9715   4.0449   4.1501   4.1634   4.8163   5.0744   5.1160
     5.3610   6.0785   6.7820   6.9865   7.3320   7.6376   7.8202   8.2374
     8.4328   8.8353   9.7537   9.7748   9.9595  10.2496  10.3716  10.6089
    10.7585  10.9644  11.0342  11.5231  11.8199  12.0938

     occupation numbers 
     1.0000   1.0000   1.0000   1.0000   1.0000   1.0000   1.0000   1.0000
     1.0000   1.0000   1.0000   1.0000   1.0000   1.0000   1.0000   1.0000
     1.0000   1.0000   1.0000   1.0000   1.0000   1.0000   1.0000   1.0000
     1.0000   1.0000   1.0000   1.0000   1.0000   1.0000   1.0000   1.0000
     1.0000   1.0000   1.0000   1.0000   1.0000   1.0000   1.0000   1.0000
     1.0000   1.0000   1.0000   1.0000   1.0000   1.0000   1.0000   1.0000
     1.0000   1.0000   1.0000   1.0000   1.0000   1.0000   1.0000   1.0000
     1.0000   1.0000   1.0000   1.0000   1.0000   1.0000   1.0000   1.0000
     1.0000   1.0000   1.0000   1.0000   1.0000   1.0000   1.0000   1.0000
     1.0000   1.0000   1.0000   1.0000   1.0000   1.0000   1.0000   1.0000
     1.0000   1.0000   1.0000   1.0000   1.0000   1.0000   1.0000   1.0000
     1.0000   1.0000   1.0000   1.0000   1.0000   1.0000   1.0000   1.0000
     1.0000   1.0000   1.0000   1.0000   1.0000   1.0000   1.0000   1.0000
     1.0000   1.0000   1.0000   1.0000   1.0000   1.0000   1.0000   1.0000
     1.0000   1.0000   1.0000   1.0000   1.0000   1.0000   1.0000   1.0000
     1.0000   1.0000   1.0000   1.0000   1.0000   1.0000   1.0000   1.0000
     1.0000   1.0000   1.0000   1.0000   1.0000   1.0000   1.0000   1.0000
     0.9999   0.9997   0.9983   0.9938   0.9659   0.9084   0.8533   0.7502
     0.6044   0.5155   0.1971   0.0291   0.0224   0.0000   0.0000   0.0000
     0.0000   0.0000   0.0000   0.0000   0.0000   0.0000   0.0000   0.0000
     0.0000   0.0000   0.0000   0.0000   0.0000   0.0000   0.0000   0.0000
     0.0000   0.0000   0.0000   0.0000   0.0000   0.0000

          k = 0.3750 0.2165 0.0000 ( 39194 PWs)   bands (ev):

   -94.4774 -94.4609 -94.4548 -94.4515 -94.4435 -94.4372 -94.4346 -94.3835
   -94.0457 -94.0276 -94.0209 -94.0170 -94.0084 -93.9537 -93.9470 -93.9433
   -48.7441 -48.7379 -48.7241 -48.7042 -48.7022 -48.6940 -48.6821 -48.6195
   -48.6165 -48.6049 -48.5888 -48.5856 -48.5769 -48.5525 -48.5426 -48.5303
   -48.5236 -48.5219 -48.5186 -48.4989 -48.4961 -48.4795 -48.4684 -48.4439
   -48.3627 -48.3566 -48.3456 -48.3164 -48.3148 -48.2877 -48.2351 -48.2328
   -48.2105 -48.2062 -48.1800 -48.1679 -48.1470 -48.1388 -48.1304 -48.0845
   -47.9688 -47.9593 -47.9489 -47.9424 -47.9327 -47.8628 -47.8510 -47.8448
    -4.0197  -2.7990  -2.7557  -2.0580  -1.7803  -1.7018  -1.6995  -1.6525
    -1.5615  -1.5569  -1.5321  -1.2395  -1.1584  -1.1583  -1.0334  -0.9336
    -0.9061  -0.5724  -0.5602  -0.3455  -0.3328  -0.3145  -0.2845  -0.0751
    -0.0558   0.0178   0.1216   0.3676   0.3789   0.4059   0.4495   0.6154
     0.6444   0.6870   0.7612   0.8593   0.8997   1.0085   1.0113   1.1070
     1.1911   1.2310   1.2541   1.2655   1.3699   1.4023   1.5629   1.5804
     1.7136   1.7433   1.7547   1.7832   1.8269   1.9034   1.9556   2.0293
     2.0491   2.0767   2.1836   2.3627   2.6160   2.6186   2.6602   2.6631
     2.7231   2.8167   2.8376   2.8728   2.9906   3.0031   3.0425   3.0742
     3.2963   3.3377   3.4894   3.5341   3.6700   3.6825   3.8509   3.9908
     3.9978   4.0087   4.0493   4.2620   4.2744   4.6739   5.5779   5.8910
     5.8912   6.3661   6.3897   6.7812   7.0991   7.4804   7.4849   8.0120
     9.3488   9.3532   9.6244   9.9484  10.2006  10.2238  10.2786  10.7562
    10.9907  11.1340  11.1687  11.4660  11.7388  12.0642

     occupation numbers 
     1.0000   1.0000   1.0000   1.0000   1.0000   1.0000   1.0000   1.0000
     1.0000   1.0000   1.0000   1.0000   1.0000   1.0000   1.0000   1.0000
     1.0000   1.0000   1.0000   1.0000   1.0000   1.0000   1.0000   1.0000
     1.0000   1.0000   1.0000   1.0000   1.0000   1.0000   1.0000   1.0000
     1.0000   1.0000   1.0000   1.0000   1.0000   1.0000   1.0000   1.0000
     1.0000   1.0000   1.0000   1.0000   1.0000   1.0000   1.0000   1.0000
     1.0000   1.0000   1.0000   1.0000   1.0000   1.0000   1.0000   1.0000
     1.0000   1.0000   1.0000   1.0000   1.0000   1.0000   1.0000   1.0000
     1.0000   1.0000   1.0000   1.0000   1.0000   1.0000   1.0000   1.0000
     1.0000   1.0000   1.0000   1.0000   1.0000   1.0000   1.0000   1.0000
     1.0000   1.0000   1.0000   1.0000   1.0000   1.0000   1.0000   1.0000
     1.0000   1.0000   1.0000   1.0000   1.0000   1.0000   1.0000   1.0000
     1.0000   1.0000   1.0000   1.0000   1.0000   1.0000   1.0000   1.0000
     1.0000   1.0000   1.0000   1.0000   1.0000   1.0000   1.0000   1.0000
     1.0000   1.0000   1.0000   1.0000   1.0000   1.0000   1.0000   1.0000
     1.0000   1.0000   1.0000   1.0000   1.0000   1.0000   1.0000   1.0000
     1.0000   1.0000   1.0000   1.0000   1.0000   1.0000   1.0000   1.0000
     1.0000   1.0000   0.9999   0.9999   0.9977   0.9971   0.9223   0.4199
     0.3864   0.3358   0.1834   0.0032   0.0025   0.0000   0.0000   0.0000
     0.0000   0.0000   0.0000   0.0000   0.0000   0.0000   0.0000   0.0000
     0.0000   0.0000   0.0000   0.0000   0.0000   0.0000   0.0000   0.0000
     0.0000   0.0000   0.0000   0.0000   0.0000   0.0000

          k = 0.3750-0.7939 0.0000 ( 39195 PWs)   bands (ev):

   -94.4768 -94.4605 -94.4559 -94.4513 -94.4425 -94.4381 -94.4346 -94.3836
   -94.0457 -94.0260 -94.0220 -94.0174 -94.0084 -93.9529 -93.9479 -93.9433
   -48.7337 -48.7203 -48.7111 -48.6948 -48.6899 -48.6823 -48.6636 -48.6432
   -48.6193 -48.6082 -48.6043 -48.5925 -48.5699 -48.5639 -48.5543 -48.5325
   -48.5254 -48.5214 -48.5166 -48.5064 -48.5013 -48.4802 -48.4672 -48.4528
   -48.3536 -48.3376 -48.3351 -48.2959 -48.2913 -48.2779 -48.2687 -48.2377
   -48.2255 -48.2144 -48.1893 -48.1661 -48.1569 -48.1494 -48.1300 -48.0926
   -47.9685 -47.9566 -47.9506 -47.9433 -47.9326 -47.8614 -47.8525 -47.8447
    -3.5955  -2.9345  -2.4412  -2.0496  -1.8734  -1.5241  -1.5130  -1.4285
    -1.3926  -1.3148  -1.3026  -1.1159  -1.0770  -0.9299  -0.8948  -0.8349
    -0.6342  -0.5022  -0.4741  -0.4249  -0.2784  -0.2259  -0.2092  -0.1557
    -0.1322  -0.0316  -0.0081   0.0706   0.2419   0.3538   0.4320   0.4653
     0.5489   0.5983   0.6376   0.7847   0.8642   0.9229   0.9907   1.0490
     1.0876   1.1198   1.1519   1.1780   1.2459   1.2824   1.3587   1.3967
     1.4453   1.5170   1.5678   1.6686   1.7728   1.9483   1.9941   1.9997
     2.0488   2.0853   2.2303   2.3443   2.4587   2.4775   2.5021   2.5446
     2.6516   2.6909   2.8178   2.8740   2.9140   2.9525   2.9983   3.1198
     3.2055   3.3277   3.4097   3.4760   3.5999   3.6838   3.8606   3.8859
     3.9294   3.9566   4.1333   4.1540   4.2032   4.5766   4.9328   5.1767
     5.9726   6.1821   6.6041   6.9781   7.3007   7.7973   8.1850   8.4576
     9.0020   9.3672   9.5454  10.2221  10.3002  10.4249  10.7775  10.8898
    11.0221  11.1509  11.2048  11.2896  11.5751  11.8776

     occupation numbers 
     1.0000   1.0000   1.0000   1.0000   1.0000   1.0000   1.0000   1.0000
     1.0000   1.0000   1.0000   1.0000   1.0000   1.0000   1.0000   1.0000
     1.0000   1.0000   1.0000   1.0000   1.0000   1.0000   1.0000   1.0000
     1.0000   1.0000   1.0000   1.0000   1.0000   1.0000   1.0000   1.0000
     1.0000   1.0000   1.0000   1.0000   1.0000   1.0000   1.0000   1.0000
     1.0000   1.0000   1.0000   1.0000   1.0000   1.0000   1.0000   1.0000
     1.0000   1.0000   1.0000   1.0000   1.0000   1.0000   1.0000   1.0000
     1.0000   1.0000   1.0000   1.0000   1.0000   1.0000   1.0000   1.0000
     1.0000   1.0000   1.0000   1.0000   1.0000   1.0000   1.0000   1.0000
     1.0000   1.0000   1.0000   1.0000   1.0000   1.0000   1.0000   1.0000
     1.0000   1.0000   1.0000   1.0000   1.0000   1.0000   1.0000   1.0000
     1.0000   1.0000   1.0000   1.0000   1.0000   1.0000   1.0000   1.0000
     1.0000   1.0000   1.0000   1.0000   1.0000   1.0000   1.0000   1.0000
     1.0000   1.0000   1.0000   1.0000   1.0000   1.0000   1.0000   1.0000
     1.0000   1.0000   1.0000   1.0000   1.0000   1.0000   1.0000   1.0000
     1.0000   1.0000   1.0000   1.0000   1.0000   1.0000   1.0000   1.0000
     1.0000   1.0000   1.0000   1.0000   1.0000   1.0000   1.0000   1.0000
     1.0000   1.0000   1.0000   1.0000   0.9994   0.9970   0.9073   0.8551
     0.7121   0.5895   0.0402   0.0270   0.0102   0.0000   0.0000   0.0000
     0.0000   0.0000   0.0000   0.0000   0.0000   0.0000   0.0000   0.0000
     0.0000   0.0000   0.0000   0.0000   0.0000   0.0000   0.0000   0.0000
     0.0000   0.0000   0.0000   0.0000   0.0000   0.0000

          k = 0.3750-0.6495 0.0000 ( 39257 PWs)   bands (ev):

   -94.4765 -94.4595 -94.4576 -94.4510 -94.4413 -94.4391 -94.4347 -94.3836
   -94.0456 -94.0244 -94.0227 -94.0184 -94.0083 -93.9522 -93.9486 -93.9434
   -48.7155 -48.7061 -48.6907 -48.6894 -48.6788 -48.6732 -48.6701 -48.6432
   -48.6414 -48.6275 -48.6102 -48.5921 -48.5857 -48.5623 -48.5431 -48.5347
   -48.5260 -48.5210 -48.5142 -48.5114 -48.5002 -48.4830 -48.4680 -48.4660
   -48.3365 -48.3177 -48.3080 -48.3017 -48.2919 -48.2743 -48.2717 -48.2678
   -48.2321 -48.2147 -48.1917 -48.1711 -48.1658 -48.1415 -48.1332 -48.1062
   -47.9683 -47.9540 -47.9515 -47.9452 -47.9323 -47.8601 -47.8539 -47.8447
    -3.0272  -2.9961  -2.3673  -2.0161  -1.9833  -1.6473  -1.1857  -1.1749
    -1.1565  -1.1040  -1.0345  -0.9552  -0.9337  -0.9006  -0.7308  -0.6580
    -0.5688  -0.5415  -0.5142  -0.3928  -0.3573  -0.3479  -0.2624  -0.2347
    -0.1592  -0.1446  -0.0891  -0.0498   0.1826   0.3254   0.3503   0.4505
     0.5009   0.5200   0.5303   0.5511   0.5865   0.6149   0.6565   0.6966
     0.9073   0.9561   1.1189   1.2113   1.2841   1.3028   1.3279   1.3382
     1.3610   1.4346   1.5673   1.6101   1.9131   1.9262   1.9406   2.0573
     2.0781   2.0934   2.2288   2.3793   2.3958   2.4626   2.4931   2.6735
     2.8647   2.9064   2.9150   3.0274   3.0557   3.1514   3.2111   3.3072
     3.3351   3.3777   3.3888   3.4254   3.4619   3.6130   3.6834   3.7162
     3.7631   3.7863   3.8537   3.8742   4.0822   4.1289   4.5731   4.6045
     5.1901   6.4271   6.5822   7.1462   7.5703   8.0477   8.9950   9.0667
     9.1163   9.2176   9.3595  10.1347  10.3737  10.5783  10.6045  10.8919
    10.9778  11.0673  11.4578  11.4854  11.6386  11.7693

     occupation numbers 
     1.0000   1.0000   1.0000   1.0000   1.0000   1.0000   1.0000   1.0000
     1.0000   1.0000   1.0000   1.0000   1.0000   1.0000   1.0000   1.0000
     1.0000   1.0000   1.0000   1.0000   1.0000   1.0000   1.0000   1.0000
     1.0000   1.0000   1.0000   1.0000   1.0000   1.0000   1.0000   1.0000
     1.0000   1.0000   1.0000   1.0000   1.0000   1.0000   1.0000   1.0000
     1.0000   1.0000   1.0000   1.0000   1.0000   1.0000   1.0000   1.0000
     1.0000   1.0000   1.0000   1.0000   1.0000   1.0000   1.0000   1.0000
     1.0000   1.0000   1.0000   1.0000   1.0000   1.0000   1.0000   1.0000
     1.0000   1.0000   1.0000   1.0000   1.0000   1.0000   1.0000   1.0000
     1.0000   1.0000   1.0000   1.0000   1.0000   1.0000   1.0000   1.0000
     1.0000   1.0000   1.0000   1.0000   1.0000   1.0000   1.0000   1.0000
     1.0000   1.0000   1.0000   1.0000   1.0000   1.0000   1.0000   1.0000
     1.0000   1.0000   1.0000   1.0000   1.0000   1.0000   1.0000   1.0000
     1.0000   1.0000   1.0000   1.0000   1.0000   1.0000   1.0000   1.0000
     1.0000   1.0000   1.0000   1.0000   1.0000   1.0000   1.0000   1.0000
     1.0000   1.0000   1.0000   1.0000   1.0000   1.0000   1.0000   1.0000
     1.0000   1.0000   1.0000   1.0000   1.0000   1.0000   1.0000   1.0000
     1.0000   1.0000   1.0000   1.0000   1.0000   0.9993   0.9971   0.9943
     0.9857   0.9774   0.9182   0.8817   0.1042   0.0437   0.0000   0.0000
     0.0000   0.0000   0.0000   0.0000   0.0000   0.0000   0.0000   0.0000
     0.0000   0.0000   0.0000   0.0000   0.0000   0.0000   0.0000   0.0000
     0.0000   0.0000   0.0000   0.0000   0.0000   0.0000

          k = 0.3750-0.5052 0.0000 ( 39257 PWs)   bands (ev):

   -94.4765 -94.4597 -94.4574 -94.4511 -94.4410 -94.4396 -94.4346 -94.3836
   -94.0456 -94.0243 -94.0228 -94.0183 -94.0084 -93.9524 -93.9483 -93.9435
   -48.7147 -48.7056 -48.6908 -48.6889 -48.6794 -48.6731 -48.6700 -48.6439
   -48.6418 -48.6276 -48.6106 -48.5922 -48.5860 -48.5621 -48.5435 -48.5347
   -48.5256 -48.5210 -48.5140 -48.5112 -48.5004 -48.4830 -48.4677 -48.4658
   -48.3363 -48.3172 -48.3078 -48.3019 -48.2923 -48.2745 -48.2719 -48.2680
   -48.2322 -48.2147 -48.1919 -48.1708 -48.1657 -48.1419 -48.1327 -48.1061
   -47.9683 -47.9539 -47.9516 -47.9452 -47.9323 -47.8603 -47.8536 -47.8448
    -3.0263  -2.9962  -2.3676  -2.0160  -1.9837  -1.6464  -1.1842  -1.1741
    -1.1557  -1.1024  -1.0356  -0.9537  -0.9332  -0.9025  -0.7315  -0.6571
    -0.5697  -0.5426  -0.5145  -0.3932  -0.3576  -0.3478  -0.2627  -0.2338
    -0.1591  -0.1450  -0.0898  -0.0498   0.1823   0.3253   0.3494   0.4504
     0.5005   0.5195   0.5308   0.5507   0.5860   0.6139   0.6547   0.6960
     0.9066   0.9560   1.1185   1.2119   1.2843   1.3030   1.3272   1.3385
     1.3629   1.4353   1.5671   1.6089   1.9107   1.9256   1.9421   2.0568
     2.0779   2.0935   2.2318   2.3794   2.3955   2.4622   2.4927   2.6742
     2.8655   2.9065   2.9144   3.0275   3.0554   3.1522   3.2104   3.3077
     3.3352   3.3768   3.3894   3.4248   3.4622   3.6137   3.6822   3.7152
     3.7622   3.7852   3.8559   3.8761   4.0821   4.1297   4.5742   4.6054
     5.1880   6.4288   6.5843   7.1446   7.5698   8.0476   8.9935   9.0688
     9.1162   9.2221   9.3612  10.1326  10.3731  10.5781  10.6043  10.8919
    10.9780  11.0678  11.4585  11.4860  11.6388  11.7691

     occupation numbers 
     1.0000   1.0000   1.0000   1.0000   1.0000   1.0000   1.0000   1.0000
     1.0000   1.0000   1.0000   1.0000   1.0000   1.0000   1.0000   1.0000
     1.0000   1.0000   1.0000   1.0000   1.0000   1.0000   1.0000   1.0000
     1.0000   1.0000   1.0000   1.0000   1.0000   1.0000   1.0000   1.0000
     1.0000   1.0000   1.0000   1.0000   1.0000   1.0000   1.0000   1.0000
     1.0000   1.0000   1.0000   1.0000   1.0000   1.0000   1.0000   1.0000
     1.0000   1.0000   1.0000   1.0000   1.0000   1.0000   1.0000   1.0000
     1.0000   1.0000   1.0000   1.0000   1.0000   1.0000   1.0000   1.0000
     1.0000   1.0000   1.0000   1.0000   1.0000   1.0000   1.0000   1.0000
     1.0000   1.0000   1.0000   1.0000   1.0000   1.0000   1.0000   1.0000
     1.0000   1.0000   1.0000   1.0000   1.0000   1.0000   1.0000   1.0000
     1.0000   1.0000   1.0000   1.0000   1.0000   1.0000   1.0000   1.0000
     1.0000   1.0000   1.0000   1.0000   1.0000   1.0000   1.0000   1.0000
     1.0000   1.0000   1.0000   1.0000   1.0000   1.0000   1.0000   1.0000
     1.0000   1.0000   1.0000   1.0000   1.0000   1.0000   1.0000   1.0000
     1.0000   1.0000   1.0000   1.0000   1.0000   1.0000   1.0000   1.0000
     1.0000   1.0000   1.0000   1.0000   1.0000   1.0000   1.0000   1.0000
     1.0000   1.0000   1.0000   1.0000   1.0000   0.9993   0.9971   0.9944
     0.9859   0.9779   0.9149   0.8777   0.1044   0.0430   0.0000   0.0000
     0.0000   0.0000   0.0000   0.0000   0.0000   0.0000   0.0000   0.0000
     0.0000   0.0000   0.0000   0.0000   0.0000   0.0000   0.0000   0.0000
     0.0000   0.0000   0.0000   0.0000   0.0000   0.0000

          k = 0.3750-0.3608 0.0000 ( 39195 PWs)   bands (ev):

   -94.4768 -94.4607 -94.4556 -94.4514 -94.4422 -94.4387 -94.4343 -94.3836
   -94.0457 -94.0259 -94.0221 -94.0173 -94.0084 -93.9532 -93.9472 -93.9437
   -48.7326 -48.7197 -48.7106 -48.6943 -48.6895 -48.6828 -48.6639 -48.6446
   -48.6200 -48.6088 -48.6049 -48.5930 -48.5697 -48.5643 -48.5543 -48.5323
   -48.5253 -48.5213 -48.5170 -48.5062 -48.5012 -48.4793 -48.4673 -48.4522
   -48.3533 -48.3374 -48.3346 -48.2963 -48.2915 -48.2781 -48.2690 -48.2380
   -48.2259 -48.2146 -48.1890 -48.1659 -48.1576 -48.1492 -48.1293 -48.0924
   -47.9685 -47.9566 -47.9507 -47.9432 -47.9326 -47.8618 -47.8517 -47.8451
    -3.5951  -2.9337  -2.4411  -2.0498  -1.8730  -1.5229  -1.5118  -1.4274
    -1.3913  -1.3138  -1.3009  -1.1166  -1.0763  -0.9307  -0.8943  -0.8348
    -0.6347  -0.5040  -0.4744  -0.4256  -0.2788  -0.2259  -0.2088  -0.1568
    -0.1328  -0.0312  -0.0090   0.0700   0.2423   0.3524   0.4324   0.4636
     0.5470   0.5968   0.6359   0.7827   0.8605   0.9233   0.9907   1.0477
     1.0867   1.1180   1.1526   1.1791   1.2481   1.2857   1.3590   1.3965
     1.4445   1.5163   1.5667   1.6663   1.7725   1.9462   1.9943   1.9987
     2.0490   2.0884   2.2313   2.3445   2.4607   2.4791   2.5023   2.5448
     2.6500   2.6899   2.8178   2.8744   2.9147   2.9528   2.9998   3.1207
     3.2055   3.3270   3.4099   3.4769   3.5995   3.6827   3.8581   3.8847
     3.9290   3.9565   4.1356   4.1571   4.2042   4.5764   4.9327   5.1773
     5.9757   6.1811   6.6065   6.9785   7.3015   7.7975   8.1842   8.4602
     9.0016   9.3709   9.5473  10.2255  10.3000  10.4247  10.7801  10.8894
    11.0213  11.1511  11.2003  11.2890  11.5753  11.8790

     occupation numbers 
     1.0000   1.0000   1.0000   1.0000   1.0000   1.0000   1.0000   1.0000
     1.0000   1.0000   1.0000   1.0000   1.0000   1.0000   1.0000   1.0000
     1.0000   1.0000   1.0000   1.0000   1.0000   1.0000   1.0000   1.0000
     1.0000   1.0000   1.0000   1.0000   1.0000   1.0000   1.0000   1.0000
     1.0000   1.0000   1.0000   1.0000   1.0000   1.0000   1.0000   1.0000
     1.0000   1.0000   1.0000   1.0000   1.0000   1.0000   1.0000   1.0000
     1.0000   1.0000   1.0000   1.0000   1.0000   1.0000   1.0000   1.0000
     1.0000   1.0000   1.0000   1.0000   1.0000   1.0000   1.0000   1.0000
     1.0000   1.0000   1.0000   1.0000   1.0000   1.0000   1.0000   1.0000
     1.0000   1.0000   1.0000   1.0000   1.0000   1.0000   1.0000   1.0000
     1.0000   1.0000   1.0000   1.0000   1.0000   1.0000   1.0000   1.0000
     1.0000   1.0000   1.0000   1.0000   1.0000   1.0000   1.0000   1.0000
     1.0000   1.0000   1.0000   1.0000   1.0000   1.0000   1.0000   1.0000
     1.0000   1.0000   1.0000   1.0000   1.0000   1.0000   1.0000   1.0000
     1.0000   1.0000   1.0000   1.0000   1.0000   1.0000   1.0000   1.0000
     1.0000   1.0000   1.0000   1.0000   1.0000   1.0000   1.0000   1.0000
     1.0000   1.0000   1.0000   1.0000   1.0000   1.0000   1.0000   1.0000
     1.0000   1.0000   1.0000   1.0000   0.9994   0.9971   0.9113   0.8579
     0.7137   0.5900   0.0384   0.0254   0.0100   0.0000   0.0000   0.0000
     0.0000   0.0000   0.0000   0.0000   0.0000   0.0000   0.0000   0.0000
     0.0000   0.0000   0.0000   0.0000   0.0000   0.0000   0.0000   0.0000
     0.0000   0.0000   0.0000   0.0000   0.0000   0.0000

          k =-0.5000 0.2887 0.0000 ( 39264 PWs)   bands (ev):

   -94.4768 -94.4610 -94.4551 -94.4517 -94.4421 -94.4389 -94.4342 -94.3836
   -94.0457 -94.0256 -94.0228 -94.0169 -94.0085 -93.9532 -93.9471 -93.9437
   -48.7322 -48.7251 -48.7142 -48.6935 -48.6935 -48.6807 -48.6453 -48.6343
   -48.6295 -48.6186 -48.5919 -48.5805 -48.5775 -48.5738 -48.5665 -48.5340
   -48.5224 -48.5214 -48.5185 -48.5063 -48.5053 -48.4731 -48.4678 -48.4490
   -48.3526 -48.3459 -48.3378 -48.2952 -48.2751 -48.2640 -48.2623 -48.2465
   -48.2411 -48.2184 -48.1871 -48.1747 -48.1565 -48.1497 -48.1260 -48.0890
   -47.9685 -47.9559 -47.9520 -47.9423 -47.9329 -47.8619 -47.8515 -47.8452
    -3.3576  -3.3250  -2.3116  -2.2795  -1.5465  -1.5218  -1.5214  -1.5075
    -1.3702  -1.3683  -1.2206  -1.1918  -1.0603  -1.0484  -0.7365  -0.7171
    -0.5987  -0.5799  -0.5414  -0.5411  -0.1777  -0.1741  -0.1227  -0.1198
    -0.1130  -0.0710   0.0255   0.0558   0.2840   0.2888   0.4400   0.4411
     0.5630   0.6055   0.7764   0.8080   1.0091   1.0273   1.0650   1.0776
     1.1397   1.1587   1.1996   1.2150   1.2463   1.2549   1.2993   1.3529
     1.3939   1.4039   1.4816   1.5571   1.8526   1.8758   1.9273   1.9348
     2.1136   2.1410   2.1852   2.2178   2.4285   2.4870   2.5492   2.5605
     2.5737   2.6009   2.6950   2.7878   2.8001   2.8130   2.8583   2.8771
     2.9762   3.0357   3.4613   3.4813   3.6584   3.6713   4.0049   4.0159
     4.0179   4.0387   4.2239   4.2637   4.2638   4.2802   5.9282   5.9298
     6.1458   6.2663   6.4412   6.4467   7.2379   7.5562   7.6389   8.5879
     8.9566   9.3728   9.3870  10.3284  10.6176  10.6693  10.9780  11.1390
    11.1499  11.3102  11.3244  11.3478  11.5141  11.5931

     occupation numbers 
     1.0000   1.0000   1.0000   1.0000   1.0000   1.0000   1.0000   1.0000
     1.0000   1.0000   1.0000   1.0000   1.0000   1.0000   1.0000   1.0000
     1.0000   1.0000   1.0000   1.0000   1.0000   1.0000   1.0000   1.0000
     1.0000   1.0000   1.0000   1.0000   1.0000   1.0000   1.0000   1.0000
     1.0000   1.0000   1.0000   1.0000   1.0000   1.0000   1.0000   1.0000
     1.0000   1.0000   1.0000   1.0000   1.0000   1.0000   1.0000   1.0000
     1.0000   1.0000   1.0000   1.0000   1.0000   1.0000   1.0000   1.0000
     1.0000   1.0000   1.0000   1.0000   1.0000   1.0000   1.0000   1.0000
     1.0000   1.0000   1.0000   1.0000   1.0000   1.0000   1.0000   1.0000
     1.0000   1.0000   1.0000   1.0000   1.0000   1.0000   1.0000   1.0000
     1.0000   1.0000   1.0000   1.0000   1.0000   1.0000   1.0000   1.0000
     1.0000   1.0000   1.0000   1.0000   1.0000   1.0000   1.0000   1.0000
     1.0000   1.0000   1.0000   1.0000   1.0000   1.0000   1.0000   1.0000
     1.0000   1.0000   1.0000   1.0000   1.0000   1.0000   1.0000   1.0000
     1.0000   1.0000   1.0000   1.0000   1.0000   1.0000   1.0000   1.0000
     1.0000   1.0000   1.0000   1.0000   1.0000   1.0000   1.0000   1.0000
     1.0000   1.0000   1.0000   1.0000   1.0000   1.0000   1.0000   1.0000
     1.0000   1.0000   1.0000   0.9999   0.9982   0.9977   0.3530   0.3046
     0.2964   0.2172   0.0068   0.0031   0.0031   0.0022   0.0000   0.0000
     0.0000   0.0000   0.0000   0.0000   0.0000   0.0000   0.0000   0.0000
     0.0000   0.0000   0.0000   0.0000   0.0000   0.0000   0.0000   0.0000
     0.0000   0.0000   0.0000   0.0000   0.0000   0.0000

          k =-0.5000 0.4330 0.0000 ( 39195 PWs)   bands (ev):

   -94.4768 -94.4607 -94.4557 -94.4514 -94.4422 -94.4386 -94.4343 -94.3836
   -94.0457 -94.0259 -94.0221 -94.0174 -94.0084 -93.9532 -93.9473 -93.9436
   -48.7331 -48.7194 -48.7106 -48.6943 -48.6895 -48.6829 -48.6641 -48.6443
   -48.6200 -48.6087 -48.6048 -48.5929 -48.5695 -48.5641 -48.5545 -48.5324
   -48.5252 -48.5214 -48.5169 -48.5063 -48.5013 -48.4793 -48.4672 -48.4524
   -48.3534 -48.3373 -48.3346 -48.2964 -48.2916 -48.2781 -48.2689 -48.2379
   -48.2253 -48.2147 -48.1898 -48.1658 -48.1572 -48.1493 -48.1293 -48.0925
   -47.9685 -47.9566 -47.9507 -47.9432 -47.9326 -47.8617 -47.8519 -47.8450
    -3.5952  -2.9336  -2.4412  -2.0498  -1.8737  -1.5227  -1.5114  -1.4275
    -1.3920  -1.3136  -1.3013  -1.1169  -1.0764  -0.9304  -0.8948  -0.8350
    -0.6342  -0.5039  -0.4742  -0.4258  -0.2791  -0.2259  -0.2084  -0.1565
    -0.1324  -0.0319  -0.0091   0.0701   0.2411   0.3525   0.4303   0.4647
     0.5485   0.5972   0.6370   0.7829   0.8611   0.9238   0.9918   1.0503
     1.0877   1.1181   1.1540   1.1794   1.2455   1.2818   1.3588   1.3966
     1.4452   1.5174   1.5671   1.6685   1.7716   1.9455   1.9938   2.0000
     2.0491   2.0860   2.2298   2.3448   2.4603   2.4784   2.5023   2.5447
     2.6515   2.6909   2.8172   2.8732   2.9143   2.9523   3.0002   3.1212
     3.2051   3.3273   3.4097   3.4768   3.5997   3.6829   3.8600   3.8846
     3.9275   3.9563   4.1357   4.1567   4.2026   4.5783   4.9328   5.1773
     5.9745   6.1813   6.6074   6.9784   7.3014   7.7973   8.1834   8.4599
     9.0013   9.3712   9.5473  10.2259  10.3000  10.4246  10.7787  10.8889
    11.0202  11.1511  11.2008  11.2890  11.5752  11.8795

     occupation numbers 
     1.0000   1.0000   1.0000   1.0000   1.0000   1.0000   1.0000   1.0000
     1.0000   1.0000   1.0000   1.0000   1.0000   1.0000   1.0000   1.0000
     1.0000   1.0000   1.0000   1.0000   1.0000   1.0000   1.0000   1.0000
     1.0000   1.0000   1.0000   1.0000   1.0000   1.0000   1.0000   1.0000
     1.0000   1.0000   1.0000   1.0000   1.0000   1.0000   1.0000   1.0000
     1.0000   1.0000   1.0000   1.0000   1.0000   1.0000   1.0000   1.0000
     1.0000   1.0000   1.0000   1.0000   1.0000   1.0000   1.0000   1.0000
     1.0000   1.0000   1.0000   1.0000   1.0000   1.0000   1.0000   1.0000
     1.0000   1.0000   1.0000   1.0000   1.0000   1.0000   1.0000   1.0000
     1.0000   1.0000   1.0000   1.0000   1.0000   1.0000   1.0000   1.0000
     1.0000   1.0000   1.0000   1.0000   1.0000   1.0000   1.0000   1.0000
     1.0000   1.0000   1.0000   1.0000   1.0000   1.0000   1.0000   1.0000
     1.0000   1.0000   1.0000   1.0000   1.0000   1.0000   1.0000   1.0000
     1.0000   1.0000   1.0000   1.0000   1.0000   1.0000   1.0000   1.0000
     1.0000   1.0000   1.0000   1.0000   1.0000   1.0000   1.0000   1.0000
     1.0000   1.0000   1.0000   1.0000   1.0000   1.0000   1.0000   1.0000
     1.0000   1.0000   1.0000   1.0000   1.0000   1.0000   1.0000   1.0000
     1.0000   1.0000   1.0000   1.0000   0.9994   0.9971   0.9084   0.8581
     0.7198   0.5907   0.0384   0.0255   0.0104   0.0000   0.0000   0.0000
     0.0000   0.0000   0.0000   0.0000   0.0000   0.0000   0.0000   0.0000
     0.0000   0.0000   0.0000   0.0000   0.0000   0.0000   0.0000   0.0000
     0.0000   0.0000   0.0000   0.0000   0.0000   0.0000

          k =-0.5000 0.5774 0.0000 ( 39201 PWs)   bands (ev):

   -94.4768 -94.4603 -94.4563 -94.4511 -94.4424 -94.4382 -94.4346 -94.3836
   -94.0457 -94.0262 -94.0213 -94.0180 -94.0083 -93.9530 -93.9477 -93.9434
   -48.7334 -48.7140 -48.7017 -48.6988 -48.6876 -48.6830 -48.6771 -48.6525
   -48.6197 -48.6096 -48.6036 -48.5977 -48.5659 -48.5515 -48.5457 -48.5399
   -48.5307 -48.5179 -48.5117 -48.5028 -48.4985 -48.4879 -48.4669 -48.4568
   -48.3530 -48.3309 -48.3183 -48.3172 -48.3004 -48.2786 -48.2774 -48.2344
   -48.2276 -48.1880 -48.1859 -48.1849 -48.1501 -48.1438 -48.1347 -48.0969
   -47.9685 -47.9571 -47.9491 -47.9445 -47.9324 -47.8615 -47.8524 -47.8448
    -3.6807  -2.4916  -2.4208  -2.3993  -1.7583  -1.7389  -1.4337  -1.3981
    -1.3696  -1.2921  -1.2547  -1.2379  -1.0534  -1.0398  -0.8694  -0.6514
    -0.6379  -0.6148  -0.5328  -0.3320  -0.3071  -0.2912  -0.2357  -0.1857
    -0.1436  -0.0997   0.0140   0.0280   0.2485   0.2593   0.4081   0.4577
     0.6079   0.6459   0.6981   0.7369   0.7662   0.8725   0.8988   0.9952
     1.0463   1.0648   1.0882   1.1594   1.2196   1.2473   1.2986   1.5006
     1.5298   1.6253   1.6453   1.7237   1.8878   1.9284   1.9611   2.0449
     2.0479   2.0659   2.2886   2.2985   2.3339   2.4805   2.5274   2.7204
     2.7341   2.7590   2.8796   2.9707   2.9981   3.1558   3.2095   3.3505
     3.5059   3.5178   3.5674   3.5893   3.6694   3.7564   3.7796   3.8799
     3.8887   3.9603   4.0178   4.0356   4.0798   4.1271   4.2151   5.1431
     5.1785   5.9112   6.9891   7.2946   7.5079   8.0926   8.2000   8.3768
     9.1118   9.1699   9.9212  10.0338  10.1000  10.2472  10.5579  10.6636
    11.0172  11.2292  11.3039  11.3518  11.6615  11.7868

     occupation numbers 
     1.0000   1.0000   1.0000   1.0000   1.0000   1.0000   1.0000   1.0000
     1.0000   1.0000   1.0000   1.0000   1.0000   1.0000   1.0000   1.0000
     1.0000   1.0000   1.0000   1.0000   1.0000   1.0000   1.0000   1.0000
     1.0000   1.0000   1.0000   1.0000   1.0000   1.0000   1.0000   1.0000
     1.0000   1.0000   1.0000   1.0000   1.0000   1.0000   1.0000   1.0000
     1.0000   1.0000   1.0000   1.0000   1.0000   1.0000   1.0000   1.0000
     1.0000   1.0000   1.0000   1.0000   1.0000   1.0000   1.0000   1.0000
     1.0000   1.0000   1.0000   1.0000   1.0000   1.0000   1.0000   1.0000
     1.0000   1.0000   1.0000   1.0000   1.0000   1.0000   1.0000   1.0000
     1.0000   1.0000   1.0000   1.0000   1.0000   1.0000   1.0000   1.0000
     1.0000   1.0000   1.0000   1.0000   1.0000   1.0000   1.0000   1.0000
     1.0000   1.0000   1.0000   1.0000   1.0000   1.0000   1.0000   1.0000
     1.0000   1.0000   1.0000   1.0000   1.0000   1.0000   1.0000   1.0000
     1.0000   1.0000   1.0000   1.0000   1.0000   1.0000   1.0000   1.0000
     1.0000   1.0000   1.0000   1.0000   1.0000   1.0000   1.0000   1.0000
     1.0000   1.0000   1.0000   1.0000   1.0000   1.0000   1.0000   1.0000
     1.0000   1.0000   1.0000   1.0000   1.0000   1.0000   1.0000   1.0000
     0.9999   0.9999   0.9997   0.9996   0.9978   0.9874   0.9802   0.8693
     0.8480   0.5713   0.2965   0.2281   0.1087   0.0453   0.0081   0.0000
     0.0000   0.0000   0.0000   0.0000   0.0000   0.0000   0.0000   0.0000
     0.0000   0.0000   0.0000   0.0000   0.0000   0.0000   0.0000   0.0000
     0.0000   0.0000   0.0000   0.0000   0.0000   0.0000

          k =-0.5000 0.7217 0.0000 ( 39195 PWs)   bands (ev):

   -94.4768 -94.4606 -94.4559 -94.4513 -94.4425 -94.4381 -94.4346 -94.3836
   -94.0457 -94.0260 -94.0220 -94.0174 -94.0084 -93.9529 -93.9479 -93.9433
   -48.7336 -48.7204 -48.7111 -48.6948 -48.6899 -48.6823 -48.6635 -48.6433
   -48.6193 -48.6081 -48.6043 -48.5925 -48.5699 -48.5639 -48.5542 -48.5324
   -48.5255 -48.5214 -48.5166 -48.5064 -48.5013 -48.4802 -48.4672 -48.4528
   -48.3536 -48.3376 -48.3351 -48.2959 -48.2913 -48.2779 -48.2687 -48.2377
   -48.2256 -48.2144 -48.1892 -48.1661 -48.1570 -48.1494 -48.1300 -48.0926
   -47.9685 -47.9566 -47.9506 -47.9433 -47.9326 -47.8614 -47.8525 -47.8447
    -3.5955  -2.9345  -2.4412  -2.0496  -1.8733  -1.5241  -1.5131  -1.4285
    -1.3925  -1.3149  -1.3026  -1.1159  -1.0770  -0.9299  -0.8948  -0.8349
    -0.6342  -0.5022  -0.4741  -0.4249  -0.2784  -0.2259  -0.2093  -0.1558
    -0.1323  -0.0314  -0.0082   0.0706   0.2421   0.3538   0.4322   0.4652
     0.5487   0.5982   0.6375   0.7846   0.8641   0.9229   0.9906   1.0486
     1.0874   1.1198   1.1518   1.1779   1.2463   1.2829   1.3587   1.3967
     1.4452   1.5169   1.5677   1.6683   1.7729   1.9484   1.9943   1.9995
     2.0488   2.0856   2.2305   2.3443   2.4587   2.4777   2.5021   2.5446
     2.6514   2.6908   2.8179   2.8742   2.9141   2.9526   2.9982   3.1197
     3.2055   3.3277   3.4097   3.4760   3.5999   3.6838   3.8604   3.8858
     3.9296   3.9566   4.1333   4.1540   4.2034   4.5764   4.9328   5.1767
     5.9728   6.1821   6.6040   6.9781   7.3007   7.7973   8.1851   8.4577
     9.0020   9.3672   9.5454  10.2220  10.3002  10.4249  10.7777  10.8898
    11.0223  11.1509  11.2047  11.2896  11.5751  11.8775

     occupation numbers 
     1.0000   1.0000   1.0000   1.0000   1.0000   1.0000   1.0000   1.0000
     1.0000   1.0000   1.0000   1.0000   1.0000   1.0000   1.0000   1.0000
     1.0000   1.0000   1.0000   1.0000   1.0000   1.0000   1.0000   1.0000
     1.0000   1.0000   1.0000   1.0000   1.0000   1.0000   1.0000   1.0000
     1.0000   1.0000   1.0000   1.0000   1.0000   1.0000   1.0000   1.0000
     1.0000   1.0000   1.0000   1.0000   1.0000   1.0000   1.0000   1.0000
     1.0000   1.0000   1.0000   1.0000   1.0000   1.0000   1.0000   1.0000
     1.0000   1.0000   1.0000   1.0000   1.0000   1.0000   1.0000   1.0000
     1.0000   1.0000   1.0000   1.0000   1.0000   1.0000   1.0000   1.0000
     1.0000   1.0000   1.0000   1.0000   1.0000   1.0000   1.0000   1.0000
     1.0000   1.0000   1.0000   1.0000   1.0000   1.0000   1.0000   1.0000
     1.0000   1.0000   1.0000   1.0000   1.0000   1.0000   1.0000   1.0000
     1.0000   1.0000   1.0000   1.0000   1.0000   1.0000   1.0000   1.0000
     1.0000   1.0000   1.0000   1.0000   1.0000   1.0000   1.0000   1.0000
     1.0000   1.0000   1.0000   1.0000   1.0000   1.0000   1.0000   1.0000
     1.0000   1.0000   1.0000   1.0000   1.0000   1.0000   1.0000   1.0000
     1.0000   1.0000   1.0000   1.0000   1.0000   1.0000   1.0000   1.0000
     1.0000   1.0000   1.0000   1.0000   0.9994   0.9970   0.9077   0.8553
     0.7111   0.5894   0.0402   0.0269   0.0102   0.0000   0.0000   0.0000
     0.0000   0.0000   0.0000   0.0000   0.0000   0.0000   0.0000   0.0000
     0.0000   0.0000   0.0000   0.0000   0.0000   0.0000   0.0000   0.0000
     0.0000   0.0000   0.0000   0.0000   0.0000   0.0000

          k =-0.5000-0.2887 0.0000 ( 39264 PWs)   bands (ev):

   -94.4768 -94.4608 -94.4555 -94.4515 -94.4424 -94.4382 -94.4346 -94.3836
   -94.0457 -94.0257 -94.0227 -94.0170 -94.0085 -93.9529 -93.9479 -93.9433
   -48.7332 -48.7258 -48.7150 -48.6942 -48.6938 -48.6803 -48.6444 -48.6335
   -48.6281 -48.6174 -48.5919 -48.5804 -48.5769 -48.5732 -48.5672 -48.5338
   -48.5222 -48.5210 -48.5193 -48.5062 -48.5059 -48.4742 -48.4677 -48.4495
   -48.3530 -48.3461 -48.3384 -48.2948 -48.2748 -48.2638 -48.2619 -48.2464
   -48.2408 -48.2186 -48.1867 -48.1741 -48.1569 -48.1499 -48.1268 -48.0891
   -47.9685 -47.9560 -47.9519 -47.9424 -47.9328 -47.8614 -47.8524 -47.8447
    -3.3588  -3.3251  -2.3118  -2.2793  -1.5483  -1.5229  -1.5221  -1.5086
    -1.3718  -1.3699  -1.2230  -1.1935  -1.0591  -1.0470  -0.7345  -0.7156
    -0.5989  -0.5805  -0.5412  -0.5405  -0.1768  -0.1734  -0.1223  -0.1198
    -0.1123  -0.0704   0.0266   0.0570   0.2850   0.2904   0.4407   0.4413
     0.5636   0.6060   0.7796   0.8114   1.0110   1.0316   1.0634   1.0765
     1.1375   1.1587   1.1963   1.2167   1.2445   1.2542   1.3002   1.3530
     1.3923   1.4035   1.4830   1.5595   1.8527   1.8771   1.9286   1.9366
     2.1129   2.1398   2.1838   2.2172   2.4275   2.4868   2.5489   2.5604
     2.5744   2.6018   2.6933   2.7886   2.8002   2.8127   2.8575   2.8768
     2.9750   3.0353   3.4601   3.4809   3.6589   3.6721   4.0065   4.0179
     4.0187   4.0398   4.2231   4.2609   4.2631   4.2776   5.9280   5.9296
     6.1430   6.2630   6.4407   6.4461   7.2372   7.5568   7.6392   8.5832
     8.9534   9.3739   9.3880  10.3292  10.6176  10.6691  10.9773  11.1334
    11.1460  11.3100  11.3233  11.3465  11.5142  11.5940

     occupation numbers 
     1.0000   1.0000   1.0000   1.0000   1.0000   1.0000   1.0000   1.0000
     1.0000   1.0000   1.0000   1.0000   1.0000   1.0000   1.0000   1.0000
     1.0000   1.0000   1.0000   1.0000   1.0000   1.0000   1.0000   1.0000
     1.0000   1.0000   1.0000   1.0000   1.0000   1.0000   1.0000   1.0000
     1.0000   1.0000   1.0000   1.0000   1.0000   1.0000   1.0000   1.0000
     1.0000   1.0000   1.0000   1.0000   1.0000   1.0000   1.0000   1.0000
     1.0000   1.0000   1.0000   1.0000   1.0000   1.0000   1.0000   1.0000
     1.0000   1.0000   1.0000   1.0000   1.0000   1.0000   1.0000   1.0000
     1.0000   1.0000   1.0000   1.0000   1.0000   1.0000   1.0000   1.0000
     1.0000   1.0000   1.0000   1.0000   1.0000   1.0000   1.0000   1.0000
     1.0000   1.0000   1.0000   1.0000   1.0000   1.0000   1.0000   1.0000
     1.0000   1.0000   1.0000   1.0000   1.0000   1.0000   1.0000   1.0000
     1.0000   1.0000   1.0000   1.0000   1.0000   1.0000   1.0000   1.0000
     1.0000   1.0000   1.0000   1.0000   1.0000   1.0000   1.0000   1.0000
     1.0000   1.0000   1.0000   1.0000   1.0000   1.0000   1.0000   1.0000
     1.0000   1.0000   1.0000   1.0000   1.0000   1.0000   1.0000   1.0000
     1.0000   1.0000   1.0000   1.0000   1.0000   1.0000   1.0000   1.0000
     1.0000   1.0000   1.0000   0.9999   0.9982   0.9977   0.3460   0.2964
     0.2930   0.2136   0.0069   0.0033   0.0031   0.0023   0.0000   0.0000
     0.0000   0.0000   0.0000   0.0000   0.0000   0.0000   0.0000   0.0000
     0.0000   0.0000   0.0000   0.0000   0.0000   0.0000   0.0000   0.0000
     0.0000   0.0000   0.0000   0.0000   0.0000   0.0000

     the Fermi energy is     3.9746 ev

!    total energy              =  -14685.62618371 Ry
     total all-electron energy =   -589256.665628 Ry
     estimated scf accuracy    <       0.00000004 Ry
     smearing contrib. (-TS)   =      -0.02172874 Ry
     internal energy E=F+TS    =  -14685.60445497 Ry

     The total energy is F=E-TS. E is the sum of the following terms:
     one-electron contribution =  -40406.08907974 Ry
     hartree contribution      =   20233.79087124 Ry
     xc contribution           =    -611.19204083 Ry
     ewald contribution        =   16827.70876369 Ry
     one-center paw contrib.   =  -10729.82296932 Ry
      -> PAW hartree energy AE =     175.32021623 Ry
      -> PAW hartree energy PS =    -174.47829958 Ry
      -> PAW xc energy AE      =    -708.23409976 Ry
      -> PAW xc energy PS      =      36.77934162 Ry
      -> total E_H with PAW    =   20234.63278789 Ry
      -> total E_XC with PAW   =   -1282.64679898 Ry

     total magnetization       =     0.92 Bohr mag/cell
     absolute magnetization    =     1.13 Bohr mag/cell

     convergence has been achieved in  19 iterations

     negative rho (up, down):  2.419E-04 2.830E-04

     Forces acting on atoms (cartesian axes, Ry/au):

     atom    1 type  1   force =    -0.00004291   -0.00001960   -0.00508202
     atom    2 type  1   force =    -0.00003271    0.00004453   -0.00478706
     atom    3 type  1   force =     0.00002204   -0.00004594   -0.00478476
     atom    4 type  1   force =    -0.00007896   -0.00003547   -0.00480305
     atom    5 type  1   force =     0.00037721    0.00021506    0.00499035
     atom    6 type  1   force =    -0.00034669    0.00020577    0.00504318
     atom    7 type  1   force =     0.00001027   -0.00040302    0.00503630
     atom    8 type  1   force =     0.00001552    0.00001116    0.00572544
     atom    9 type  1   force =    -0.00002313    0.00074878    0.00311492
     atom   10 type  1   force =     0.00011604    0.00004519    0.00923893
     atom   11 type  1   force =    -0.00038784   -0.00021734    0.00317237
     atom   12 type  1   force =     0.00068130   -0.00041399    0.00309293
     atom   13 type  1   force =     0.00006795    0.00002804    0.00646616
     atom   14 type  1   force =     0.00019536    0.01343832   -0.00777175
     atom   15 type  1   force =     0.01157703   -0.00652181   -0.00775325
     atom   16 type  1   force =    -0.01214538   -0.00707719   -0.00769269
     atom   17 type  2   force =    -0.00000510   -0.00000249   -0.00320601
     The non-local contrib.  to forces
     atom    1 type  1   force =     0.00000802    0.00000187   -0.08632824
     atom    2 type  1   force =     0.00000203   -0.00024571   -0.08707542
     atom    3 type  1   force =    -0.00021103    0.00012512   -0.08707648
     atom    4 type  1   force =     0.00020425    0.00012452   -0.08706347
     atom    5 type  1   force =     0.00046032    0.00025739   -0.00208716
     atom    6 type  1   force =    -0.00026341    0.00021659   -0.00203830
     atom    7 type  1   force =     0.00006621   -0.00035905   -0.00203556
     atom    8 type  1   force =     0.00005891    0.00003072   -0.00455521
     atom    9 type  1   force =     0.00008116    0.00043089    0.01047762
     atom   10 type  1   force =     0.00016790    0.00006882    0.01421194
     atom   11 type  1   force =    -0.00007469   -0.00005841    0.01049151
     atom   12 type  1   force =     0.00044460   -0.00017903    0.01047066
     atom   13 type  1   force =     0.00000897    0.00000617    0.08035693
     atom   14 type  1   force =     0.00014818    0.01992002    0.08369257
     atom   15 type  1   force =     0.01706717   -0.00976410    0.08371155
     atom   16 type  1   force =    -0.01817295   -0.01057564    0.08362048
     atom   17 type  2   force =    -0.00000033   -0.00000014   -0.00009885
     The ionic contribution  to forces
     atom    1 type  1   force =    -0.00023090   -0.00011519 -326.16166801
     atom    2 type  1   force =     0.00023248    0.00930430 -326.15880508
     atom    3 type  1   force =     0.00816174   -0.00446155 -326.15883494
     atom    4 type  1   force =    -0.00813655   -0.00471530 -326.15865491
     atom    5 type  1   force =     0.10226200    0.05874604 -109.57431942
     atom    6 type  1   force =    -0.09542786    0.05607112 -109.56518567
     atom    7 type  1   force =     0.00110704   -0.11144871 -109.56600196
     atom    8 type  1   force =     0.00190763    0.00113608 -109.80222879
     atom    9 type  1   force =    -0.01225063    0.06971366  107.82581381
     atom   10 type  1   force =     0.02013118    0.00711076  110.01710295
     atom   11 type  1   force =    -0.04772681   -0.02467192  107.85797683
     atom   12 type  1   force =     0.05769628   -0.04460602  107.82201250
     atom   13 type  1   force =    -0.02016736   -0.00396681  319.02713742
     atom   14 type  1   force =     0.03002087    2.43744347  323.87824178
     atom   15 type  1   force =     2.10958713   -1.19458167  323.87249921
     atom   16 type  1   force =    -2.14742879   -1.25108443  323.83701501
     atom   17 type  2   force =     0.00026254    0.00012616   19.00789927
     The local contribution  to forces
     atom    1 type  1   force =     0.00018635    0.00008059  326.23554957
     atom    2 type  1   force =    -0.00028871   -0.00906889  326.23391169
     atom    3 type  1   force =    -0.00797133    0.00430899  326.23395236
     atom    4 type  1   force =     0.00787943    0.00459445  326.23373123
     atom    5 type  1   force =    -0.10228307   -0.05876992  109.58288839
     atom    6 type  1   force =     0.09526160   -0.05605751  109.57374966
     atom    7 type  1   force =    -0.00116603    0.11133229  109.57457305
     atom    8 type  1   force =    -0.00196447   -0.00114321  109.81434962
     atom    9 type  1   force =     0.01216055   -0.06940381 -107.83468591
     atom   10 type  1   force =    -0.02018400   -0.00712705 -110.02296093
     atom   11 type  1   force =     0.04742415    0.02450991 -107.86679201
     atom   12 type  1   force =    -0.05746726    0.04438243 -107.83090832
     atom   13 type  1   force =     0.02025543    0.00397972 -319.09415036
     atom   14 type  1   force =    -0.02995471   -2.44359910 -323.96294776
     atom   15 type  1   force =    -2.11476037    1.19768366 -323.95719029
     atom   16 type  1   force =     2.15320682    1.25445758 -323.92156006
     atom   17 type  2   force =    -0.00026673   -0.00012862  -19.01135647
     The core correction contribution to forces
     atom    1 type  1   force =     0.00000982    0.00000430    0.00721166
     atom    2 type  1   force =     0.00000964    0.00004775    0.00702560
     atom    3 type  1   force =     0.00004666   -0.00001713    0.00702558
     atom    4 type  1   force =    -0.00003158   -0.00001929    0.00702752
     atom    5 type  1   force =    -0.00003704   -0.00002266   -0.00169325
     atom    6 type  1   force =     0.00005974   -0.00002291   -0.00169203
     atom    7 type  1   force =     0.00001129    0.00006050   -0.00169142
     atom    8 type  1   force =     0.00000908    0.00000403   -0.00205990
     atom    9 type  1   force =    -0.00000008    0.00000253    0.00176967
     atom   10 type  1   force =    -0.00000963   -0.00000355    0.00113916
     atom   11 type  1   force =    -0.00000304   -0.00000192    0.00176492
     atom   12 type  1   force =     0.00000269   -0.00000181    0.00177134
     atom   13 type  1   force =    -0.00001713   -0.00000956   -0.00649655
     atom   14 type  1   force =    -0.00002874   -0.00032718   -0.00641738
     atom   15 type  1   force =    -0.00030194    0.00014627   -0.00641630
     atom   16 type  1   force =     0.00023868    0.00014282   -0.00641796
     atom   17 type  2   force =     0.00000000    0.00000000    0.00000000
     The Hubbard contrib.    to forces
     atom    1 type  1   force =     0.00000000    0.00000000    0.00000000
     atom    2 type  1   force =     0.00000000    0.00000000    0.00000000
     atom    3 type  1   force =     0.00000000    0.00000000    0.00000000
     atom    4 type  1   force =     0.00000000    0.00000000    0.00000000
     atom    5 type  1   force =     0.00000000    0.00000000    0.00000000
     atom    6 type  1   force =     0.00000000    0.00000000    0.00000000
     atom    7 type  1   force =     0.00000000    0.00000000    0.00000000
     atom    8 type  1   force =     0.00000000    0.00000000    0.00000000
     atom    9 type  1   force =     0.00000000    0.00000000    0.00000000
     atom   10 type  1   force =     0.00000000    0.00000000    0.00000000
     atom   11 type  1   force =     0.00000000    0.00000000    0.00000000
     atom   12 type  1   force =     0.00000000    0.00000000    0.00000000
     atom   13 type  1   force =     0.00000000    0.00000000    0.00000000
     atom   14 type  1   force =     0.00000000    0.00000000    0.00000000
     atom   15 type  1   force =     0.00000000    0.00000000    0.00000000
     atom   16 type  1   force =     0.00000000    0.00000000    0.00000000
     atom   17 type  2   force =     0.00000000    0.00000000    0.00000000
     The SCF correction term to forces
     atom    1 type  1   force =    -0.00000000    0.00000000    0.00000000
     atom    2 type  1   force =     0.00000000    0.00000000    0.00000000
     atom    3 type  1   force =    -0.00000000   -0.00000000    0.00000000
     atom    4 type  1   force =     0.00000000   -0.00000000    0.00000000
     atom    5 type  1   force =    -0.00000000    0.00000000    0.00000000
     atom    6 type  1   force =     0.00000000   -0.00000000    0.00000000
     atom    7 type  1   force =    -0.00000000    0.00000000    0.00000000
     atom    8 type  1   force =     0.00000000   -0.00000000    0.00000000
     atom    9 type  1   force =    -0.00001348    0.00000587   -0.00022612
     atom   10 type  1   force =     0.00001127   -0.00000343   -0.00022002
     atom   11 type  1   force =    -0.00000678    0.00000536   -0.00023473
     atom   12 type  1   force =     0.00000565   -0.00000919   -0.00021910
     atom   13 type  1   force =    -0.00001130    0.00001888   -0.00034711
     atom   14 type  1   force =     0.00001043    0.00000148   -0.00030680
     atom   15 type  1   force =    -0.00001430   -0.00000560   -0.00032327
     atom   16 type  1   force =     0.00001153   -0.00001714   -0.00031601
     atom   17 type  2   force =     0.00000008    0.00000048    0.00038420

     Total force =     0.030044     Total SCF correction =     0.000878


     Computing stress (Cartesian axis) and pressure


     negative rho (up, down):  2.419E-04 2.830E-04
          total   stress  (Ry/bohr**3)                   (kbar)     P=      -27.37
  -0.00025877   0.00000011  -0.00000011          -38.07        0.02       -0.02
   0.00000011  -0.00025885  -0.00000005            0.02      -38.08       -0.01
  -0.00000011  -0.00000005  -0.00004058           -0.02       -0.01       -5.97

     kinetic stress (kbar)  30668.77      0.61      0.84
                                0.61  30668.23      0.37
                                0.84      0.37  31045.30

     local   stress (kbar)**********      6.95      6.09
                                6.95**********      2.68
                                6.09      2.681173603.01

     nonloc. stress (kbar)  -9890.66     -0.14     -0.18
                               -0.14  -9890.53     -0.08
                               -0.18     -0.08  -9981.67

     hartree stress (kbar) 583514.54     -2.50     -2.02
                               -2.50 583516.77     -0.89
                               -2.02     -0.89-570882.71

     exc-cor stress (kbar)   2257.01     -0.00     -0.00
                               -0.00   2257.01     -0.00
                               -0.00     -0.00   2248.16

     corecor stress (kbar)  -7101.25     -0.01     -0.01
                               -0.01  -7101.24     -0.01
                               -0.01     -0.01  -7106.54

     ewald   stress (kbar) 557361.13     -4.89     -4.72
                               -4.89 557365.52     -2.08
                               -4.72     -2.08-618931.52

     hubbard stress (kbar)      0.00      0.00      0.00
                                0.00      0.00      0.00
                                0.00      0.00      0.00

     DFT-D   stress (kbar)      0.00      0.00      0.00
                                0.00      0.00      0.00
                                0.00      0.00      0.00

     XDM     stress (kbar)      0.00      0.00      0.00
                                0.00      0.00      0.00
                                0.00      0.00      0.00

     dft-nl  stress (kbar)      0.00      0.00      0.00
                                0.00      0.00      0.00
                                0.00      0.00      0.00

     TS-vdW  stress (kbar)      0.00      0.00      0.00
                                0.00      0.00      0.00
                                0.00      0.00      0.00

     MDB     stress (kbar)      0.00      0.00      0.00
                                0.00      0.00      0.00
                                0.00      0.00      0.00

     3D-RISM stress (kbar)      0.00      0.00      0.00
                                0.00      0.00      0.00
                                0.00      0.00      0.00


     Writing all to output data dir ./output/pt-h-6.save/ :
     XML data file, charge density, pseudopotentials, collected wavefunctions

     init_run     :     76.75s CPU     77.47s WALL (       1 calls)
     electrons    :   5248.71s CPU   5296.18s WALL (       1 calls)
     forces       :     34.25s CPU     34.41s WALL (       1 calls)
     stress       :    112.14s CPU    112.51s WALL (       1 calls)

     Called by init_run:
     wfcinit      :     72.75s CPU     73.23s WALL (       1 calls)
     wfcinit:atom :      0.52s CPU      0.52s WALL (      68 calls)
     wfcinit:wfcr :     70.66s CPU     71.12s WALL (      68 calls)
     potinit      :      2.37s CPU      2.47s WALL (       1 calls)
     hinit0       :      0.31s CPU      0.32s WALL (       1 calls)

     Called by electrons:
     c_bands      :   4734.94s CPU   4775.63s WALL (      20 calls)
     sum_band     :    444.94s CPU    450.06s WALL (      20 calls)
     v_of_rho     :     15.61s CPU     15.74s WALL (      20 calls)
     v_h          :      0.41s CPU      0.42s WALL (      20 calls)
     v_xc         :     16.71s CPU     16.86s WALL (      22 calls)
     newd         :     14.66s CPU     15.87s WALL (      20 calls)
     PAW_pot      :     28.99s CPU     29.09s WALL (      20 calls)
     mix_rho      :     11.37s CPU     11.48s WALL (      20 calls)

     Called by c_bands:
     init_us_2    :     41.32s CPU     41.56s WALL (    2924 calls)
     cegterg      :   4650.37s CPU   4690.08s WALL (    1360 calls)

     Called by sum_band:
     sum_band:wei :      0.34s CPU      0.34s WALL (      20 calls)
     sum_band:loo :    417.04s CPU    419.88s WALL (      20 calls)
     sum_band:buf :      7.94s CPU      8.37s WALL (    1360 calls)
     sum_band:ini :     19.05s CPU     19.17s WALL (    1360 calls)
     sum_band:cal :    126.78s CPU    127.07s WALL (    1360 calls)
     sum_band:bec :      1.21s CPU      1.22s WALL (    1360 calls)
     addusdens    :     26.56s CPU     28.82s WALL (      20 calls)
                                        0.00s GPU  (      20 calls)
     addusd:skk   :      0.20s CPU      0.37s WALL (      40 calls)
                                        0.00s GPU  (      40 calls)

     Called by *egterg:
     cdiaghg      :    780.33s CPU    781.58s WALL (    9681 calls)
     cegterg:over :    375.98s CPU    376.71s WALL (    8389 calls)
     cegterg:upda :    239.26s CPU    242.87s WALL (    8389 calls)
     cegterg:last :    554.06s CPU    555.31s WALL (    2654 calls)
     cdiaghg:chol :     22.51s CPU     22.62s WALL (    9681 calls)
     cdiaghg:inve :     11.82s CPU     11.87s WALL (    9681 calls)
     cdiaghg:para :    138.30s CPU    138.58s WALL (   19362 calls)
     h_psi        :   2303.66s CPU   2323.36s WALL (    9817 calls)
     s_psi        :    287.91s CPU    288.51s WALL (    9817 calls)
     g_psi        :      9.23s CPU      9.27s WALL (    8389 calls)

     Called by h_psi:
     h_psi:calbec :    310.51s CPU    311.20s WALL (    9817 calls)
     vloc_psi     :   1689.43s CPU   1701.34s WALL (    9817 calls)
     add_vuspsi   :    292.28s CPU    292.87s WALL (    9817 calls)

     General routines
     calbec       :    552.34s CPU    553.51s WALL (   12333 calls)
     fft          :      7.10s CPU      7.15s WALL (     540 calls)
     ffts         :      4.56s CPU      4.59s WALL (    2294 calls)
     fftw         :   1387.50s CPU   1396.56s WALL ( 1282418 calls)
     interpolate  :      0.69s CPU      0.69s WALL (      40 calls)

     Parallel routines

     PAW routines
     PAW_pot      :     28.99s CPU     29.09s WALL (      20 calls)

     PWSCF        :      1h31m CPU      1h32m WALL


   This run was terminated on:  21:49:43   1Jun2026            

=------------------------------------------------------------------------------=
   JOB DONE.
=------------------------------------------------------------------------------=
