
     Program PWSCF v.7.4.1 starts on  9Jun2026 at  9: 7:12 

     This program is part of the open-source Quantum ESPRESSO suite
     for quantum simulation of materials; please cite
         "P. Giannozzi et al., J. Phys.:Condens. Matter 21 395502 (2009);
         "P. Giannozzi et al., J. Phys.:Condens. Matter 29 465901 (2017);
         "P. Giannozzi et al., J. Chem. Phys. 152 154105 (2020);
          URL http://www.quantum-espresso.org", 
     in publications or presentations arising from this work. More details at
     http://www.quantum-espresso.org/quote

     Parallel version (MPI), running on    20 processors

     MPI processes distributed on     1 nodes
     423605 MiB available memory on the printing compute node when the environment starts

     Reading input from pt-o-4.4A.in

     Current dimensions of program PWSCF are:
     Max number of different atomic species (ntypx) = 10
     Max number of k-points (npk) =  40000
     Max angular momentum in pseudopotentials (lmaxx) =  4
     Presently stress not available with electric field and gates

     file Pt.pbe-spn-kjpaw_psl.1.0.0.UPF: wavefunction(s)  5P 5D renormalized
     file O.pbe-n-kjpaw_psl.1.0.0.UPF: wavefunction(s)  2S 2P renormalized

     IMPORTANT: XC functional enforced from input :
     Exchange-correlation= RPBE
                           (   1   4  44   4   0   0   0)
     Any further DFT definition will be discarded
     Please, verify this is what you really want


     R & G space division:  proc/nbgrp/npool/nimage =      20
     Subspace diagonalization in iterative solution of the eigenvalue problem:
     one sub-group per band group will be used
     custom distributed-memory algorithm (size of sub-group:  4*  4 procs)


     Parallelization info
     --------------------
     sticks:   dense  smooth     PW     G-vecs:    dense   smooth      PW
     Min         528     211     57               139422    35261    4999
     Max         529     212     59               139436    35272    5008
     Sum       10561    4231   1159              2788561   705305  100061

     Using Slab Decomposition



     bravais-lattice index     =            0
     lattice parameter (alat)  =      15.9739  a.u.
     unit-cell volume          =   11233.9610 (a.u.)^3
     number of atoms/cell      =           37
     number of atomic types    =            2
     number of electrons       =       654.00
     number of Kohn-Sham states=          392
     kinetic-energy cutoff     =      60.0000  Ry
     charge density cutoff     =     600.0000  Ry
     scf convergence threshold =      1.0E-06
     mixing beta               =       0.7000
     number of iterations used =           12  local-TF  mixing
     Exchange-correlation= RPBE
                           (   1   4  44   4   0   0   0)

     celldm(1)=  15.973885  celldm(2)=   0.000000  celldm(3)=   0.000000
     celldm(4)=   0.000000  celldm(5)=   0.000000  celldm(6)=   0.000000

     crystal axes: (cart. coord. in units of alat)
               a(1) = (   1.000000   0.000000   0.000000 )  
               a(2) = (   0.500000   0.866025   0.000000 )  
               a(3) = (   0.000000   0.000000   3.182516 )  

     reciprocal axes: (cart. coord. in units 2 pi/alat)
               b(1) = (  1.000000 -0.577350  0.000000 )  
               b(2) = (  0.000000  1.154701  0.000000 )  
               b(3) = (  0.000000  0.000000  0.314217 )  


     PseudoPot. # 1 for Pt read from file:
     ./pseudo/Pt.pbe-spn-kjpaw_psl.1.0.0.UPF
     MD5 check sum: f62f2ab5688b80eb25add38ff45b0645
     Pseudo is Projector augmented-wave + core cor, Zval = 18.0
     Generated using &quot;atomic&quot; code by A. Dal Corso  v.6.3
     Shape of augmentation charge: PSQ
     Using radial grid of 1277 points,  6 beta functions with: 
                l(1) =   0
                l(2) =   0
                l(3) =   1
                l(4) =   1
                l(5) =   2
                l(6) =   2
     Q(r) pseudized with 0 coefficients 


     PseudoPot. # 2 for O  read from file:
     ./pseudo/O.pbe-n-kjpaw_psl.1.0.0.UPF
     MD5 check sum: 9aa21d4642c1c2a0b5c883e051f79e44
     Pseudo is Projector augmented-wave + core cor, Zval =  6.0
     Generated using &quot;atomic&quot; code by A. Dal Corso  v.6.3
     Shape of augmentation charge: PSQ
     Using radial grid of 1095 points,  4 beta functions with: 
                l(1) =   0
                l(2) =   0
                l(3) =   1
                l(4) =   1
     Q(r) pseudized with 0 coefficients 


     atomic species   valence    mass     pseudopotential
     Pt               18.00   195.08000     Pt( 1.00)
     O                 6.00    15.99900     O ( 1.00)

     Starting magnetic structure 
     atomic species   magnetization
     Pt              0.000
     O               0.167

     No symmetry found


                                    s                        frac. trans.

      isym =  1     identity                                     

 cryst.   s( 1) = (     1          0          0      )
                  (     0          1          0      )
                  (     0          0          1      )

 cart.    s( 1) = (  1.0000000  0.0000000  0.0000000 )
                  (  0.0000000  1.0000000  0.0000000 )
                  (  0.0000000  0.0000000  1.0000000 )


   Cartesian axes

     site n.     atom                  positions (alat units)
         1        Pt     tau(   1) = (   0.0000000   0.0000000   0.2366019  )
         2        Pt     tau(   2) = (   0.3333333   0.0000000   0.2366019  )
         3        Pt     tau(   3) = (   0.6666667   0.0000000   0.2366019  )
         4        Pt     tau(   4) = (   0.1666667   0.2886751   0.2366019  )
         5        Pt     tau(   5) = (   0.5000000   0.2886751   0.2366019  )
         6        Pt     tau(   6) = (   0.8333333   0.2886751   0.2366019  )
         7        Pt     tau(   7) = (   0.3333333   0.5773503   0.2366019  )
         8        Pt     tau(   8) = (   0.6666667   0.5773503   0.2366019  )
         9        Pt     tau(   9) = (   1.0000000   0.5773503   0.2366019  )
        10        Pt     tau(  10) = (   0.1666667   0.0962250   0.5087675  )
        11        Pt     tau(  11) = (   0.5000000   0.0962250   0.5087675  )
        12        Pt     tau(  12) = (   0.8333333   0.0962250   0.5087675  )
        13        Pt     tau(  13) = (   0.3333333   0.3849002   0.5087675  )
        14        Pt     tau(  14) = (   0.6666667   0.3849002   0.5087675  )
        15        Pt     tau(  15) = (   1.0000000   0.3849002   0.5087675  )
        16        Pt     tau(  16) = (   0.5000000   0.6735753   0.5087675  )
        17        Pt     tau(  17) = (   0.8333333   0.6735753   0.5087675  )
        18        Pt     tau(  18) = (   1.1666667   0.6735753   0.5087675  )
        19        Pt     tau(  19) = (  -0.0009359   0.1939773   0.7797341  )
        20        Pt     tau(  20) = (   0.3342811   0.1939797   0.7797400  )
        21        Pt     tau(  21) = (   0.6666698   0.1927223   0.7818215  )
        22        Pt     tau(  22) = (   0.1666723   0.4815496   0.7765130  )
        23        Pt     tau(  23) = (   0.4995880   0.4800739   0.7796991  )
        24        Pt     tau(  24) = (   0.8337578   0.4800763   0.7796924  )
        25        Pt     tau(  25) = (   0.3318220   0.7704796   0.7799570  )
        26        Pt     tau(  26) = (   0.6666729   0.7701750   0.7746330  )
        27        Pt     tau(  27) = (   1.0015233   0.7704771   0.7799565  )
        28        Pt     tau(  28) = (   0.0025323  -0.0008167   1.0509928  )
        29        Pt     tau(  29) = (   0.3308207  -0.0008161   1.0509913  )
        30        Pt     tau(  30) = (   0.6666770  -0.0089227   1.0664244  )
        31        Pt     tau(  31) = (   0.1666822   0.2891436   1.0515803  )
        32        Pt     tau(  32) = (   0.4916503   0.2940997   1.0660716  )
        33        Pt     tau(  33) = (   0.8417051   0.2941009   1.0660670  )
        34        Pt     tau(  34) = (   0.3335135   0.5781048   1.0514827  )
        35        Pt     tau(  35) = (   0.6666759   0.5811172   1.0510875  )
        36        Pt     tau(  36) = (   0.9998420   0.5781091   1.0514850  )
        37        O      tau(  37) = (   0.6666775   0.1930926   1.5867119  )

     Fixed atoms
     site n.  direction
         1    0   0   0
         2    0   0   0
         3    0   0   0
         4    0   0   0
         5    0   0   0
         6    0   0   0
         7    0   0   0
         8    0   0   0
         9    0   0   0
        10    0   0   0
        11    0   0   0
        12    0   0   0
        13    0   0   0
        14    0   0   0
        15    0   0   0
        16    0   0   0
        17    0   0   0
        18    0   0   0
        19    1   1   1
        20    1   1   1
        21    1   1   1
        22    1   1   1
        23    1   1   1
        24    1   1   1
        25    1   1   1
        26    1   1   1
        27    1   1   1
        28    1   1   1
        29    1   1   1
        30    1   1   1
        31    1   1   1
        32    1   1   1
        33    1   1   1
        34    1   1   1
        35    1   1   1
        36    1   1   1
        37    1   1   1

   Crystallographic axes

     site n.     atom                  positions (cryst. coord.)
         1        Pt     tau(   1) = (  0.0000000  0.0000000  0.0743443  )
         2        Pt     tau(   2) = (  0.3333333  0.0000000  0.0743443  )
         3        Pt     tau(   3) = (  0.6666667  0.0000000  0.0743443  )
         4        Pt     tau(   4) = (  0.0000000  0.3333333  0.0743443  )
         5        Pt     tau(   5) = (  0.3333333  0.3333333  0.0743443  )
         6        Pt     tau(   6) = (  0.6666667  0.3333333  0.0743443  )
         7        Pt     tau(   7) = ( -0.0000000  0.6666667  0.0743443  )
         8        Pt     tau(   8) = (  0.3333333  0.6666667  0.0743443  )
         9        Pt     tau(   9) = (  0.6666667  0.6666667  0.0743443  )
        10        Pt     tau(  10) = (  0.1111111  0.1111111  0.1598633  )
        11        Pt     tau(  11) = (  0.4444444  0.1111111  0.1598633  )
        12        Pt     tau(  12) = (  0.7777778  0.1111111  0.1598633  )
        13        Pt     tau(  13) = (  0.1111111  0.4444444  0.1598633  )
        14        Pt     tau(  14) = (  0.4444444  0.4444444  0.1598633  )
        15        Pt     tau(  15) = (  0.7777778  0.4444444  0.1598633  )
        16        Pt     tau(  16) = (  0.1111111  0.7777778  0.1598633  )
        17        Pt     tau(  17) = (  0.4444444  0.7777778  0.1598633  )
        18        Pt     tau(  18) = (  0.7777778  0.7777778  0.1598633  )
        19        Pt     tau(  19) = ( -0.1129288  0.2239857  0.2450056  )
        20        Pt     tau(  20) = (  0.2222869  0.2239884  0.2450074  )
        21        Pt     tau(  21) = (  0.5554015  0.2225365  0.2456615  )
        22        Pt     tau(  22) = ( -0.1113505  0.5560455  0.2439934  )
        23        Pt     tau(  23) = (  0.2224172  0.5543415  0.2449946  )
        24        Pt     tau(  24) = (  0.5565855  0.5543444  0.2449925  )
        25        Pt     tau(  25) = ( -0.1130146  0.8896732  0.2450756  )
        26        Pt     tau(  26) = (  0.2220122  0.8893215  0.2434027  )
        27        Pt     tau(  27) = (  0.5566882  0.8896703  0.2450754  )
        28        Pt     tau(  28) = (  0.0030038 -0.0009431  0.3302396  )
        29        Pt     tau(  29) = (  0.3312919 -0.0009424  0.3302391  )
        30        Pt     tau(  30) = (  0.6718285 -0.0103030  0.3350885  )
        31        Pt     tau(  31) = ( -0.0002549  0.3338743  0.3304242  )
        32        Pt     tau(  32) = (  0.3218517  0.3395971  0.3349776  )
        33        Pt     tau(  33) = (  0.6719059  0.3395984  0.3349762  )
        34        Pt     tau(  34) = ( -0.0002555  0.6675379  0.3303935  )
        35        Pt     tau(  35) = (  0.3311678  0.6710163  0.3302694  )
        36        Pt     tau(  36) = (  0.6660705  0.6675429  0.3303943  )
        37        O      tau(  37) = (  0.5551954  0.2229642  0.4985715  )

     number of k points=    20  Fermi-Dirac smearing, width (Ry)=  0.0037
                       cart. coord. in units 2pi/alat
        k(    1) = (   0.0000000   0.0000000   0.0000000), wk =   0.0277778
        k(    2) = (   0.0000000   0.1924501   0.0000000), wk =   0.0555556
        k(    3) = (   0.0000000   0.3849002   0.0000000), wk =   0.0555556
        k(    4) = (   0.0000000  -0.5773503   0.0000000), wk =   0.0277778
        k(    5) = (   0.1666667  -0.0962250   0.0000000), wk =   0.0555556
        k(    6) = (   0.1666667   0.0962250   0.0000000), wk =   0.0555556
        k(    7) = (   0.1666667   0.2886751   0.0000000), wk =   0.0555556
        k(    8) = (   0.1666667  -0.6735753   0.0000000), wk =   0.0555556
        k(    9) = (   0.1666667  -0.4811252   0.0000000), wk =   0.0555556
        k(   10) = (   0.1666667  -0.2886751   0.0000000), wk =   0.0555556
        k(   11) = (   0.3333333  -0.1924501   0.0000000), wk =   0.0555556
        k(   12) = (   0.3333333   0.0000000   0.0000000), wk =   0.0555556
        k(   13) = (   0.3333333   0.1924501   0.0000000), wk =   0.0555556
        k(   14) = (   0.3333333  -0.7698004   0.0000000), wk =   0.0555556
        k(   15) = (   0.3333333  -0.5773503   0.0000000), wk =   0.0555556
        k(   16) = (   0.3333333  -0.3849002   0.0000000), wk =   0.0555556
        k(   17) = (  -0.5000000   0.2886751   0.0000000), wk =   0.0277778
        k(   18) = (  -0.5000000   0.4811252   0.0000000), wk =   0.0555556
        k(   19) = (  -0.5000000   0.6735753   0.0000000), wk =   0.0555556
        k(   20) = (  -0.5000000  -0.2886751   0.0000000), wk =   0.0277778

                       cryst. coord.
        k(    1) = (   0.0000000   0.0000000   0.0000000), wk =   0.0277778
        k(    2) = (   0.0000000   0.1666667   0.0000000), wk =   0.0555556
        k(    3) = (   0.0000000   0.3333333   0.0000000), wk =   0.0555556
        k(    4) = (   0.0000000  -0.5000000   0.0000000), wk =   0.0277778
        k(    5) = (   0.1666667  -0.0000000   0.0000000), wk =   0.0555556
        k(    6) = (   0.1666667   0.1666667   0.0000000), wk =   0.0555556
        k(    7) = (   0.1666667   0.3333333   0.0000000), wk =   0.0555556
        k(    8) = (   0.1666667  -0.5000000   0.0000000), wk =   0.0555556
        k(    9) = (   0.1666667  -0.3333333   0.0000000), wk =   0.0555556
        k(   10) = (   0.1666667  -0.1666667   0.0000000), wk =   0.0555556
        k(   11) = (   0.3333333  -0.0000000   0.0000000), wk =   0.0555556
        k(   12) = (   0.3333333   0.1666667   0.0000000), wk =   0.0555556
        k(   13) = (   0.3333333   0.3333333   0.0000000), wk =   0.0555556
        k(   14) = (   0.3333333  -0.5000000   0.0000000), wk =   0.0555556
        k(   15) = (   0.3333333  -0.3333333   0.0000000), wk =   0.0555556
        k(   16) = (   0.3333333  -0.1666667   0.0000000), wk =   0.0555556
        k(   17) = (  -0.5000000   0.0000000   0.0000000), wk =   0.0277778
        k(   18) = (  -0.5000000   0.1666667   0.0000000), wk =   0.0555556
        k(   19) = (  -0.5000000   0.3333333   0.0000000), wk =   0.0555556
        k(   20) = (  -0.5000000  -0.5000000   0.0000000), wk =   0.0277778

     Dense  grid:  2788561 G-vectors     FFT dimensions: ( 125, 125, 400)

     Smooth grid:   705305 G-vectors     FFT dimensions: (  80,  80, 256)

     Dynamical RAM for                 wfc:      26.37 MB

     Dynamical RAM for     wfc (w. buffer):    1081.01 MB

     Dynamical RAM for           str. fact:       4.25 MB

     Dynamical RAM for           local pot:       0.00 MB

     Dynamical RAM for          nlocal pot:      44.12 MB

     Dynamical RAM for                qrad:       3.93 MB

     Dynamical RAM for          rho,v,vnew:      27.07 MB

     Dynamical RAM for               rhoin:       9.02 MB

     Dynamical RAM for            rho*nmix:     102.12 MB

     Dynamical RAM for           G-vectors:       8.25 MB

     Dynamical RAM for          h,s,v(r/c):       1.76 MB

     Dynamical RAM for          <psi|beta>:       3.92 MB

     Dynamical RAM for                 psi:      52.73 MB

     Dynamical RAM for                hpsi:      52.73 MB

     Dynamical RAM for                spsi:      52.73 MB

     Dynamical RAM for      wfcinit/wfcrot:      56.25 MB

     Dynamical RAM for           addusdens:     474.41 MB

     Dynamical RAM for          addusforce:     623.61 MB

     Estimated static dynamical RAM per process >       1.17 GB

     Estimated max dynamical RAM per process >       1.88 GB

     Estimated total dynamical RAM >      37.58 GB
     Generating pointlists ...
     new r_m :   0.1342 (alat units)  2.1437 (a.u.) for type    1
     new r_m :   0.2302 (alat units)  3.6776 (a.u.) for type    2

     Initial potential from superposition of free atoms

     starting charge     653.9952, renormalised to     654.0000

     negative rho (up, down):  2.333E-04 2.318E-04

     Adding external electric field

     Computed dipole along edir(3) : 
        Elec. dipole        -10.0205 Ry au,        -25.4696 Debye
        Ion. dipole         -10.0252 Ry au,        -25.4815 Debye
        Dipole               -4.1982 Ry au,        -10.6707 Debye
        Dipole field         -0.0047 Ry au, 

        Potential amp.        0.4536 Ry
        Total length         48.2953 bohr


     Adding external electric field

     Computed dipole along edir(3) : 
        Elec. dipole        -10.0205 Ry au,        -25.4696 Debye
        Ion. dipole         -10.0252 Ry au,        -25.4815 Debye
        Dipole               -4.1982 Ry au,        -10.6707 Debye
        Dipole field         -0.0047 Ry au, 

        Potential amp.        0.4536 Ry
        Total length         48.2953 bohr

     Starting wfcs are  364 randomized atomic wfcs +   28 random wfcs
     Checking if some PAW data can be deallocated... 
       PAW data deallocated on    1 nodes for type:  1
       PAW data deallocated on   19 nodes for type:  2

     total cpu time spent up to now is      354.9 secs

     per-process dynamical memory:  1260.3 Mb

     Self-consistent Calculation

     iteration #  1     ecut=    60.00 Ry     beta= 0.70
     Davidson diagonalization with overlap

---- Real-time Memory Report at c_bands before calling an iterative solver
          1276 MiB given to the printing process from OS
          1236 MiB allocation reported by mallinfo(arena+hblkhd)
        399479 MiB available memory on the node where the printing process lives
------------------
     ethr =  1.00E-02,  avg # of iterations =  4.0

     negative rho (up, down):  2.871E-06 2.830E-06

     Adding external electric field

     Computed dipole along edir(3) : 
        Elec. dipole        -10.0210 Ry au,        -25.4708 Debye
        Ion. dipole         -10.0252 Ry au,        -25.4815 Debye
        Dipole               -3.7688 Ry au,         -9.5793 Debye
        Dipole field         -0.0042 Ry au, 

        Potential amp.        0.4072 Ry
        Total length         48.2953 bohr


     Adding external electric field

     Computed dipole along edir(3) : 
        Elec. dipole        -10.0210 Ry au,        -25.4708 Debye
        Ion. dipole         -10.0252 Ry au,        -25.4815 Debye
        Dipole               -3.7688 Ry au,         -9.5793 Debye
        Dipole field         -0.0042 Ry au, 

        Potential amp.        0.4072 Ry
        Total length         48.2953 bohr


     total cpu time spent up to now is     1746.8 secs

     total energy              =  -33080.20778322 Ry
     estimated scf accuracy    <      79.31388615 Ry

     total magnetization       =     2.99 Bohr mag/cell
     absolute magnetization    =     3.01 Bohr mag/cell

     iteration #  2     ecut=    60.00 Ry     beta= 0.70
     Davidson diagonalization with overlap

---- Real-time Memory Report at c_bands before calling an iterative solver
          1768 MiB given to the printing process from OS
          1313 MiB allocation reported by mallinfo(arena+hblkhd)
        397714 MiB available memory on the node where the printing process lives
------------------
     ethr =  1.00E-02,  avg # of iterations =  1.0

     negative rho (up, down):  1.954E-06 4.148E-06

     Adding external electric field

     Computed dipole along edir(3) : 
        Elec. dipole        -10.0204 Ry au,        -25.4694 Debye
        Ion. dipole         -10.0252 Ry au,        -25.4815 Debye
        Dipole               -4.2593 Ry au,        -10.8262 Debye
        Dipole field         -0.0048 Ry au, 

        Potential amp.        0.4602 Ry
        Total length         48.2953 bohr


     Adding external electric field

     Computed dipole along edir(3) : 
        Elec. dipole        -10.0204 Ry au,        -25.4694 Debye
        Ion. dipole         -10.0252 Ry au,        -25.4815 Debye
        Dipole               -4.2593 Ry au,        -10.8262 Debye
        Dipole field         -0.0048 Ry au, 

        Potential amp.        0.4602 Ry
        Total length         48.2953 bohr


     total cpu time spent up to now is     2662.8 secs

     total energy              =  -33080.72509762 Ry
     estimated scf accuracy    <      75.22498748 Ry

     total magnetization       =    -0.00 Bohr mag/cell
     absolute magnetization    =     0.23 Bohr mag/cell

     iteration #  3     ecut=    60.00 Ry     beta= 0.70
     Davidson diagonalization with overlap

---- Real-time Memory Report at c_bands before calling an iterative solver
          1770 MiB given to the printing process from OS
          1315 MiB allocation reported by mallinfo(arena+hblkhd)
        397649 MiB available memory on the node where the printing process lives
------------------
     ethr =  1.00E-02,  avg # of iterations =  1.0

     negative rho (up, down):  1.416E-06 1.832E-06

     Adding external electric field

     Computed dipole along edir(3) : 
        Elec. dipole        -10.0207 Ry au,        -25.4700 Debye
        Ion. dipole         -10.0252 Ry au,        -25.4815 Debye
        Dipole               -4.0647 Ry au,        -10.3315 Debye
        Dipole field         -0.0045 Ry au, 

        Potential amp.        0.4392 Ry
        Total length         48.2953 bohr


     Adding external electric field

     Computed dipole along edir(3) : 
        Elec. dipole        -10.0207 Ry au,        -25.4700 Debye
        Ion. dipole         -10.0252 Ry au,        -25.4815 Debye
        Dipole               -4.0647 Ry au,        -10.3315 Debye
        Dipole field         -0.0045 Ry au, 

        Potential amp.        0.4392 Ry
        Total length         48.2953 bohr


     total cpu time spent up to now is     3579.6 secs

     total energy              =  -33081.87877160 Ry
     estimated scf accuracy    <      13.63899293 Ry

     total magnetization       =     3.00 Bohr mag/cell
     absolute magnetization    =     3.01 Bohr mag/cell

     iteration #  4     ecut=    60.00 Ry     beta= 0.70
     Davidson diagonalization with overlap

---- Real-time Memory Report at c_bands before calling an iterative solver
          1773 MiB given to the printing process from OS
          1318 MiB allocation reported by mallinfo(arena+hblkhd)
        397679 MiB available memory on the node where the printing process lives
------------------
     ethr =  2.09E-03,  avg # of iterations =  1.1

     negative rho (up, down):  1.820E-06 2.858E-06

     Adding external electric field

     Computed dipole along edir(3) : 
        Elec. dipole        -10.0207 Ry au,        -25.4701 Debye
        Ion. dipole         -10.0252 Ry au,        -25.4815 Debye
        Dipole               -4.0270 Ry au,        -10.2357 Debye
        Dipole field         -0.0045 Ry au, 

        Potential amp.        0.4351 Ry
        Total length         48.2953 bohr


     Adding external electric field

     Computed dipole along edir(3) : 
        Elec. dipole        -10.0207 Ry au,        -25.4701 Debye
        Ion. dipole         -10.0252 Ry au,        -25.4815 Debye
        Dipole               -4.0270 Ry au,        -10.2357 Debye
        Dipole field         -0.0045 Ry au, 

        Potential amp.        0.4351 Ry
        Total length         48.2953 bohr


     total cpu time spent up to now is     4507.7 secs

     total energy              =  -33081.88438230 Ry
     estimated scf accuracy    <       6.18100838 Ry

     total magnetization       =     3.00 Bohr mag/cell
     absolute magnetization    =     3.01 Bohr mag/cell

     iteration #  5     ecut=    60.00 Ry     beta= 0.70
     Davidson diagonalization with overlap

---- Real-time Memory Report at c_bands before calling an iterative solver
          1776 MiB given to the printing process from OS
          1320 MiB allocation reported by mallinfo(arena+hblkhd)
        397657 MiB available memory on the node where the printing process lives
------------------
     ethr =  9.45E-04,  avg # of iterations =  1.5

     negative rho (up, down):  3.497E-06 3.328E-06

     Adding external electric field

     Computed dipole along edir(3) : 
        Elec. dipole        -10.0210 Ry au,        -25.4708 Debye
        Ion. dipole         -10.0252 Ry au,        -25.4815 Debye
        Dipole               -3.7813 Ry au,         -9.6110 Debye
        Dipole field         -0.0042 Ry au, 

        Potential amp.        0.4086 Ry
        Total length         48.2953 bohr


     Adding external electric field

     Computed dipole along edir(3) : 
        Elec. dipole        -10.0210 Ry au,        -25.4708 Debye
        Ion. dipole         -10.0252 Ry au,        -25.4815 Debye
        Dipole               -3.7813 Ry au,         -9.6110 Debye
        Dipole field         -0.0042 Ry au, 

        Potential amp.        0.4086 Ry
        Total length         48.2953 bohr


     total cpu time spent up to now is     5475.3 secs

     total energy              =  -33081.70444165 Ry
     estimated scf accuracy    <       5.74336203 Ry

     total magnetization       =     2.99 Bohr mag/cell
     absolute magnetization    =     3.00 Bohr mag/cell

     iteration #  6     ecut=    60.00 Ry     beta= 0.70
     Davidson diagonalization with overlap

---- Real-time Memory Report at c_bands before calling an iterative solver
          1777 MiB given to the printing process from OS
          1322 MiB allocation reported by mallinfo(arena+hblkhd)
        397497 MiB available memory on the node where the printing process lives
------------------
     ethr =  8.78E-04,  avg # of iterations =  2.8

     negative rho (up, down):  4.267E-07 5.827E-07

     Adding external electric field

     Computed dipole along edir(3) : 
        Elec. dipole        -10.0211 Ry au,        -25.4712 Debye
        Ion. dipole         -10.0252 Ry au,        -25.4815 Debye
        Dipole               -3.6430 Ry au,         -9.2595 Debye
        Dipole field         -0.0041 Ry au, 

        Potential amp.        0.3936 Ry
        Total length         48.2953 bohr


     Adding external electric field

     Computed dipole along edir(3) : 
        Elec. dipole        -10.0211 Ry au,        -25.4712 Debye
        Ion. dipole         -10.0252 Ry au,        -25.4815 Debye
        Dipole               -3.6430 Ry au,         -9.2595 Debye
        Dipole field         -0.0041 Ry au, 

        Potential amp.        0.3936 Ry
        Total length         48.2953 bohr


     total cpu time spent up to now is     6524.9 secs

     total energy              =  -33081.77146086 Ry
     estimated scf accuracy    <       4.35222751 Ry

     total magnetization       =     0.00 Bohr mag/cell
     absolute magnetization    =     0.36 Bohr mag/cell

     iteration #  7     ecut=    60.00 Ry     beta= 0.70
     Davidson diagonalization with overlap

---- Real-time Memory Report at c_bands before calling an iterative solver
          1787 MiB given to the printing process from OS
          1325 MiB allocation reported by mallinfo(arena+hblkhd)
        397471 MiB available memory on the node where the printing process lives
------------------
     ethr =  6.65E-04,  avg # of iterations =  2.4

     negative rho (up, down):  1.712E-07 1.912E-07

     Adding external electric field

     Computed dipole along edir(3) : 
        Elec. dipole        -10.0211 Ry au,        -25.4710 Debye
        Ion. dipole         -10.0252 Ry au,        -25.4815 Debye
        Dipole               -3.6946 Ry au,         -9.3909 Debye
        Dipole field         -0.0041 Ry au, 

        Potential amp.        0.3992 Ry
        Total length         48.2953 bohr


     Adding external electric field

     Computed dipole along edir(3) : 
        Elec. dipole        -10.0211 Ry au,        -25.4710 Debye
        Ion. dipole         -10.0252 Ry au,        -25.4815 Debye
        Dipole               -3.6946 Ry au,         -9.3909 Debye
        Dipole field         -0.0041 Ry au, 

        Potential amp.        0.3992 Ry
        Total length         48.2953 bohr


     total cpu time spent up to now is     7581.8 secs

     total energy              =  -33081.84654847 Ry
     estimated scf accuracy    <       0.85511755 Ry

     total magnetization       =     2.55 Bohr mag/cell
     absolute magnetization    =     2.57 Bohr mag/cell

     iteration #  8     ecut=    60.00 Ry     beta= 0.70
     Davidson diagonalization with overlap

---- Real-time Memory Report at c_bands before calling an iterative solver
          1790 MiB given to the printing process from OS
          1327 MiB allocation reported by mallinfo(arena+hblkhd)
        397482 MiB available memory on the node where the printing process lives
------------------
     c_bands:  3 eigenvalues not converged
     ethr =  1.31E-04,  avg # of iterations =  8.7

     negative rho (up, down):  4.867E-07 5.932E-07

     Adding external electric field

     Computed dipole along edir(3) : 
        Elec. dipole        -10.0212 Ry au,        -25.4714 Debye
        Ion. dipole         -10.0252 Ry au,        -25.4815 Debye
        Dipole               -3.5739 Ry au,         -9.0838 Debye
        Dipole field         -0.0040 Ry au, 

        Potential amp.        0.3861 Ry
        Total length         48.2953 bohr


     Adding external electric field

     Computed dipole along edir(3) : 
        Elec. dipole        -10.0212 Ry au,        -25.4714 Debye
        Ion. dipole         -10.0252 Ry au,        -25.4815 Debye
        Dipole               -3.5739 Ry au,         -9.0838 Debye
        Dipole field         -0.0040 Ry au, 

        Potential amp.        0.3861 Ry
        Total length         48.2953 bohr


     total cpu time spent up to now is     8731.3 secs

     total energy              =  -33081.86402182 Ry
     estimated scf accuracy    <       2.05007388 Ry

     total magnetization       =     3.00 Bohr mag/cell
     absolute magnetization    =     3.01 Bohr mag/cell

     iteration #  9     ecut=    60.00 Ry     beta= 0.70
     Davidson diagonalization with overlap

---- Real-time Memory Report at c_bands before calling an iterative solver
          1792 MiB given to the printing process from OS
          1329 MiB allocation reported by mallinfo(arena+hblkhd)
        397433 MiB available memory on the node where the printing process lives
------------------
     ethr =  1.31E-04,  avg # of iterations =  1.9

     negative rho (up, down):  9.106E-07 1.069E-06

     Adding external electric field

     Computed dipole along edir(3) : 
        Elec. dipole        -10.0215 Ry au,        -25.4722 Debye
        Ion. dipole         -10.0252 Ry au,        -25.4815 Debye
        Dipole               -3.2837 Ry au,         -8.3464 Debye
        Dipole field         -0.0037 Ry au, 

        Potential amp.        0.3548 Ry
        Total length         48.2953 bohr


     Adding external electric field

     Computed dipole along edir(3) : 
        Elec. dipole        -10.0215 Ry au,        -25.4722 Debye
        Ion. dipole         -10.0252 Ry au,        -25.4815 Debye
        Dipole               -3.2837 Ry au,         -8.3464 Debye
        Dipole field         -0.0037 Ry au, 

        Potential amp.        0.3548 Ry
        Total length         48.2953 bohr


     total cpu time spent up to now is     9757.0 secs

     total energy              =  -33081.79726419 Ry
     estimated scf accuracy    <       1.60936337 Ry

     total magnetization       =     3.00 Bohr mag/cell
     absolute magnetization    =     3.01 Bohr mag/cell

     iteration # 10     ecut=    60.00 Ry     beta= 0.70
     Davidson diagonalization with overlap

---- Real-time Memory Report at c_bands before calling an iterative solver
          1796 MiB given to the printing process from OS
          1332 MiB allocation reported by mallinfo(arena+hblkhd)
        397379 MiB available memory on the node where the printing process lives
------------------
     ethr =  1.31E-04,  avg # of iterations =  6.7

     negative rho (up, down):  1.665E-07 1.827E-07

     Adding external electric field

     Computed dipole along edir(3) : 
        Elec. dipole        -10.0216 Ry au,        -25.4724 Debye
        Ion. dipole         -10.0252 Ry au,        -25.4815 Debye
        Dipole               -3.2204 Ry au,         -8.1856 Debye
        Dipole field         -0.0036 Ry au, 

        Potential amp.        0.3480 Ry
        Total length         48.2953 bohr


     Adding external electric field

     Computed dipole along edir(3) : 
        Elec. dipole        -10.0216 Ry au,        -25.4724 Debye
        Ion. dipole         -10.0252 Ry au,        -25.4815 Debye
        Dipole               -3.2204 Ry au,         -8.1856 Debye
        Dipole field         -0.0036 Ry au, 

        Potential amp.        0.3480 Ry
        Total length         48.2953 bohr


     total cpu time spent up to now is    10885.6 secs

     total energy              =  -33081.82634475 Ry
     estimated scf accuracy    <       2.72161476 Ry

     total magnetization       =     0.58 Bohr mag/cell
     absolute magnetization    =     0.69 Bohr mag/cell

     iteration # 11     ecut=    60.00 Ry     beta= 0.70
     Davidson diagonalization with overlap

---- Real-time Memory Report at c_bands before calling an iterative solver
          1798 MiB given to the printing process from OS
          1334 MiB allocation reported by mallinfo(arena+hblkhd)
        397322 MiB available memory on the node where the printing process lives
------------------
     ethr =  1.31E-04,  avg # of iterations =  1.8

     negative rho (up, down):  7.835E-04 6.752E-04

     Adding external electric field

     Computed dipole along edir(3) : 
        Elec. dipole        -10.0216 Ry au,        -25.4723 Debye
        Ion. dipole         -10.0252 Ry au,        -25.4815 Debye
        Dipole               -3.2440 Ry au,         -8.2453 Debye
        Dipole field         -0.0036 Ry au, 

        Potential amp.        0.3505 Ry
        Total length         48.2953 bohr


     Adding external electric field

     Computed dipole along edir(3) : 
        Elec. dipole        -10.0216 Ry au,        -25.4723 Debye
        Ion. dipole         -10.0252 Ry au,        -25.4815 Debye
        Dipole               -3.2440 Ry au,         -8.2453 Debye
        Dipole field         -0.0036 Ry au, 

        Potential amp.        0.3505 Ry
        Total length         48.2953 bohr


     total cpu time spent up to now is    11907.7 secs

     total energy              =  -33081.74298136 Ry
     estimated scf accuracy    <       3.99222290 Ry

     total magnetization       =     0.33 Bohr mag/cell
     absolute magnetization    =     0.51 Bohr mag/cell

     iteration # 12     ecut=    60.00 Ry     beta= 0.70
     Davidson diagonalization with overlap

---- Real-time Memory Report at c_bands before calling an iterative solver
          1799 MiB given to the printing process from OS
          1336 MiB allocation reported by mallinfo(arena+hblkhd)
        397302 MiB available memory on the node where the printing process lives
------------------
     ethr =  1.31E-04,  avg # of iterations =  2.5

     negative rho (up, down):  2.228E-03 1.989E-03

     Adding external electric field

     Computed dipole along edir(3) : 
        Elec. dipole        -10.0217 Ry au,        -25.4726 Debye
        Ion. dipole         -10.0252 Ry au,        -25.4815 Debye
        Dipole               -3.1564 Ry au,         -8.0228 Debye
        Dipole field         -0.0035 Ry au, 

        Potential amp.        0.3410 Ry
        Total length         48.2953 bohr


     Adding external electric field

     Computed dipole along edir(3) : 
        Elec. dipole        -10.0217 Ry au,        -25.4726 Debye
        Ion. dipole         -10.0252 Ry au,        -25.4815 Debye
        Dipole               -3.1564 Ry au,         -8.0228 Debye
        Dipole field         -0.0035 Ry au, 

        Potential amp.        0.3410 Ry
        Total length         48.2953 bohr


     total cpu time spent up to now is    12979.4 secs

     total energy              =  -33081.85477859 Ry
     estimated scf accuracy    <       1.26354779 Ry

     total magnetization       =     3.00 Bohr mag/cell
     absolute magnetization    =     3.01 Bohr mag/cell

     iteration # 13     ecut=    60.00 Ry     beta= 0.70
     Davidson diagonalization with overlap

---- Real-time Memory Report at c_bands before calling an iterative solver
          1801 MiB given to the printing process from OS
          1339 MiB allocation reported by mallinfo(arena+hblkhd)
        397212 MiB available memory on the node where the printing process lives
------------------
     ethr =  1.31E-04,  avg # of iterations =  1.3

     negative rho (up, down):  2.726E-03 2.647E-03

     Adding external electric field

     Computed dipole along edir(3) : 
        Elec. dipole        -10.0218 Ry au,        -25.4730 Debye
        Ion. dipole         -10.0252 Ry au,        -25.4815 Debye
        Dipole               -3.0217 Ry au,         -7.6805 Debye
        Dipole field         -0.0034 Ry au, 

        Potential amp.        0.3265 Ry
        Total length         48.2953 bohr


     Adding external electric field

     Computed dipole along edir(3) : 
        Elec. dipole        -10.0218 Ry au,        -25.4730 Debye
        Ion. dipole         -10.0252 Ry au,        -25.4815 Debye
        Dipole               -3.0217 Ry au,         -7.6805 Debye
        Dipole field         -0.0034 Ry au, 

        Potential amp.        0.3265 Ry
        Total length         48.2953 bohr


     total cpu time spent up to now is    13905.9 secs

     total energy              =  -33081.84261973 Ry
     estimated scf accuracy    <       1.38513934 Ry

     total magnetization       =     3.00 Bohr mag/cell
     absolute magnetization    =     3.01 Bohr mag/cell

     iteration # 14     ecut=    60.00 Ry     beta= 0.70
     Davidson diagonalization with overlap

---- Real-time Memory Report at c_bands before calling an iterative solver
          1804 MiB given to the printing process from OS
          1341 MiB allocation reported by mallinfo(arena+hblkhd)
        397190 MiB available memory on the node where the printing process lives
------------------
     ethr =  1.31E-04,  avg # of iterations =  1.1

     negative rho (up, down):  3.829E-03 3.888E-03

     Adding external electric field

     Computed dipole along edir(3) : 
        Elec. dipole        -10.0222 Ry au,        -25.4739 Debye
        Ion. dipole         -10.0252 Ry au,        -25.4815 Debye
        Dipole               -2.6994 Ry au,         -6.8611 Debye
        Dipole field         -0.0030 Ry au, 

        Potential amp.        0.2917 Ry
        Total length         48.2953 bohr


     Adding external electric field

     Computed dipole along edir(3) : 
        Elec. dipole        -10.0222 Ry au,        -25.4739 Debye
        Ion. dipole         -10.0252 Ry au,        -25.4815 Debye
        Dipole               -2.6994 Ry au,         -6.8611 Debye
        Dipole field         -0.0030 Ry au, 

        Potential amp.        0.2917 Ry
        Total length         48.2953 bohr


     total cpu time spent up to now is    14841.4 secs

     total energy              =  -33081.80929446 Ry
     estimated scf accuracy    <       1.29738277 Ry

     total magnetization       =     3.00 Bohr mag/cell
     absolute magnetization    =     3.01 Bohr mag/cell

     iteration # 15     ecut=    60.00 Ry     beta= 0.70
     Davidson diagonalization with overlap

---- Real-time Memory Report at c_bands before calling an iterative solver
          1804 MiB given to the printing process from OS
          1341 MiB allocation reported by mallinfo(arena+hblkhd)
        397196 MiB available memory on the node where the printing process lives
------------------
     ethr =  1.31E-04,  avg # of iterations =  3.0

     negative rho (up, down):  5.585E-03 5.544E-03

     Adding external electric field

     Computed dipole along edir(3) : 
        Elec. dipole        -10.0225 Ry au,        -25.4745 Debye
        Ion. dipole         -10.0252 Ry au,        -25.4815 Debye
        Dipole               -2.4639 Ry au,         -6.2626 Debye
        Dipole field         -0.0028 Ry au, 

        Potential amp.        0.2662 Ry
        Total length         48.2953 bohr


     Adding external electric field

     Computed dipole along edir(3) : 
        Elec. dipole        -10.0225 Ry au,        -25.4745 Debye
        Ion. dipole         -10.0252 Ry au,        -25.4815 Debye
        Dipole               -2.4639 Ry au,         -6.2626 Debye
        Dipole field         -0.0028 Ry au, 

        Potential amp.        0.2662 Ry
        Total length         48.2953 bohr


     total cpu time spent up to now is    15923.2 secs

     total energy              =  -33081.80980074 Ry
     estimated scf accuracy    <       0.05772197 Ry

     total magnetization       =     2.16 Bohr mag/cell
     absolute magnetization    =     2.17 Bohr mag/cell

     iteration # 16     ecut=    60.00 Ry     beta= 0.70
     Davidson diagonalization with overlap

---- Real-time Memory Report at c_bands before calling an iterative solver
          1804 MiB given to the printing process from OS
          1341 MiB allocation reported by mallinfo(arena+hblkhd)
        397136 MiB available memory on the node where the printing process lives
------------------
     ethr =  8.83E-06,  avg # of iterations = 11.4

     negative rho (up, down):  8.939E-03 8.802E-03

     Adding external electric field

     Computed dipole along edir(3) : 
        Elec. dipole        -10.0224 Ry au,        -25.4745 Debye
        Ion. dipole         -10.0252 Ry au,        -25.4815 Debye
        Dipole               -2.4709 Ry au,         -6.2803 Debye
        Dipole field         -0.0028 Ry au, 

        Potential amp.        0.2670 Ry
        Total length         48.2953 bohr


     Adding external electric field

     Computed dipole along edir(3) : 
        Elec. dipole        -10.0224 Ry au,        -25.4745 Debye
        Ion. dipole         -10.0252 Ry au,        -25.4815 Debye
        Dipole               -2.4709 Ry au,         -6.2803 Debye
        Dipole field         -0.0028 Ry au, 

        Potential amp.        0.2670 Ry
        Total length         48.2953 bohr


     total cpu time spent up to now is    17153.1 secs

     total energy              =  -33081.78584361 Ry
     estimated scf accuracy    <       3.76349708 Ry

     total magnetization       =     0.18 Bohr mag/cell
     absolute magnetization    =     0.45 Bohr mag/cell

     iteration # 17     ecut=    60.00 Ry     beta= 0.70
     Davidson diagonalization with overlap

---- Real-time Memory Report at c_bands before calling an iterative solver
          1804 MiB given to the printing process from OS
          1341 MiB allocation reported by mallinfo(arena+hblkhd)
        397156 MiB available memory on the node where the printing process lives
------------------
     ethr =  8.83E-06,  avg # of iterations =  3.1

     negative rho (up, down):  6.867E-03 6.787E-03

     Adding external electric field

     Computed dipole along edir(3) : 
        Elec. dipole        -10.0226 Ry au,        -25.4750 Debye
        Ion. dipole         -10.0252 Ry au,        -25.4815 Debye
        Dipole               -2.2964 Ry au,         -5.8368 Debye
        Dipole field         -0.0026 Ry au, 

        Potential amp.        0.2481 Ry
        Total length         48.2953 bohr


     Adding external electric field

     Computed dipole along edir(3) : 
        Elec. dipole        -10.0226 Ry au,        -25.4750 Debye
        Ion. dipole         -10.0252 Ry au,        -25.4815 Debye
        Dipole               -2.2964 Ry au,         -5.8368 Debye
        Dipole field         -0.0026 Ry au, 

        Potential amp.        0.2481 Ry
        Total length         48.2953 bohr


     total cpu time spent up to now is    18234.1 secs

     total energy              =  -33081.80479380 Ry
     estimated scf accuracy    <       0.84111483 Ry

     total magnetization       =     2.83 Bohr mag/cell
     absolute magnetization    =     2.84 Bohr mag/cell

     iteration # 18     ecut=    60.00 Ry     beta= 0.70
     Davidson diagonalization with overlap

---- Real-time Memory Report at c_bands before calling an iterative solver
          1804 MiB given to the printing process from OS
          1341 MiB allocation reported by mallinfo(arena+hblkhd)
        397121 MiB available memory on the node where the printing process lives
------------------
     ethr =  8.83E-06,  avg # of iterations =  2.5

     negative rho (up, down):  6.399E-03 6.304E-03

     Adding external electric field

     Computed dipole along edir(3) : 
        Elec. dipole        -10.0226 Ry au,        -25.4748 Debye
        Ion. dipole         -10.0252 Ry au,        -25.4815 Debye
        Dipole               -2.3577 Ry au,         -5.9927 Debye
        Dipole field         -0.0026 Ry au, 

        Potential amp.        0.2547 Ry
        Total length         48.2953 bohr


     Adding external electric field

     Computed dipole along edir(3) : 
        Elec. dipole        -10.0226 Ry au,        -25.4748 Debye
        Ion. dipole         -10.0252 Ry au,        -25.4815 Debye
        Dipole               -2.3577 Ry au,         -5.9927 Debye
        Dipole field         -0.0026 Ry au, 

        Potential amp.        0.2547 Ry
        Total length         48.2953 bohr


     total cpu time spent up to now is    19319.0 secs

     total energy              =  -33081.80578832 Ry
     estimated scf accuracy    <       1.01637916 Ry

     total magnetization       =     1.04 Bohr mag/cell
     absolute magnetization    =     1.09 Bohr mag/cell

     iteration # 19     ecut=    60.00 Ry     beta= 0.70
     Davidson diagonalization with overlap

---- Real-time Memory Report at c_bands before calling an iterative solver
          1804 MiB given to the printing process from OS
          1341 MiB allocation reported by mallinfo(arena+hblkhd)
        397125 MiB available memory on the node where the printing process lives
------------------
     ethr =  8.83E-06,  avg # of iterations =  1.8

     negative rho (up, down):  3.771E-03 3.740E-03

     Adding external electric field

     Computed dipole along edir(3) : 
        Elec. dipole        -10.0226 Ry au,        -25.4750 Debye
        Ion. dipole         -10.0252 Ry au,        -25.4815 Debye
        Dipole               -2.2996 Ry au,         -5.8449 Debye
        Dipole field         -0.0026 Ry au, 

        Potential amp.        0.2485 Ry
        Total length         48.2953 bohr


     Adding external electric field

     Computed dipole along edir(3) : 
        Elec. dipole        -10.0226 Ry au,        -25.4750 Debye
        Ion. dipole         -10.0252 Ry au,        -25.4815 Debye
        Dipole               -2.2996 Ry au,         -5.8449 Debye
        Dipole field         -0.0026 Ry au, 

        Potential amp.        0.2485 Ry
        Total length         48.2953 bohr


     total cpu time spent up to now is    20357.1 secs

     total energy              =  -33081.81394848 Ry
     estimated scf accuracy    <       0.46321196 Ry

     total magnetization       =     2.59 Bohr mag/cell
     absolute magnetization    =     2.60 Bohr mag/cell

     iteration # 20     ecut=    60.00 Ry     beta= 0.70
     Davidson diagonalization with overlap

---- Real-time Memory Report at c_bands before calling an iterative solver
          1804 MiB given to the printing process from OS
          1341 MiB allocation reported by mallinfo(arena+hblkhd)
        397146 MiB available memory on the node where the printing process lives
------------------
     ethr =  8.83E-06,  avg # of iterations =  3.0

     negative rho (up, down):  4.354E-03 4.362E-03

     Adding external electric field

     Computed dipole along edir(3) : 
        Elec. dipole        -10.0227 Ry au,        -25.4752 Debye
        Ion. dipole         -10.0252 Ry au,        -25.4815 Debye
        Dipole               -2.2216 Ry au,         -5.6468 Debye
        Dipole field         -0.0025 Ry au, 

        Potential amp.        0.2400 Ry
        Total length         48.2953 bohr


     Adding external electric field

     Computed dipole along edir(3) : 
        Elec. dipole        -10.0227 Ry au,        -25.4752 Debye
        Ion. dipole         -10.0252 Ry au,        -25.4815 Debye
        Dipole               -2.2216 Ry au,         -5.6468 Debye
        Dipole field         -0.0025 Ry au, 

        Potential amp.        0.2400 Ry
        Total length         48.2953 bohr


     total cpu time spent up to now is    21446.9 secs

     total energy              =  -33081.81591150 Ry
     estimated scf accuracy    <       0.02790462 Ry

     total magnetization       =     2.01 Bohr mag/cell
     absolute magnetization    =     2.03 Bohr mag/cell

     iteration # 21     ecut=    60.00 Ry     beta= 0.70
     Davidson diagonalization with overlap

---- Real-time Memory Report at c_bands before calling an iterative solver
          1804 MiB given to the printing process from OS
          1341 MiB allocation reported by mallinfo(arena+hblkhd)
        397152 MiB available memory on the node where the printing process lives
------------------
     ethr =  4.27E-06,  avg # of iterations =  2.5

     negative rho (up, down):  4.887E-03 4.890E-03

     Adding external electric field

     Computed dipole along edir(3) : 
        Elec. dipole        -10.0227 Ry au,        -25.4751 Debye
        Ion. dipole         -10.0252 Ry au,        -25.4815 Debye
        Dipole               -2.2817 Ry au,         -5.7994 Debye
        Dipole field         -0.0026 Ry au, 

        Potential amp.        0.2465 Ry
        Total length         48.2953 bohr


     Adding external electric field

     Computed dipole along edir(3) : 
        Elec. dipole        -10.0227 Ry au,        -25.4751 Debye
        Ion. dipole         -10.0252 Ry au,        -25.4815 Debye
        Dipole               -2.2817 Ry au,         -5.7994 Debye
        Dipole field         -0.0026 Ry au, 

        Potential amp.        0.2465 Ry
        Total length         48.2953 bohr


     total cpu time spent up to now is    22527.4 secs

     total energy              =  -33081.80741148 Ry
     estimated scf accuracy    <       2.41980675 Ry

     total magnetization       =     0.52 Bohr mag/cell
     absolute magnetization    =     0.66 Bohr mag/cell

     iteration # 22     ecut=    60.00 Ry     beta= 0.70
     Davidson diagonalization with overlap

---- Real-time Memory Report at c_bands before calling an iterative solver
          1804 MiB given to the printing process from OS
          1341 MiB allocation reported by mallinfo(arena+hblkhd)
        397164 MiB available memory on the node where the printing process lives
------------------
     ethr =  4.27E-06,  avg # of iterations =  1.4

     negative rho (up, down):  4.636E-03 4.596E-03

     Adding external electric field

     Computed dipole along edir(3) : 
        Elec. dipole        -10.0227 Ry au,        -25.4751 Debye
        Ion. dipole         -10.0252 Ry au,        -25.4815 Debye
        Dipole               -2.2496 Ry au,         -5.7180 Debye
        Dipole field         -0.0025 Ry au, 

        Potential amp.        0.2431 Ry
        Total length         48.2953 bohr


     Adding external electric field

     Computed dipole along edir(3) : 
        Elec. dipole        -10.0227 Ry au,        -25.4751 Debye
        Ion. dipole         -10.0252 Ry au,        -25.4815 Debye
        Dipole               -2.2496 Ry au,         -5.7180 Debye
        Dipole field         -0.0025 Ry au, 

        Potential amp.        0.2431 Ry
        Total length         48.2953 bohr


     total cpu time spent up to now is    23505.9 secs

     total energy              =  -33081.81721978 Ry
     estimated scf accuracy    <       0.02732869 Ry

     total magnetization       =     1.90 Bohr mag/cell
     absolute magnetization    =     1.92 Bohr mag/cell

     iteration # 23     ecut=    60.00 Ry     beta= 0.70
     Davidson diagonalization with overlap

---- Real-time Memory Report at c_bands before calling an iterative solver
          1804 MiB given to the printing process from OS
          1341 MiB allocation reported by mallinfo(arena+hblkhd)
        397164 MiB available memory on the node where the printing process lives
------------------
     ethr =  4.18E-06,  avg # of iterations =  1.1

     negative rho (up, down):  2.904E-03 2.867E-03

     Adding external electric field

     Computed dipole along edir(3) : 
        Elec. dipole        -10.0227 Ry au,        -25.4753 Debye
        Ion. dipole         -10.0252 Ry au,        -25.4815 Debye
        Dipole               -2.2086 Ry au,         -5.6138 Debye
        Dipole field         -0.0025 Ry au, 

        Potential amp.        0.2386 Ry
        Total length         48.2953 bohr


     Adding external electric field

     Computed dipole along edir(3) : 
        Elec. dipole        -10.0227 Ry au,        -25.4753 Debye
        Ion. dipole         -10.0252 Ry au,        -25.4815 Debye
        Dipole               -2.2086 Ry au,         -5.6138 Debye
        Dipole field         -0.0025 Ry au, 

        Potential amp.        0.2386 Ry
        Total length         48.2953 bohr


     total cpu time spent up to now is    24441.1 secs

     total energy              =  -33081.81856165 Ry
     estimated scf accuracy    <       0.10379803 Ry

     total magnetization       =     1.68 Bohr mag/cell
     absolute magnetization    =     1.71 Bohr mag/cell

     iteration # 24     ecut=    60.00 Ry     beta= 0.70
     Davidson diagonalization with overlap

---- Real-time Memory Report at c_bands before calling an iterative solver
          1804 MiB given to the printing process from OS
          1341 MiB allocation reported by mallinfo(arena+hblkhd)
        397168 MiB available memory on the node where the printing process lives
------------------
     ethr =  4.18E-06,  avg # of iterations =  3.0

     negative rho (up, down):  2.264E-03 2.363E-03

     Adding external electric field

     Computed dipole along edir(3) : 
        Elec. dipole        -10.0227 Ry au,        -25.4752 Debye
        Ion. dipole         -10.0252 Ry au,        -25.4815 Debye
        Dipole               -2.2362 Ry au,         -5.6839 Debye
        Dipole field         -0.0025 Ry au, 

        Potential amp.        0.2416 Ry
        Total length         48.2953 bohr


     Adding external electric field

     Computed dipole along edir(3) : 
        Elec. dipole        -10.0227 Ry au,        -25.4752 Debye
        Ion. dipole         -10.0252 Ry au,        -25.4815 Debye
        Dipole               -2.2362 Ry au,         -5.6839 Debye
        Dipole field         -0.0025 Ry au, 

        Potential amp.        0.2416 Ry
        Total length         48.2953 bohr


     total cpu time spent up to now is    25529.6 secs

     total energy              =  -33081.81557691 Ry
     estimated scf accuracy    <       1.54244271 Ry

     total magnetization       =     0.80 Bohr mag/cell
     absolute magnetization    =     0.90 Bohr mag/cell

     iteration # 25     ecut=    60.00 Ry     beta= 0.70
     Davidson diagonalization with overlap

---- Real-time Memory Report at c_bands before calling an iterative solver
          1804 MiB given to the printing process from OS
          1341 MiB allocation reported by mallinfo(arena+hblkhd)
        397157 MiB available memory on the node where the printing process lives
------------------
     ethr =  4.18E-06,  avg # of iterations =  3.4

     negative rho (up, down):  1.965E-03 1.990E-03

     Adding external electric field

     Computed dipole along edir(3) : 
        Elec. dipole        -10.0227 Ry au,        -25.4752 Debye
        Ion. dipole         -10.0252 Ry au,        -25.4815 Debye
        Dipole               -2.2239 Ry au,         -5.6526 Debye
        Dipole field         -0.0025 Ry au, 

        Potential amp.        0.2403 Ry
        Total length         48.2953 bohr


     Adding external electric field

     Computed dipole along edir(3) : 
        Elec. dipole        -10.0227 Ry au,        -25.4752 Debye
        Ion. dipole         -10.0252 Ry au,        -25.4815 Debye
        Dipole               -2.2239 Ry au,         -5.6526 Debye
        Dipole field         -0.0025 Ry au, 

        Potential amp.        0.2403 Ry
        Total length         48.2953 bohr


     total cpu time spent up to now is    26611.6 secs

     total energy              =  -33081.82008553 Ry
     estimated scf accuracy    <       0.13042267 Ry

     total magnetization       =     1.63 Bohr mag/cell
     absolute magnetization    =     1.67 Bohr mag/cell

     iteration # 26     ecut=    60.00 Ry     beta= 0.70
     Davidson diagonalization with overlap

---- Real-time Memory Report at c_bands before calling an iterative solver
          1804 MiB given to the printing process from OS
          1341 MiB allocation reported by mallinfo(arena+hblkhd)
        397167 MiB available memory on the node where the printing process lives
------------------
     ethr =  4.18E-06,  avg # of iterations =  1.7

     negative rho (up, down):  2.042E-03 2.047E-03

     Adding external electric field

     Computed dipole along edir(3) : 
        Elec. dipole        -10.0227 Ry au,        -25.4752 Debye
        Ion. dipole         -10.0252 Ry au,        -25.4815 Debye
        Dipole               -2.2258 Ry au,         -5.6574 Debye
        Dipole field         -0.0025 Ry au, 

        Potential amp.        0.2405 Ry
        Total length         48.2953 bohr


     Adding external electric field

     Computed dipole along edir(3) : 
        Elec. dipole        -10.0227 Ry au,        -25.4752 Debye
        Ion. dipole         -10.0252 Ry au,        -25.4815 Debye
        Dipole               -2.2258 Ry au,         -5.6574 Debye
        Dipole field         -0.0025 Ry au, 

        Potential amp.        0.2405 Ry
        Total length         48.2953 bohr


     total cpu time spent up to now is    27634.7 secs

     total energy              =  -33081.81988910 Ry
     estimated scf accuracy    <       0.12225638 Ry

     total magnetization       =     1.64 Bohr mag/cell
     absolute magnetization    =     1.68 Bohr mag/cell

     iteration # 27     ecut=    60.00 Ry     beta= 0.70
     Davidson diagonalization with overlap

---- Real-time Memory Report at c_bands before calling an iterative solver
          1804 MiB given to the printing process from OS
          1341 MiB allocation reported by mallinfo(arena+hblkhd)
        397167 MiB available memory on the node where the printing process lives
------------------
     ethr =  4.18E-06,  avg # of iterations =  1.4

     negative rho (up, down):  1.522E-03 1.530E-03

     Adding external electric field

     Computed dipole along edir(3) : 
        Elec. dipole        -10.0227 Ry au,        -25.4752 Debye
        Ion. dipole         -10.0252 Ry au,        -25.4815 Debye
        Dipole               -2.2238 Ry au,         -5.6524 Debye
        Dipole field         -0.0025 Ry au, 

        Potential amp.        0.2403 Ry
        Total length         48.2953 bohr


     Adding external electric field

     Computed dipole along edir(3) : 
        Elec. dipole        -10.0227 Ry au,        -25.4752 Debye
        Ion. dipole         -10.0252 Ry au,        -25.4815 Debye
        Dipole               -2.2238 Ry au,         -5.6524 Debye
        Dipole field         -0.0025 Ry au, 

        Potential amp.        0.2403 Ry
        Total length         48.2953 bohr


     total cpu time spent up to now is    28595.9 secs

     total energy              =  -33081.82061082 Ry
     estimated scf accuracy    <       0.10470442 Ry

     total magnetization       =     1.67 Bohr mag/cell
     absolute magnetization    =     1.70 Bohr mag/cell

     iteration # 28     ecut=    60.00 Ry     beta= 0.70
     Davidson diagonalization with overlap

---- Real-time Memory Report at c_bands before calling an iterative solver
          1804 MiB given to the printing process from OS
          1341 MiB allocation reported by mallinfo(arena+hblkhd)
        397141 MiB available memory on the node where the printing process lives
------------------
     ethr =  4.18E-06,  avg # of iterations =  1.9

     negative rho (up, down):  1.453E-03 1.458E-03

     Adding external electric field

     Computed dipole along edir(3) : 
        Elec. dipole        -10.0227 Ry au,        -25.4752 Debye
        Ion. dipole         -10.0252 Ry au,        -25.4815 Debye
        Dipole               -2.2247 Ry au,         -5.6546 Debye
        Dipole field         -0.0025 Ry au, 

        Potential amp.        0.2404 Ry
        Total length         48.2953 bohr


     Adding external electric field

     Computed dipole along edir(3) : 
        Elec. dipole        -10.0227 Ry au,        -25.4752 Debye
        Ion. dipole         -10.0252 Ry au,        -25.4815 Debye
        Dipole               -2.2247 Ry au,         -5.6546 Debye
        Dipole field         -0.0025 Ry au, 

        Potential amp.        0.2404 Ry
        Total length         48.2953 bohr


     total cpu time spent up to now is    29654.0 secs

     total energy              =  -33081.82072072 Ry
     estimated scf accuracy    <       0.08431543 Ry

     total magnetization       =     1.70 Bohr mag/cell
     absolute magnetization    =     1.74 Bohr mag/cell

     iteration # 29     ecut=    60.00 Ry     beta= 0.70
     Davidson diagonalization with overlap

---- Real-time Memory Report at c_bands before calling an iterative solver
          1804 MiB given to the printing process from OS
          1341 MiB allocation reported by mallinfo(arena+hblkhd)
        397165 MiB available memory on the node where the printing process lives
------------------
     ethr =  4.18E-06,  avg # of iterations =  1.2

     negative rho (up, down):  1.730E-03 1.737E-03

     Adding external electric field

     Computed dipole along edir(3) : 
        Elec. dipole        -10.0228 Ry au,        -25.4753 Debye
        Ion. dipole         -10.0252 Ry au,        -25.4815 Debye
        Dipole               -2.1901 Ry au,         -5.5666 Debye
        Dipole field         -0.0024 Ry au, 

        Potential amp.        0.2366 Ry
        Total length         48.2953 bohr


     Adding external electric field

     Computed dipole along edir(3) : 
        Elec. dipole        -10.0228 Ry au,        -25.4753 Debye
        Ion. dipole         -10.0252 Ry au,        -25.4815 Debye
        Dipole               -2.1901 Ry au,         -5.5666 Debye
        Dipole field         -0.0024 Ry au, 

        Potential amp.        0.2366 Ry
        Total length         48.2953 bohr


     total cpu time spent up to now is    30597.8 secs

     total energy              =  -33081.82184714 Ry
     estimated scf accuracy    <       0.08385415 Ry

     total magnetization       =     1.70 Bohr mag/cell
     absolute magnetization    =     1.74 Bohr mag/cell

     iteration # 30     ecut=    60.00 Ry     beta= 0.70
     Davidson diagonalization with overlap

---- Real-time Memory Report at c_bands before calling an iterative solver
          1804 MiB given to the printing process from OS
          1341 MiB allocation reported by mallinfo(arena+hblkhd)
        397163 MiB available memory on the node where the printing process lives
------------------
     ethr =  4.18E-06,  avg # of iterations =  1.6

     negative rho (up, down):  1.381E-03 1.387E-03

     Adding external electric field

     Computed dipole along edir(3) : 
        Elec. dipole        -10.0228 Ry au,        -25.4753 Debye
        Ion. dipole         -10.0252 Ry au,        -25.4815 Debye
        Dipole               -2.1976 Ry au,         -5.5857 Debye
        Dipole field         -0.0025 Ry au, 

        Potential amp.        0.2374 Ry
        Total length         48.2953 bohr


     Adding external electric field

     Computed dipole along edir(3) : 
        Elec. dipole        -10.0228 Ry au,        -25.4753 Debye
        Ion. dipole         -10.0252 Ry au,        -25.4815 Debye
        Dipole               -2.1976 Ry au,         -5.5857 Debye
        Dipole field         -0.0025 Ry au, 

        Potential amp.        0.2374 Ry
        Total length         48.2953 bohr


     total cpu time spent up to now is    31601.8 secs

     total energy              =  -33081.82196165 Ry
     estimated scf accuracy    <       0.06303084 Ry

     total magnetization       =     1.73 Bohr mag/cell
     absolute magnetization    =     1.77 Bohr mag/cell

     iteration # 31     ecut=    60.00 Ry     beta= 0.70
     Davidson diagonalization with overlap

---- Real-time Memory Report at c_bands before calling an iterative solver
          1804 MiB given to the printing process from OS
          1341 MiB allocation reported by mallinfo(arena+hblkhd)
        397163 MiB available memory on the node where the printing process lives
------------------
     ethr =  4.18E-06,  avg # of iterations =  1.1

     negative rho (up, down):  1.755E-03 1.756E-03

     Adding external electric field

     Computed dipole along edir(3) : 
        Elec. dipole        -10.0228 Ry au,        -25.4753 Debye
        Ion. dipole         -10.0252 Ry au,        -25.4815 Debye
        Dipole               -2.1994 Ry au,         -5.5904 Debye
        Dipole field         -0.0025 Ry au, 

        Potential amp.        0.2376 Ry
        Total length         48.2953 bohr


     Adding external electric field

     Computed dipole along edir(3) : 
        Elec. dipole        -10.0228 Ry au,        -25.4753 Debye
        Ion. dipole         -10.0252 Ry au,        -25.4815 Debye
        Dipole               -2.1994 Ry au,         -5.5904 Debye
        Dipole field         -0.0025 Ry au, 

        Potential amp.        0.2376 Ry
        Total length         48.2953 bohr


     total cpu time spent up to now is    32538.4 secs

     total energy              =  -33081.81969362 Ry
     estimated scf accuracy    <       0.07132108 Ry

     total magnetization       =     1.72 Bohr mag/cell
     absolute magnetization    =     1.75 Bohr mag/cell

     iteration # 32     ecut=    60.00 Ry     beta= 0.70
     Davidson diagonalization with overlap

---- Real-time Memory Report at c_bands before calling an iterative solver
          1804 MiB given to the printing process from OS
          1341 MiB allocation reported by mallinfo(arena+hblkhd)
        397163 MiB available memory on the node where the printing process lives
------------------
     ethr =  4.18E-06,  avg # of iterations =  2.0

     negative rho (up, down):  7.889E-04 8.298E-04

     Adding external electric field

     Computed dipole along edir(3) : 
        Elec. dipole        -10.0227 Ry au,        -25.4752 Debye
        Ion. dipole         -10.0252 Ry au,        -25.4815 Debye
        Dipole               -2.2345 Ry au,         -5.6795 Debye
        Dipole field         -0.0025 Ry au, 

        Potential amp.        0.2414 Ry
        Total length         48.2953 bohr


     Adding external electric field

     Computed dipole along edir(3) : 
        Elec. dipole        -10.0227 Ry au,        -25.4752 Debye
        Ion. dipole         -10.0252 Ry au,        -25.4815 Debye
        Dipole               -2.2345 Ry au,         -5.6795 Debye
        Dipole field         -0.0025 Ry au, 

        Potential amp.        0.2414 Ry
        Total length         48.2953 bohr


     total cpu time spent up to now is    33600.8 secs

     total energy              =  -33081.82615252 Ry
     estimated scf accuracy    <       0.14375676 Ry

     total magnetization       =     1.60 Bohr mag/cell
     absolute magnetization    =     1.64 Bohr mag/cell

     iteration # 33     ecut=    60.00 Ry     beta= 0.70
     Davidson diagonalization with overlap

---- Real-time Memory Report at c_bands before calling an iterative solver
          1804 MiB given to the printing process from OS
          1341 MiB allocation reported by mallinfo(arena+hblkhd)
        397157 MiB available memory on the node where the printing process lives
------------------
     ethr =  4.18E-06,  avg # of iterations =  3.6

     negative rho (up, down):  3.495E-04 3.498E-04

     Adding external electric field

     Computed dipole along edir(3) : 
        Elec. dipole        -10.0227 Ry au,        -25.4753 Debye
        Ion. dipole         -10.0252 Ry au,        -25.4815 Debye
        Dipole               -2.2117 Ry au,         -5.6215 Debye
        Dipole field         -0.0025 Ry au, 

        Potential amp.        0.2390 Ry
        Total length         48.2953 bohr


     Adding external electric field

     Computed dipole along edir(3) : 
        Elec. dipole        -10.0227 Ry au,        -25.4753 Debye
        Ion. dipole         -10.0252 Ry au,        -25.4815 Debye
        Dipole               -2.2117 Ry au,         -5.6215 Debye
        Dipole field         -0.0025 Ry au, 

        Potential amp.        0.2390 Ry
        Total length         48.2953 bohr


     total cpu time spent up to now is    34687.2 secs

     total energy              =  -33081.83194912 Ry
     estimated scf accuracy    <       0.01337492 Ry

     total magnetization       =     1.89 Bohr mag/cell
     absolute magnetization    =     1.92 Bohr mag/cell

     iteration # 34     ecut=    60.00 Ry     beta= 0.70
     Davidson diagonalization with overlap

---- Real-time Memory Report at c_bands before calling an iterative solver
          1804 MiB given to the printing process from OS
          1341 MiB allocation reported by mallinfo(arena+hblkhd)
        397165 MiB available memory on the node where the printing process lives
------------------
     c_bands:  1 eigenvalues not converged
     c_bands:  1 eigenvalues not converged
     c_bands:  1 eigenvalues not converged
     c_bands:  1 eigenvalues not converged
     ethr =  2.05E-06,  avg # of iterations =  9.1

     negative rho (up, down):  1.001E-03 1.005E-03

     Adding external electric field

     Computed dipole along edir(3) : 
        Elec. dipole        -10.0227 Ry au,        -25.4752 Debye
        Ion. dipole         -10.0252 Ry au,        -25.4815 Debye
        Dipole               -2.2439 Ry au,         -5.7034 Debye
        Dipole field         -0.0025 Ry au, 

        Potential amp.        0.2424 Ry
        Total length         48.2953 bohr


     Adding external electric field

     Computed dipole along edir(3) : 
        Elec. dipole        -10.0227 Ry au,        -25.4752 Debye
        Ion. dipole         -10.0252 Ry au,        -25.4815 Debye
        Dipole               -2.2439 Ry au,         -5.7034 Debye
        Dipole field         -0.0025 Ry au, 

        Potential amp.        0.2424 Ry
        Total length         48.2953 bohr


     total cpu time spent up to now is    35868.5 secs

     total energy              =  -33081.83244049 Ry
     estimated scf accuracy    <       0.01089915 Ry

     total magnetization       =     1.99 Bohr mag/cell
     absolute magnetization    =     2.01 Bohr mag/cell

     iteration # 35     ecut=    60.00 Ry     beta= 0.70
     Davidson diagonalization with overlap

---- Real-time Memory Report at c_bands before calling an iterative solver
          1804 MiB given to the printing process from OS
          1341 MiB allocation reported by mallinfo(arena+hblkhd)
        397131 MiB available memory on the node where the printing process lives
------------------
     c_bands:  1 eigenvalues not converged
     c_bands:  1 eigenvalues not converged
     ethr =  1.67E-06,  avg # of iterations =  7.3

     negative rho (up, down):  1.705E-03 1.716E-03

     Adding external electric field

     Computed dipole along edir(3) : 
        Elec. dipole        -10.0227 Ry au,        -25.4752 Debye
        Ion. dipole         -10.0252 Ry au,        -25.4815 Debye
        Dipole               -2.2446 Ry au,         -5.7051 Debye
        Dipole field         -0.0025 Ry au, 

        Potential amp.        0.2425 Ry
        Total length         48.2953 bohr


     Adding external electric field

     Computed dipole along edir(3) : 
        Elec. dipole        -10.0227 Ry au,        -25.4752 Debye
        Ion. dipole         -10.0252 Ry au,        -25.4815 Debye
        Dipole               -2.2446 Ry au,         -5.7051 Debye
        Dipole field         -0.0025 Ry au, 

        Potential amp.        0.2425 Ry
        Total length         48.2953 bohr


     total cpu time spent up to now is    37003.9 secs

     total energy              =  -33081.83362262 Ry
     estimated scf accuracy    <       0.00522644 Ry

     total magnetization       =     1.96 Bohr mag/cell
     absolute magnetization    =     1.98 Bohr mag/cell

     iteration # 36     ecut=    60.00 Ry     beta= 0.70
     Davidson diagonalization with overlap

---- Real-time Memory Report at c_bands before calling an iterative solver
          1804 MiB given to the printing process from OS
          1341 MiB allocation reported by mallinfo(arena+hblkhd)
        397151 MiB available memory on the node where the printing process lives
------------------
     c_bands:  1 eigenvalues not converged
     ethr =  7.99E-07,  avg # of iterations =  5.0

     negative rho (up, down):  1.731E-04 1.964E-04

     Adding external electric field

     Computed dipole along edir(3) : 
        Elec. dipole        -10.0228 Ry au,        -25.4754 Debye
        Ion. dipole         -10.0252 Ry au,        -25.4815 Debye
        Dipole               -2.1739 Ry au,         -5.5255 Debye
        Dipole field         -0.0024 Ry au, 

        Potential amp.        0.2349 Ry
        Total length         48.2953 bohr


     Adding external electric field

     Computed dipole along edir(3) : 
        Elec. dipole        -10.0228 Ry au,        -25.4754 Debye
        Ion. dipole         -10.0252 Ry au,        -25.4815 Debye
        Dipole               -2.1739 Ry au,         -5.5255 Debye
        Dipole field         -0.0024 Ry au, 

        Potential amp.        0.2349 Ry
        Total length         48.2953 bohr


     total cpu time spent up to now is    38118.5 secs

     total energy              =  -33081.83371596 Ry
     estimated scf accuracy    <       0.00461368 Ry

     total magnetization       =     1.94 Bohr mag/cell
     absolute magnetization    =     1.97 Bohr mag/cell

     iteration # 37     ecut=    60.00 Ry     beta= 0.70
     Davidson diagonalization with overlap

---- Real-time Memory Report at c_bands before calling an iterative solver
          1804 MiB given to the printing process from OS
          1341 MiB allocation reported by mallinfo(arena+hblkhd)
        397135 MiB available memory on the node where the printing process lives
------------------
     c_bands:  1 eigenvalues not converged
     ethr =  7.05E-07,  avg # of iterations =  5.9

     negative rho (up, down):  3.418E-04 4.667E-04

     Adding external electric field

     Computed dipole along edir(3) : 
        Elec. dipole        -10.0228 Ry au,        -25.4755 Debye
        Ion. dipole         -10.0252 Ry au,        -25.4815 Debye
        Dipole               -2.1307 Ry au,         -5.4156 Debye
        Dipole field         -0.0024 Ry au, 

        Potential amp.        0.2302 Ry
        Total length         48.2953 bohr


     Adding external electric field

     Computed dipole along edir(3) : 
        Elec. dipole        -10.0228 Ry au,        -25.4755 Debye
        Ion. dipole         -10.0252 Ry au,        -25.4815 Debye
        Dipole               -2.1307 Ry au,         -5.4156 Debye
        Dipole field         -0.0024 Ry au, 

        Potential amp.        0.2302 Ry
        Total length         48.2953 bohr


     total cpu time spent up to now is    39267.2 secs

     total energy              =  -33081.83378941 Ry
     estimated scf accuracy    <       0.00399804 Ry

     total magnetization       =     1.99 Bohr mag/cell
     absolute magnetization    =     2.01 Bohr mag/cell

     iteration # 38     ecut=    60.00 Ry     beta= 0.70
     Davidson diagonalization with overlap

---- Real-time Memory Report at c_bands before calling an iterative solver
          1804 MiB given to the printing process from OS
          1341 MiB allocation reported by mallinfo(arena+hblkhd)
        397145 MiB available memory on the node where the printing process lives
------------------
     ethr =  6.11E-07,  avg # of iterations =  2.0

     negative rho (up, down):  8.367E-04 1.098E-03

     Adding external electric field

     Computed dipole along edir(3) : 
        Elec. dipole        -10.0229 Ry au,        -25.4755 Debye
        Ion. dipole         -10.0252 Ry au,        -25.4815 Debye
        Dipole               -2.1097 Ry au,         -5.3623 Debye
        Dipole field         -0.0024 Ry au, 

        Potential amp.        0.2279 Ry
        Total length         48.2953 bohr


     Adding external electric field

     Computed dipole along edir(3) : 
        Elec. dipole        -10.0229 Ry au,        -25.4755 Debye
        Ion. dipole         -10.0252 Ry au,        -25.4815 Debye
        Dipole               -2.1097 Ry au,         -5.3623 Debye
        Dipole field         -0.0024 Ry au, 

        Potential amp.        0.2279 Ry
        Total length         48.2953 bohr


     total cpu time spent up to now is    40340.9 secs

     total energy              =  -33081.83377432 Ry
     estimated scf accuracy    <       0.00390598 Ry

     total magnetization       =     1.98 Bohr mag/cell
     absolute magnetization    =     2.00 Bohr mag/cell

     iteration # 39     ecut=    60.00 Ry     beta= 0.70
     Davidson diagonalization with overlap

---- Real-time Memory Report at c_bands before calling an iterative solver
          1804 MiB given to the printing process from OS
          1341 MiB allocation reported by mallinfo(arena+hblkhd)
        397163 MiB available memory on the node where the printing process lives
------------------
     ethr =  5.97E-07,  avg # of iterations =  2.9

     negative rho (up, down):  2.823E-03 3.015E-03

     Adding external electric field

     Computed dipole along edir(3) : 
        Elec. dipole        -10.0229 Ry au,        -25.4756 Debye
        Ion. dipole         -10.0252 Ry au,        -25.4815 Debye
        Dipole               -2.0855 Ry au,         -5.3007 Debye
        Dipole field         -0.0023 Ry au, 

        Potential amp.        0.2253 Ry
        Total length         48.2953 bohr


     Adding external electric field

     Computed dipole along edir(3) : 
        Elec. dipole        -10.0229 Ry au,        -25.4756 Debye
        Ion. dipole         -10.0252 Ry au,        -25.4815 Debye
        Dipole               -2.0855 Ry au,         -5.3007 Debye
        Dipole field         -0.0023 Ry au, 

        Potential amp.        0.2253 Ry
        Total length         48.2953 bohr


     total cpu time spent up to now is    41431.2 secs

     total energy              =  -33081.83352272 Ry
     estimated scf accuracy    <       0.00238312 Ry

     total magnetization       =     1.97 Bohr mag/cell
     absolute magnetization    =     1.99 Bohr mag/cell

     iteration # 40     ecut=    60.00 Ry     beta= 0.70
     Davidson diagonalization with overlap

---- Real-time Memory Report at c_bands before calling an iterative solver
          1804 MiB given to the printing process from OS
          1341 MiB allocation reported by mallinfo(arena+hblkhd)
        397166 MiB available memory on the node where the printing process lives
------------------
     ethr =  3.64E-07,  avg # of iterations =  7.3

     negative rho (up, down):  2.698E-03 2.796E-03

     Adding external electric field

     Computed dipole along edir(3) : 
        Elec. dipole        -10.0229 Ry au,        -25.4756 Debye
        Ion. dipole         -10.0252 Ry au,        -25.4815 Debye
        Dipole               -2.0947 Ry au,         -5.3243 Debye
        Dipole field         -0.0023 Ry au, 

        Potential amp.        0.2263 Ry
        Total length         48.2953 bohr


     Adding external electric field

     Computed dipole along edir(3) : 
        Elec. dipole        -10.0229 Ry au,        -25.4756 Debye
        Ion. dipole         -10.0252 Ry au,        -25.4815 Debye
        Dipole               -2.0947 Ry au,         -5.3243 Debye
        Dipole field         -0.0023 Ry au, 

        Potential amp.        0.2263 Ry
        Total length         48.2953 bohr


     total cpu time spent up to now is    42599.5 secs

     total energy              =  -33081.83351409 Ry
     estimated scf accuracy    <       0.00237260 Ry

     total magnetization       =     1.90 Bohr mag/cell
     absolute magnetization    =     1.93 Bohr mag/cell

     iteration # 41     ecut=    60.00 Ry     beta= 0.70
     Davidson diagonalization with overlap

---- Real-time Memory Report at c_bands before calling an iterative solver
          1804 MiB given to the printing process from OS
          1341 MiB allocation reported by mallinfo(arena+hblkhd)
        397128 MiB available memory on the node where the printing process lives
------------------
     ethr =  3.63E-07,  avg # of iterations =  2.0

     negative rho (up, down):  2.544E-03 2.637E-03

     Adding external electric field

     Computed dipole along edir(3) : 
        Elec. dipole        -10.0228 Ry au,        -25.4755 Debye
        Ion. dipole         -10.0252 Ry au,        -25.4815 Debye
        Dipole               -2.1134 Ry au,         -5.3718 Debye
        Dipole field         -0.0024 Ry au, 

        Potential amp.        0.2283 Ry
        Total length         48.2953 bohr


     Adding external electric field

     Computed dipole along edir(3) : 
        Elec. dipole        -10.0228 Ry au,        -25.4755 Debye
        Ion. dipole         -10.0252 Ry au,        -25.4815 Debye
        Dipole               -2.1134 Ry au,         -5.3718 Debye
        Dipole field         -0.0024 Ry au, 

        Potential amp.        0.2283 Ry
        Total length         48.2953 bohr


     total cpu time spent up to now is    43674.3 secs

     total energy              =  -33081.83379620 Ry
     estimated scf accuracy    <       0.00201680 Ry

     total magnetization       =     1.91 Bohr mag/cell
     absolute magnetization    =     1.93 Bohr mag/cell

     iteration # 42     ecut=    60.00 Ry     beta= 0.70
     Davidson diagonalization with overlap

---- Real-time Memory Report at c_bands before calling an iterative solver
          1804 MiB given to the printing process from OS
          1341 MiB allocation reported by mallinfo(arena+hblkhd)
        397155 MiB available memory on the node where the printing process lives
------------------
     ethr =  3.08E-07,  avg # of iterations =  2.9

     negative rho (up, down):  1.566E-03 1.640E-03

     Adding external electric field

     Computed dipole along edir(3) : 
        Elec. dipole        -10.0228 Ry au,        -25.4755 Debye
        Ion. dipole         -10.0252 Ry au,        -25.4815 Debye
        Dipole               -2.1390 Ry au,         -5.4368 Debye
        Dipole field         -0.0024 Ry au, 

        Potential amp.        0.2311 Ry
        Total length         48.2953 bohr


     Adding external electric field

     Computed dipole along edir(3) : 
        Elec. dipole        -10.0228 Ry au,        -25.4755 Debye
        Ion. dipole         -10.0252 Ry au,        -25.4815 Debye
        Dipole               -2.1390 Ry au,         -5.4368 Debye
        Dipole field         -0.0024 Ry au, 

        Potential amp.        0.2311 Ry
        Total length         48.2953 bohr


     total cpu time spent up to now is    44759.1 secs

     total energy              =  -33081.83428953 Ry
     estimated scf accuracy    <       0.00134347 Ry

     total magnetization       =     1.96 Bohr mag/cell
     absolute magnetization    =     1.98 Bohr mag/cell

     iteration # 43     ecut=    60.00 Ry     beta= 0.70
     Davidson diagonalization with overlap

---- Real-time Memory Report at c_bands before calling an iterative solver
          1804 MiB given to the printing process from OS
          1341 MiB allocation reported by mallinfo(arena+hblkhd)
        397159 MiB available memory on the node where the printing process lives
------------------
     ethr =  2.05E-07,  avg # of iterations =  3.3

     negative rho (up, down):  1.255E-03 1.259E-03

     Adding external electric field

     Computed dipole along edir(3) : 
        Elec. dipole        -10.0228 Ry au,        -25.4754 Debye
        Ion. dipole         -10.0252 Ry au,        -25.4815 Debye
        Dipole               -2.1567 Ry au,         -5.4819 Debye
        Dipole field         -0.0024 Ry au, 

        Potential amp.        0.2330 Ry
        Total length         48.2953 bohr


     Adding external electric field

     Computed dipole along edir(3) : 
        Elec. dipole        -10.0228 Ry au,        -25.4754 Debye
        Ion. dipole         -10.0252 Ry au,        -25.4815 Debye
        Dipole               -2.1567 Ry au,         -5.4819 Debye
        Dipole field         -0.0024 Ry au, 

        Potential amp.        0.2330 Ry
        Total length         48.2953 bohr


     total cpu time spent up to now is    45852.0 secs

     total energy              =  -33081.83456009 Ry
     estimated scf accuracy    <       0.00228579 Ry

     total magnetization       =     1.98 Bohr mag/cell
     absolute magnetization    =     2.00 Bohr mag/cell

     iteration # 44     ecut=    60.00 Ry     beta= 0.70
     Davidson diagonalization with overlap

---- Real-time Memory Report at c_bands before calling an iterative solver
          1804 MiB given to the printing process from OS
          1341 MiB allocation reported by mallinfo(arena+hblkhd)
        397157 MiB available memory on the node where the printing process lives
------------------
     ethr =  2.05E-07,  avg # of iterations =  5.0

     negative rho (up, down):  1.199E-03 1.183E-03

     Adding external electric field

     Computed dipole along edir(3) : 
        Elec. dipole        -10.0228 Ry au,        -25.4754 Debye
        Ion. dipole         -10.0252 Ry au,        -25.4815 Debye
        Dipole               -2.1515 Ry au,         -5.4686 Debye
        Dipole field         -0.0024 Ry au, 

        Potential amp.        0.2325 Ry
        Total length         48.2953 bohr


     Adding external electric field

     Computed dipole along edir(3) : 
        Elec. dipole        -10.0228 Ry au,        -25.4754 Debye
        Ion. dipole         -10.0252 Ry au,        -25.4815 Debye
        Dipole               -2.1515 Ry au,         -5.4686 Debye
        Dipole field         -0.0024 Ry au, 

        Potential amp.        0.2325 Ry
        Total length         48.2953 bohr


     total cpu time spent up to now is    46964.9 secs

     total energy              =  -33081.83477382 Ry
     estimated scf accuracy    <       0.00420809 Ry

     total magnetization       =     1.99 Bohr mag/cell
     absolute magnetization    =     2.02 Bohr mag/cell

     iteration # 45     ecut=    60.00 Ry     beta= 0.70
     Davidson diagonalization with overlap

---- Real-time Memory Report at c_bands before calling an iterative solver
          1804 MiB given to the printing process from OS
          1341 MiB allocation reported by mallinfo(arena+hblkhd)
        397168 MiB available memory on the node where the printing process lives
------------------
     ethr =  2.05E-07,  avg # of iterations =  2.0

     negative rho (up, down):  2.615E-03 2.583E-03

     Adding external electric field

     Computed dipole along edir(3) : 
        Elec. dipole        -10.0228 Ry au,        -25.4755 Debye
        Ion. dipole         -10.0252 Ry au,        -25.4815 Debye
        Dipole               -2.1349 Ry au,         -5.4264 Debye
        Dipole field         -0.0024 Ry au, 

        Potential amp.        0.2307 Ry
        Total length         48.2953 bohr


     Adding external electric field

     Computed dipole along edir(3) : 
        Elec. dipole        -10.0228 Ry au,        -25.4755 Debye
        Ion. dipole         -10.0252 Ry au,        -25.4815 Debye
        Dipole               -2.1349 Ry au,         -5.4264 Debye
        Dipole field         -0.0024 Ry au, 

        Potential amp.        0.2307 Ry
        Total length         48.2953 bohr


     total cpu time spent up to now is    48036.8 secs

     total energy              =  -33081.83432420 Ry
     estimated scf accuracy    <       0.00492416 Ry

     total magnetization       =     2.00 Bohr mag/cell
     absolute magnetization    =     2.02 Bohr mag/cell

     iteration # 46     ecut=    60.00 Ry     beta= 0.70
     Davidson diagonalization with overlap

---- Real-time Memory Report at c_bands before calling an iterative solver
          1804 MiB given to the printing process from OS
          1341 MiB allocation reported by mallinfo(arena+hblkhd)
        397141 MiB available memory on the node where the printing process lives
------------------
     ethr =  2.05E-07,  avg # of iterations =  5.6

     negative rho (up, down):  2.793E-03 2.761E-03

     Adding external electric field

     Computed dipole along edir(3) : 
        Elec. dipole        -10.0228 Ry au,        -25.4755 Debye
        Ion. dipole         -10.0252 Ry au,        -25.4815 Debye
        Dipole               -2.1364 Ry au,         -5.4301 Debye
        Dipole field         -0.0024 Ry au, 

        Potential amp.        0.2308 Ry
        Total length         48.2953 bohr


     Adding external electric field

     Computed dipole along edir(3) : 
        Elec. dipole        -10.0228 Ry au,        -25.4755 Debye
        Ion. dipole         -10.0252 Ry au,        -25.4815 Debye
        Dipole               -2.1364 Ry au,         -5.4301 Debye
        Dipole field         -0.0024 Ry au, 

        Potential amp.        0.2308 Ry
        Total length         48.2953 bohr


     total cpu time spent up to now is    49171.7 secs

     total energy              =  -33081.83553534 Ry
     estimated scf accuracy    <       0.00642663 Ry

     total magnetization       =     2.00 Bohr mag/cell
     absolute magnetization    =     2.03 Bohr mag/cell

     iteration # 47     ecut=    60.00 Ry     beta= 0.70
     Davidson diagonalization with overlap

---- Real-time Memory Report at c_bands before calling an iterative solver
          1804 MiB given to the printing process from OS
          1341 MiB allocation reported by mallinfo(arena+hblkhd)
        397153 MiB available memory on the node where the printing process lives
------------------
     ethr =  2.05E-07,  avg # of iterations =  2.0

     negative rho (up, down):  4.081E-03 4.050E-03

     Adding external electric field

     Computed dipole along edir(3) : 
        Elec. dipole        -10.0228 Ry au,        -25.4755 Debye
        Ion. dipole         -10.0252 Ry au,        -25.4815 Debye
        Dipole               -2.1173 Ry au,         -5.3817 Debye
        Dipole field         -0.0024 Ry au, 

        Potential amp.        0.2288 Ry
        Total length         48.2953 bohr


     Adding external electric field

     Computed dipole along edir(3) : 
        Elec. dipole        -10.0228 Ry au,        -25.4755 Debye
        Ion. dipole         -10.0252 Ry au,        -25.4815 Debye
        Dipole               -2.1173 Ry au,         -5.3817 Debye
        Dipole field         -0.0024 Ry au, 

        Potential amp.        0.2288 Ry
        Total length         48.2953 bohr


     total cpu time spent up to now is    50237.7 secs

     total energy              =  -33081.83557306 Ry
     estimated scf accuracy    <       0.00642449 Ry

     total magnetization       =     2.00 Bohr mag/cell
     absolute magnetization    =     2.03 Bohr mag/cell

     iteration # 48     ecut=    60.00 Ry     beta= 0.70
     Davidson diagonalization with overlap

---- Real-time Memory Report at c_bands before calling an iterative solver
          1804 MiB given to the printing process from OS
          1341 MiB allocation reported by mallinfo(arena+hblkhd)
        397113 MiB available memory on the node where the printing process lives
------------------
     ethr =  2.05E-07,  avg # of iterations =  6.3

     negative rho (up, down):  4.075E-03 4.049E-03

     Adding external electric field

     Computed dipole along edir(3) : 
        Elec. dipole        -10.0228 Ry au,        -25.4755 Debye
        Ion. dipole         -10.0252 Ry au,        -25.4815 Debye
        Dipole               -2.1198 Ry au,         -5.3880 Debye
        Dipole field         -0.0024 Ry au, 

        Potential amp.        0.2290 Ry
        Total length         48.2953 bohr


     Adding external electric field

     Computed dipole along edir(3) : 
        Elec. dipole        -10.0228 Ry au,        -25.4755 Debye
        Ion. dipole         -10.0252 Ry au,        -25.4815 Debye
        Dipole               -2.1198 Ry au,         -5.3880 Debye
        Dipole field         -0.0024 Ry au, 

        Potential amp.        0.2290 Ry
        Total length         48.2953 bohr


     total cpu time spent up to now is    51365.6 secs

     total energy              =  -33081.83574203 Ry
     estimated scf accuracy    <       0.00665266 Ry

     total magnetization       =     2.00 Bohr mag/cell
     absolute magnetization    =     2.04 Bohr mag/cell

     iteration # 49     ecut=    60.00 Ry     beta= 0.70
     Davidson diagonalization with overlap

---- Real-time Memory Report at c_bands before calling an iterative solver
          1804 MiB given to the printing process from OS
          1341 MiB allocation reported by mallinfo(arena+hblkhd)
        397150 MiB available memory on the node where the printing process lives
------------------
     ethr =  2.05E-07,  avg # of iterations =  2.4

     negative rho (up, down):  4.978E-03 4.951E-03

     Adding external electric field

     Computed dipole along edir(3) : 
        Elec. dipole        -10.0229 Ry au,        -25.4756 Debye
        Ion. dipole         -10.0252 Ry au,        -25.4815 Debye
        Dipole               -2.1030 Ry au,         -5.3453 Debye
        Dipole field         -0.0024 Ry au, 

        Potential amp.        0.2272 Ry
        Total length         48.2953 bohr


     Adding external electric field

     Computed dipole along edir(3) : 
        Elec. dipole        -10.0229 Ry au,        -25.4756 Debye
        Ion. dipole         -10.0252 Ry au,        -25.4815 Debye
        Dipole               -2.1030 Ry au,         -5.3453 Debye
        Dipole field         -0.0024 Ry au, 

        Potential amp.        0.2272 Ry
        Total length         48.2953 bohr


     total cpu time spent up to now is    52432.7 secs

     total energy              =  -33081.83575750 Ry
     estimated scf accuracy    <       0.00662569 Ry

     total magnetization       =     2.00 Bohr mag/cell
     absolute magnetization    =     2.04 Bohr mag/cell

     iteration # 50     ecut=    60.00 Ry     beta= 0.70
     Davidson diagonalization with overlap

---- Real-time Memory Report at c_bands before calling an iterative solver
          1804 MiB given to the printing process from OS
          1341 MiB allocation reported by mallinfo(arena+hblkhd)
        397151 MiB available memory on the node where the printing process lives
------------------
     ethr =  2.05E-07,  avg # of iterations =  3.6

     negative rho (up, down):  4.507E-03 4.481E-03

     Adding external electric field

     Computed dipole along edir(3) : 
        Elec. dipole        -10.0229 Ry au,        -25.4756 Debye
        Ion. dipole         -10.0252 Ry au,        -25.4815 Debye
        Dipole               -2.0907 Ry au,         -5.3140 Debye
        Dipole field         -0.0023 Ry au, 

        Potential amp.        0.2259 Ry
        Total length         48.2953 bohr


     Adding external electric field

     Computed dipole along edir(3) : 
        Elec. dipole        -10.0229 Ry au,        -25.4756 Debye
        Ion. dipole         -10.0252 Ry au,        -25.4815 Debye
        Dipole               -2.0907 Ry au,         -5.3140 Debye
        Dipole field         -0.0023 Ry au, 

        Potential amp.        0.2259 Ry
        Total length         48.2953 bohr


     total cpu time spent up to now is    53516.6 secs

     total energy              =  -33081.83557756 Ry
     estimated scf accuracy    <       0.00930951 Ry

     total magnetization       =     2.00 Bohr mag/cell
     absolute magnetization    =     2.04 Bohr mag/cell

     iteration # 51     ecut=    60.00 Ry     beta= 0.70
     Davidson diagonalization with overlap

---- Real-time Memory Report at c_bands before calling an iterative solver
          1804 MiB given to the printing process from OS
          1341 MiB allocation reported by mallinfo(arena+hblkhd)
        397130 MiB available memory on the node where the printing process lives
------------------
     ethr =  2.05E-07,  avg # of iterations =  3.3

     negative rho (up, down):  4.538E-03 4.512E-03

     Adding external electric field

     Computed dipole along edir(3) : 
        Elec. dipole        -10.0229 Ry au,        -25.4756 Debye
        Ion. dipole         -10.0252 Ry au,        -25.4815 Debye
        Dipole               -2.0871 Ry au,         -5.3049 Debye
        Dipole field         -0.0023 Ry au, 

        Potential amp.        0.2255 Ry
        Total length         48.2953 bohr


     Adding external electric field

     Computed dipole along edir(3) : 
        Elec. dipole        -10.0229 Ry au,        -25.4756 Debye
        Ion. dipole         -10.0252 Ry au,        -25.4815 Debye
        Dipole               -2.0871 Ry au,         -5.3049 Debye
        Dipole field         -0.0023 Ry au, 

        Potential amp.        0.2255 Ry
        Total length         48.2953 bohr


     total cpu time spent up to now is    54594.7 secs

     total energy              =  -33081.83566635 Ry
     estimated scf accuracy    <       0.00738243 Ry

     total magnetization       =     2.00 Bohr mag/cell
     absolute magnetization    =     2.04 Bohr mag/cell

     iteration # 52     ecut=    60.00 Ry     beta= 0.70
     Davidson diagonalization with overlap

---- Real-time Memory Report at c_bands before calling an iterative solver
          1804 MiB given to the printing process from OS
          1341 MiB allocation reported by mallinfo(arena+hblkhd)
        397159 MiB available memory on the node where the printing process lives
------------------
     ethr =  2.05E-07,  avg # of iterations =  1.8

     negative rho (up, down):  4.694E-03 4.659E-03

     Adding external electric field

     Computed dipole along edir(3) : 
        Elec. dipole        -10.0228 Ry au,        -25.4755 Debye
        Ion. dipole         -10.0252 Ry au,        -25.4815 Debye
        Dipole               -2.1358 Ry au,         -5.4285 Debye
        Dipole field         -0.0024 Ry au, 

        Potential amp.        0.2308 Ry
        Total length         48.2953 bohr


     Adding external electric field

     Computed dipole along edir(3) : 
        Elec. dipole        -10.0228 Ry au,        -25.4755 Debye
        Ion. dipole         -10.0252 Ry au,        -25.4815 Debye
        Dipole               -2.1358 Ry au,         -5.4285 Debye
        Dipole field         -0.0024 Ry au, 

        Potential amp.        0.2308 Ry
        Total length         48.2953 bohr


     total cpu time spent up to now is    55631.4 secs

     total energy              =  -33081.83551597 Ry
     estimated scf accuracy    <       0.00754229 Ry

     total magnetization       =     2.00 Bohr mag/cell
     absolute magnetization    =     2.04 Bohr mag/cell

     iteration # 53     ecut=    60.00 Ry     beta= 0.70
     Davidson diagonalization with overlap

---- Real-time Memory Report at c_bands before calling an iterative solver
          1804 MiB given to the printing process from OS
          1341 MiB allocation reported by mallinfo(arena+hblkhd)
        397154 MiB available memory on the node where the printing process lives
------------------
     ethr =  2.05E-07,  avg # of iterations =  4.3

     negative rho (up, down):  4.929E-03 4.901E-03

     Adding external electric field

     Computed dipole along edir(3) : 
        Elec. dipole        -10.0229 Ry au,        -25.4756 Debye
        Ion. dipole         -10.0252 Ry au,        -25.4815 Debye
        Dipole               -2.0959 Ry au,         -5.3271 Debye
        Dipole field         -0.0023 Ry au, 

        Potential amp.        0.2264 Ry
        Total length         48.2953 bohr


     Adding external electric field

     Computed dipole along edir(3) : 
        Elec. dipole        -10.0229 Ry au,        -25.4756 Debye
        Ion. dipole         -10.0252 Ry au,        -25.4815 Debye
        Dipole               -2.0959 Ry au,         -5.3271 Debye
        Dipole field         -0.0023 Ry au, 

        Potential amp.        0.2264 Ry
        Total length         48.2953 bohr


     total cpu time spent up to now is    56735.3 secs

     total energy              =  -33081.83535047 Ry
     estimated scf accuracy    <       0.00727722 Ry

     total magnetization       =     2.00 Bohr mag/cell
     absolute magnetization    =     2.04 Bohr mag/cell

     iteration # 54     ecut=    60.00 Ry     beta= 0.70
     Davidson diagonalization with overlap

---- Real-time Memory Report at c_bands before calling an iterative solver
          1804 MiB given to the printing process from OS
          1341 MiB allocation reported by mallinfo(arena+hblkhd)
        397126 MiB available memory on the node where the printing process lives
------------------
     ethr =  2.05E-07,  avg # of iterations =  4.0

     negative rho (up, down):  3.225E-03 3.220E-03

     Adding external electric field

     Computed dipole along edir(3) : 
        Elec. dipole        -10.0230 Ry au,        -25.4758 Debye
        Ion. dipole         -10.0252 Ry au,        -25.4815 Debye
        Dipole               -2.0171 Ry au,         -5.1269 Debye
        Dipole field         -0.0023 Ry au, 

        Potential amp.        0.2179 Ry
        Total length         48.2953 bohr


     Adding external electric field

     Computed dipole along edir(3) : 
        Elec. dipole        -10.0230 Ry au,        -25.4758 Debye
        Ion. dipole         -10.0252 Ry au,        -25.4815 Debye
        Dipole               -2.0171 Ry au,         -5.1269 Debye
        Dipole field         -0.0023 Ry au, 

        Potential amp.        0.2179 Ry
        Total length         48.2953 bohr


     total cpu time spent up to now is    57828.9 secs

     total energy              =  -33081.83056817 Ry
     estimated scf accuracy    <       0.00823001 Ry

     total magnetization       =     2.00 Bohr mag/cell
     absolute magnetization    =     2.04 Bohr mag/cell

     iteration # 55     ecut=    60.00 Ry     beta= 0.70
     Davidson diagonalization with overlap

---- Real-time Memory Report at c_bands before calling an iterative solver
          1804 MiB given to the printing process from OS
          1341 MiB allocation reported by mallinfo(arena+hblkhd)
        397141 MiB available memory on the node where the printing process lives
------------------
     ethr =  2.05E-07,  avg # of iterations =  7.1

     negative rho (up, down):  6.604E-04 6.922E-04

     Adding external electric field

     Computed dipole along edir(3) : 
        Elec. dipole        -10.0229 Ry au,        -25.4757 Debye
        Ion. dipole         -10.0252 Ry au,        -25.4815 Debye
        Dipole               -2.0728 Ry au,         -5.2685 Debye
        Dipole field         -0.0023 Ry au, 

        Potential amp.        0.2240 Ry
        Total length         48.2953 bohr


     Adding external electric field

     Computed dipole along edir(3) : 
        Elec. dipole        -10.0229 Ry au,        -25.4757 Debye
        Ion. dipole         -10.0252 Ry au,        -25.4815 Debye
        Dipole               -2.0728 Ry au,         -5.2685 Debye
        Dipole field         -0.0023 Ry au, 

        Potential amp.        0.2240 Ry
        Total length         48.2953 bohr


     total cpu time spent up to now is    59009.7 secs

     total energy              =  -33081.83069567 Ry
     estimated scf accuracy    <       0.00764747 Ry

     total magnetization       =     2.00 Bohr mag/cell
     absolute magnetization    =     2.02 Bohr mag/cell

     iteration # 56     ecut=    60.00 Ry     beta= 0.70
     Davidson diagonalization with overlap

---- Real-time Memory Report at c_bands before calling an iterative solver
          1804 MiB given to the printing process from OS
          1341 MiB allocation reported by mallinfo(arena+hblkhd)
        397146 MiB available memory on the node where the printing process lives
------------------
     ethr =  2.05E-07,  avg # of iterations =  6.2

     negative rho (up, down):  5.425E-04 7.985E-04

     Adding external electric field

     Computed dipole along edir(3) : 
        Elec. dipole        -10.0229 Ry au,        -25.4758 Debye
        Ion. dipole         -10.0252 Ry au,        -25.4815 Debye
        Dipole               -2.0307 Ry au,         -5.1616 Debye
        Dipole field         -0.0023 Ry au, 

        Potential amp.        0.2194 Ry
        Total length         48.2953 bohr


     Adding external electric field

     Computed dipole along edir(3) : 
        Elec. dipole        -10.0229 Ry au,        -25.4758 Debye
        Ion. dipole         -10.0252 Ry au,        -25.4815 Debye
        Dipole               -2.0307 Ry au,         -5.1616 Debye
        Dipole field         -0.0023 Ry au, 

        Potential amp.        0.2194 Ry
        Total length         48.2953 bohr


     total cpu time spent up to now is    60164.0 secs

     total energy              =  -33081.83274339 Ry
     estimated scf accuracy    <       0.00114188 Ry

     total magnetization       =     1.97 Bohr mag/cell
     absolute magnetization    =     1.99 Bohr mag/cell

     iteration # 57     ecut=    60.00 Ry     beta= 0.70
     Davidson diagonalization with overlap

---- Real-time Memory Report at c_bands before calling an iterative solver
          1804 MiB given to the printing process from OS
          1341 MiB allocation reported by mallinfo(arena+hblkhd)
        397143 MiB available memory on the node where the printing process lives
------------------
     c_bands:  1 eigenvalues not converged
     c_bands:  1 eigenvalues not converged
     ethr =  1.75E-07,  avg # of iterations =  8.7

     negative rho (up, down):  1.864E-03 1.855E-03

     Adding external electric field

     Computed dipole along edir(3) : 
        Elec. dipole        -10.0229 Ry au,        -25.4756 Debye
        Ion. dipole         -10.0252 Ry au,        -25.4815 Debye
        Dipole               -2.0908 Ry au,         -5.3142 Debye
        Dipole field         -0.0023 Ry au, 

        Potential amp.        0.2259 Ry
        Total length         48.2953 bohr


     Adding external electric field

     Computed dipole along edir(3) : 
        Elec. dipole        -10.0229 Ry au,        -25.4756 Debye
        Ion. dipole         -10.0252 Ry au,        -25.4815 Debye
        Dipole               -2.0908 Ry au,         -5.3142 Debye
        Dipole field         -0.0023 Ry au, 

        Potential amp.        0.2259 Ry
        Total length         48.2953 bohr


     total cpu time spent up to now is    61335.4 secs

     total energy              =  -33081.82609437 Ry
     estimated scf accuracy    <       0.03206536 Ry

     total magnetization       =     1.81 Bohr mag/cell
     absolute magnetization    =     1.84 Bohr mag/cell

     iteration # 58     ecut=    60.00 Ry     beta= 0.70
     Davidson diagonalization with overlap

---- Real-time Memory Report at c_bands before calling an iterative solver
          1804 MiB given to the printing process from OS
          1341 MiB allocation reported by mallinfo(arena+hblkhd)
        397148 MiB available memory on the node where the printing process lives
------------------
     c_bands:  1 eigenvalues not converged
     c_bands:  2 eigenvalues not converged
     c_bands:  1 eigenvalues not converged
     c_bands:  1 eigenvalues not converged
     c_bands:  1 eigenvalues not converged
     c_bands:  1 eigenvalues not converged
     c_bands:  1 eigenvalues not converged
     ethr =  1.75E-07,  avg # of iterations =  9.2

     negative rho (up, down):  1.277E-03 1.267E-03

     Adding external electric field

     Computed dipole along edir(3) : 
        Elec. dipole        -10.0228 Ry au,        -25.4755 Debye
        Ion. dipole         -10.0252 Ry au,        -25.4815 Debye
        Dipole               -2.1298 Ry au,         -5.4135 Debye
        Dipole field         -0.0024 Ry au, 

        Potential amp.        0.2301 Ry
        Total length         48.2953 bohr


     Adding external electric field

     Computed dipole along edir(3) : 
        Elec. dipole        -10.0228 Ry au,        -25.4755 Debye
        Ion. dipole         -10.0252 Ry au,        -25.4815 Debye
        Dipole               -2.1298 Ry au,         -5.4135 Debye
        Dipole field         -0.0024 Ry au, 

        Potential amp.        0.2301 Ry
        Total length         48.2953 bohr


     total cpu time spent up to now is    62561.4 secs

     total energy              =  -33081.83464820 Ry
     estimated scf accuracy    <       0.00354666 Ry

     total magnetization       =     2.00 Bohr mag/cell
     absolute magnetization    =     2.03 Bohr mag/cell

     iteration # 59     ecut=    60.00 Ry     beta= 0.70
     Davidson diagonalization with overlap

---- Real-time Memory Report at c_bands before calling an iterative solver
          1804 MiB given to the printing process from OS
          1341 MiB allocation reported by mallinfo(arena+hblkhd)
        397162 MiB available memory on the node where the printing process lives
------------------
     ethr =  1.75E-07,  avg # of iterations =  6.0

     negative rho (up, down):  1.124E-03 1.116E-03

     Adding external electric field

     Computed dipole along edir(3) : 
        Elec. dipole        -10.0228 Ry au,        -25.4754 Debye
        Ion. dipole         -10.0252 Ry au,        -25.4815 Debye
        Dipole               -2.1569 Ry au,         -5.4822 Debye
        Dipole field         -0.0024 Ry au, 

        Potential amp.        0.2330 Ry
        Total length         48.2953 bohr


     Adding external electric field

     Computed dipole along edir(3) : 
        Elec. dipole        -10.0228 Ry au,        -25.4754 Debye
        Ion. dipole         -10.0252 Ry au,        -25.4815 Debye
        Dipole               -2.1569 Ry au,         -5.4822 Debye
        Dipole field         -0.0024 Ry au, 

        Potential amp.        0.2330 Ry
        Total length         48.2953 bohr


     total cpu time spent up to now is    63671.9 secs

     total energy              =  -33081.83411177 Ry
     estimated scf accuracy    <       0.00408722 Ry

     total magnetization       =     2.00 Bohr mag/cell
     absolute magnetization    =     2.03 Bohr mag/cell

     iteration # 60     ecut=    60.00 Ry     beta= 0.70
     Davidson diagonalization with overlap

---- Real-time Memory Report at c_bands before calling an iterative solver
          1804 MiB given to the printing process from OS
          1341 MiB allocation reported by mallinfo(arena+hblkhd)
        397164 MiB available memory on the node where the printing process lives
------------------
     c_bands:  1 eigenvalues not converged
     ethr =  1.75E-07,  avg # of iterations =  6.5

     negative rho (up, down):  9.794E-04 9.719E-04

     Adding external electric field

     Computed dipole along edir(3) : 
        Elec. dipole        -10.0228 Ry au,        -25.4753 Debye
        Ion. dipole         -10.0252 Ry au,        -25.4815 Debye
        Dipole               -2.1908 Ry au,         -5.5685 Debye
        Dipole field         -0.0025 Ry au, 

        Potential amp.        0.2367 Ry
        Total length         48.2953 bohr


     Adding external electric field

     Computed dipole along edir(3) : 
        Elec. dipole        -10.0228 Ry au,        -25.4753 Debye
        Ion. dipole         -10.0252 Ry au,        -25.4815 Debye
        Dipole               -2.1908 Ry au,         -5.5685 Debye
        Dipole field         -0.0025 Ry au, 

        Potential amp.        0.2367 Ry
        Total length         48.2953 bohr


     total cpu time spent up to now is    64800.2 secs

     total energy              =  -33081.83462680 Ry
     estimated scf accuracy    <       0.00638121 Ry

     total magnetization       =     2.00 Bohr mag/cell
     absolute magnetization    =     2.03 Bohr mag/cell

     iteration # 61     ecut=    60.00 Ry     beta= 0.70
     Davidson diagonalization with overlap

---- Real-time Memory Report at c_bands before calling an iterative solver
          1804 MiB given to the printing process from OS
          1341 MiB allocation reported by mallinfo(arena+hblkhd)
        397153 MiB available memory on the node where the printing process lives
------------------
     c_bands:  1 eigenvalues not converged
     c_bands:  1 eigenvalues not converged
     c_bands:  1 eigenvalues not converged
     c_bands:  1 eigenvalues not converged
     c_bands:  1 eigenvalues not converged
     c_bands:  1 eigenvalues not converged
     c_bands:  1 eigenvalues not converged
     ethr =  1.75E-07,  avg # of iterations =  8.1

     negative rho (up, down):  9.872E-04 9.796E-04

     Adding external electric field

     Computed dipole along edir(3) : 
        Elec. dipole        -10.0228 Ry au,        -25.4754 Debye
        Ion. dipole         -10.0252 Ry au,        -25.4815 Debye
        Dipole               -2.1674 Ry au,         -5.5090 Debye
        Dipole field         -0.0024 Ry au, 

        Potential amp.        0.2342 Ry
        Total length         48.2953 bohr


     Adding external electric field

     Computed dipole along edir(3) : 
        Elec. dipole        -10.0228 Ry au,        -25.4754 Debye
        Ion. dipole         -10.0252 Ry au,        -25.4815 Debye
        Dipole               -2.1674 Ry au,         -5.5090 Debye
        Dipole field         -0.0024 Ry au, 

        Potential amp.        0.2342 Ry
        Total length         48.2953 bohr


     total cpu time spent up to now is    65952.7 secs

     total energy              =  -33081.83519240 Ry
     estimated scf accuracy    <       0.00866995 Ry

     total magnetization       =     2.00 Bohr mag/cell
     absolute magnetization    =     2.03 Bohr mag/cell

     iteration # 62     ecut=    60.00 Ry     beta= 0.70
     Davidson diagonalization with overlap

---- Real-time Memory Report at c_bands before calling an iterative solver
          1804 MiB given to the printing process from OS
          1341 MiB allocation reported by mallinfo(arena+hblkhd)
        397141 MiB available memory on the node where the printing process lives
------------------
     ethr =  1.75E-07,  avg # of iterations =  4.6

     negative rho (up, down):  1.114E-03 1.105E-03

     Adding external electric field

     Computed dipole along edir(3) : 
        Elec. dipole        -10.0228 Ry au,        -25.4754 Debye
        Ion. dipole         -10.0252 Ry au,        -25.4815 Debye
        Dipole               -2.1784 Ry au,         -5.5368 Debye
        Dipole field         -0.0024 Ry au, 

        Potential amp.        0.2354 Ry
        Total length         48.2953 bohr


     Adding external electric field

     Computed dipole along edir(3) : 
        Elec. dipole        -10.0228 Ry au,        -25.4754 Debye
        Ion. dipole         -10.0252 Ry au,        -25.4815 Debye
        Dipole               -2.1784 Ry au,         -5.5368 Debye
        Dipole field         -0.0024 Ry au, 

        Potential amp.        0.2354 Ry
        Total length         48.2953 bohr


     total cpu time spent up to now is    67034.1 secs

     total energy              =  -33081.83551838 Ry
     estimated scf accuracy    <       0.00769368 Ry

     total magnetization       =     2.00 Bohr mag/cell
     absolute magnetization    =     2.03 Bohr mag/cell

     iteration # 63     ecut=    60.00 Ry     beta= 0.70
     Davidson diagonalization with overlap

---- Real-time Memory Report at c_bands before calling an iterative solver
          1804 MiB given to the printing process from OS
          1341 MiB allocation reported by mallinfo(arena+hblkhd)
        397153 MiB available memory on the node where the printing process lives
------------------
     ethr =  1.75E-07,  avg # of iterations =  4.3

     negative rho (up, down):  1.063E-03 1.055E-03

     Adding external electric field

     Computed dipole along edir(3) : 
        Elec. dipole        -10.0228 Ry au,        -25.4754 Debye
        Ion. dipole         -10.0252 Ry au,        -25.4815 Debye
        Dipole               -2.1679 Ry au,         -5.5102 Debye
        Dipole field         -0.0024 Ry au, 

        Potential amp.        0.2342 Ry
        Total length         48.2953 bohr


     Adding external electric field

     Computed dipole along edir(3) : 
        Elec. dipole        -10.0228 Ry au,        -25.4754 Debye
        Ion. dipole         -10.0252 Ry au,        -25.4815 Debye
        Dipole               -2.1679 Ry au,         -5.5102 Debye
        Dipole field         -0.0024 Ry au, 

        Potential amp.        0.2342 Ry
        Total length         48.2953 bohr


     total cpu time spent up to now is    68107.1 secs

     total energy              =  -33081.83551208 Ry
     estimated scf accuracy    <       0.00822533 Ry

     total magnetization       =     2.00 Bohr mag/cell
     absolute magnetization    =     2.03 Bohr mag/cell

     iteration # 64     ecut=    60.00 Ry     beta= 0.70
     Davidson diagonalization with overlap

---- Real-time Memory Report at c_bands before calling an iterative solver
          1804 MiB given to the printing process from OS
          1341 MiB allocation reported by mallinfo(arena+hblkhd)
        397085 MiB available memory on the node where the printing process lives
------------------
     ethr =  1.75E-07,  avg # of iterations =  3.0

     negative rho (up, down):  1.075E-03 1.067E-03

     Adding external electric field

     Computed dipole along edir(3) : 
        Elec. dipole        -10.0228 Ry au,        -25.4754 Debye
        Ion. dipole         -10.0252 Ry au,        -25.4815 Debye
        Dipole               -2.1690 Ry au,         -5.5131 Debye
        Dipole field         -0.0024 Ry au, 

        Potential amp.        0.2344 Ry
        Total length         48.2953 bohr


     Adding external electric field

     Computed dipole along edir(3) : 
        Elec. dipole        -10.0228 Ry au,        -25.4754 Debye
        Ion. dipole         -10.0252 Ry au,        -25.4815 Debye
        Dipole               -2.1690 Ry au,         -5.5131 Debye
        Dipole field         -0.0024 Ry au, 

        Potential amp.        0.2344 Ry
        Total length         48.2953 bohr


     total cpu time spent up to now is    69162.0 secs

     total energy              =  -33081.83557671 Ry
     estimated scf accuracy    <       0.00781532 Ry

     total magnetization       =     2.00 Bohr mag/cell
     absolute magnetization    =     2.03 Bohr mag/cell

     iteration # 65     ecut=    60.00 Ry     beta= 0.70
     Davidson diagonalization with overlap

---- Real-time Memory Report at c_bands before calling an iterative solver
          1804 MiB given to the printing process from OS
          1341 MiB allocation reported by mallinfo(arena+hblkhd)
        397161 MiB available memory on the node where the printing process lives
------------------
     ethr =  1.75E-07,  avg # of iterations =  1.4

     negative rho (up, down):  1.075E-03 1.067E-03

     Adding external electric field

     Computed dipole along edir(3) : 
        Elec. dipole        -10.0228 Ry au,        -25.4754 Debye
        Ion. dipole         -10.0252 Ry au,        -25.4815 Debye
        Dipole               -2.1719 Ry au,         -5.5203 Debye
        Dipole field         -0.0024 Ry au, 

        Potential amp.        0.2347 Ry
        Total length         48.2953 bohr


     Adding external electric field

     Computed dipole along edir(3) : 
        Elec. dipole        -10.0228 Ry au,        -25.4754 Debye
        Ion. dipole         -10.0252 Ry au,        -25.4815 Debye
        Dipole               -2.1719 Ry au,         -5.5203 Debye
        Dipole field         -0.0024 Ry au, 

        Potential amp.        0.2347 Ry
        Total length         48.2953 bohr


     total cpu time spent up to now is    70123.9 secs

     total energy              =  -33081.83560760 Ry
     estimated scf accuracy    <       0.00776698 Ry

     total magnetization       =     2.00 Bohr mag/cell
     absolute magnetization    =     2.03 Bohr mag/cell

     iteration # 66     ecut=    60.00 Ry     beta= 0.70
     Davidson diagonalization with overlap

---- Real-time Memory Report at c_bands before calling an iterative solver
          1804 MiB given to the printing process from OS
          1341 MiB allocation reported by mallinfo(arena+hblkhd)
        397161 MiB available memory on the node where the printing process lives
------------------
     ethr =  1.75E-07,  avg # of iterations =  1.0

     negative rho (up, down):  1.036E-03 1.028E-03

     Adding external electric field

     Computed dipole along edir(3) : 
        Elec. dipole        -10.0228 Ry au,        -25.4754 Debye
        Ion. dipole         -10.0252 Ry au,        -25.4815 Debye
        Dipole               -2.1636 Ry au,         -5.4993 Debye
        Dipole field         -0.0024 Ry au, 

        Potential amp.        0.2338 Ry
        Total length         48.2953 bohr


     Adding external electric field

     Computed dipole along edir(3) : 
        Elec. dipole        -10.0228 Ry au,        -25.4754 Debye
        Ion. dipole         -10.0252 Ry au,        -25.4815 Debye
        Dipole               -2.1636 Ry au,         -5.4993 Debye
        Dipole field         -0.0024 Ry au, 

        Potential amp.        0.2338 Ry
        Total length         48.2953 bohr


     total cpu time spent up to now is    71026.5 secs

     total energy              =  -33081.83510017 Ry
     estimated scf accuracy    <       0.00778700 Ry

     total magnetization       =     2.00 Bohr mag/cell
     absolute magnetization    =     2.03 Bohr mag/cell

     iteration # 67     ecut=    60.00 Ry     beta= 0.70
     Davidson diagonalization with overlap

---- Real-time Memory Report at c_bands before calling an iterative solver
          1804 MiB given to the printing process from OS
          1341 MiB allocation reported by mallinfo(arena+hblkhd)
        397134 MiB available memory on the node where the printing process lives
------------------
     ethr =  1.75E-07,  avg # of iterations =  4.5

     negative rho (up, down):  1.003E-03 9.964E-04

     Adding external electric field

     Computed dipole along edir(3) : 
        Elec. dipole        -10.0228 Ry au,        -25.4755 Debye
        Ion. dipole         -10.0252 Ry au,        -25.4815 Debye
        Dipole               -2.1244 Ry au,         -5.3997 Debye
        Dipole field         -0.0024 Ry au, 

        Potential amp.        0.2295 Ry
        Total length         48.2953 bohr


     Adding external electric field

     Computed dipole along edir(3) : 
        Elec. dipole        -10.0228 Ry au,        -25.4755 Debye
        Ion. dipole         -10.0252 Ry au,        -25.4815 Debye
        Dipole               -2.1244 Ry au,         -5.3997 Debye
        Dipole field         -0.0024 Ry au, 

        Potential amp.        0.2295 Ry
        Total length         48.2953 bohr


     total cpu time spent up to now is    72107.0 secs

     total energy              =  -33081.83266936 Ry
     estimated scf accuracy    <       0.00650296 Ry

     total magnetization       =     2.00 Bohr mag/cell
     absolute magnetization    =     2.03 Bohr mag/cell

     iteration # 68     ecut=    60.00 Ry     beta= 0.70
     Davidson diagonalization with overlap

---- Real-time Memory Report at c_bands before calling an iterative solver
          1804 MiB given to the printing process from OS
          1341 MiB allocation reported by mallinfo(arena+hblkhd)
        397156 MiB available memory on the node where the printing process lives
------------------
     c_bands:  1 eigenvalues not converged
     ethr =  1.75E-07,  avg # of iterations =  7.3

     negative rho (up, down):  9.135E-04 9.057E-04

     Adding external electric field

     Computed dipole along edir(3) : 
        Elec. dipole        -10.0228 Ry au,        -25.4755 Debye
        Ion. dipole         -10.0252 Ry au,        -25.4815 Debye
        Dipole               -2.1135 Ry au,         -5.3719 Debye
        Dipole field         -0.0024 Ry au, 

        Potential amp.        0.2284 Ry
        Total length         48.2953 bohr


     Adding external electric field

     Computed dipole along edir(3) : 
        Elec. dipole        -10.0228 Ry au,        -25.4755 Debye
        Ion. dipole         -10.0252 Ry au,        -25.4815 Debye
        Dipole               -2.1135 Ry au,         -5.3719 Debye
        Dipole field         -0.0024 Ry au, 

        Potential amp.        0.2284 Ry
        Total length         48.2953 bohr


     total cpu time spent up to now is    73250.6 secs

     total energy              =  -33081.83470839 Ry
     estimated scf accuracy    <       0.00369290 Ry

     total magnetization       =     2.00 Bohr mag/cell
     absolute magnetization    =     2.02 Bohr mag/cell

     iteration # 69     ecut=    60.00 Ry     beta= 0.70
     Davidson diagonalization with overlap

---- Real-time Memory Report at c_bands before calling an iterative solver
          1804 MiB given to the printing process from OS
          1341 MiB allocation reported by mallinfo(arena+hblkhd)
        397157 MiB available memory on the node where the printing process lives
------------------
     ethr =  1.75E-07,  avg # of iterations =  3.0

     negative rho (up, down):  4.547E-04 4.493E-04

     Adding external electric field

     Computed dipole along edir(3) : 
        Elec. dipole        -10.0227 Ry au,        -25.4752 Debye
        Ion. dipole         -10.0252 Ry au,        -25.4815 Debye
        Dipole               -2.2443 Ry au,         -5.7045 Debye
        Dipole field         -0.0025 Ry au, 

        Potential amp.        0.2425 Ry
        Total length         48.2953 bohr


     Adding external electric field

     Computed dipole along edir(3) : 
        Elec. dipole        -10.0227 Ry au,        -25.4752 Debye
        Ion. dipole         -10.0252 Ry au,        -25.4815 Debye
        Dipole               -2.2443 Ry au,         -5.7045 Debye
        Dipole field         -0.0025 Ry au, 

        Potential amp.        0.2425 Ry
        Total length         48.2953 bohr


     total cpu time spent up to now is    74303.9 secs

     total energy              =  -33081.82994232 Ry
     estimated scf accuracy    <       0.00284410 Ry

     total magnetization       =     1.99 Bohr mag/cell
     absolute magnetization    =     2.02 Bohr mag/cell

     iteration # 70     ecut=    60.00 Ry     beta= 0.70
     Davidson diagonalization with overlap

---- Real-time Memory Report at c_bands before calling an iterative solver
          1804 MiB given to the printing process from OS
          1341 MiB allocation reported by mallinfo(arena+hblkhd)
        397158 MiB available memory on the node where the printing process lives
------------------
     c_bands:  2 eigenvalues not converged
     c_bands:  1 eigenvalues not converged
     c_bands:  2 eigenvalues not converged
     c_bands:  1 eigenvalues not converged
     c_bands:  2 eigenvalues not converged
     c_bands:  2 eigenvalues not converged
     ethr =  1.75E-07,  avg # of iterations = 11.2

     negative rho (up, down):  8.973E-04 1.005E-02

     Adding external electric field

     Computed dipole along edir(3) : 
        Elec. dipole        -10.0231 Ry au,        -25.4761 Debye
        Ion. dipole         -10.0252 Ry au,        -25.4815 Debye
        Dipole               -1.9023 Ry au,         -4.8352 Debye
        Dipole field         -0.0021 Ry au, 

        Potential amp.        0.2055 Ry
        Total length         48.2953 bohr


     Adding external electric field

     Computed dipole along edir(3) : 
        Elec. dipole        -10.0231 Ry au,        -25.4761 Debye
        Ion. dipole         -10.0252 Ry au,        -25.4815 Debye
        Dipole               -1.9023 Ry au,         -4.8352 Debye
        Dipole field         -0.0021 Ry au, 

        Potential amp.        0.2055 Ry
        Total length         48.2953 bohr


     total cpu time spent up to now is    75557.6 secs

     total energy              =  -33081.77582416 Ry
     estimated scf accuracy    <       0.00958467 Ry

     total magnetization       =     2.01 Bohr mag/cell
     absolute magnetization    =     2.03 Bohr mag/cell

     iteration # 71     ecut=    60.00 Ry     beta= 0.70
     Davidson diagonalization with overlap

---- Real-time Memory Report at c_bands before calling an iterative solver
          1804 MiB given to the printing process from OS
          1341 MiB allocation reported by mallinfo(arena+hblkhd)
        397157 MiB available memory on the node where the printing process lives
------------------
     ethr =  1.75E-07,  avg # of iterations = 10.8

     negative rho (up, down):  6.739E-04 7.507E-04

     Adding external electric field

     Computed dipole along edir(3) : 
        Elec. dipole        -10.0228 Ry au,        -25.4754 Debye
        Ion. dipole         -10.0252 Ry au,        -25.4815 Debye
        Dipole               -2.1649 Ry au,         -5.5025 Debye
        Dipole field         -0.0024 Ry au, 

        Potential amp.        0.2339 Ry
        Total length         48.2953 bohr


     Adding external electric field

     Computed dipole along edir(3) : 
        Elec. dipole        -10.0228 Ry au,        -25.4754 Debye
        Ion. dipole         -10.0252 Ry au,        -25.4815 Debye
        Dipole               -2.1649 Ry au,         -5.5025 Debye
        Dipole field         -0.0024 Ry au, 

        Potential amp.        0.2339 Ry
        Total length         48.2953 bohr


     total cpu time spent up to now is    77038.1 secs

     total energy              =  -33081.79501422 Ry
     estimated scf accuracy    <       0.94675539 Ry

     total magnetization       =     1.12 Bohr mag/cell
     absolute magnetization    =     1.25 Bohr mag/cell

     iteration # 72     ecut=    60.00 Ry     beta= 0.70
     Davidson diagonalization with overlap

---- Real-time Memory Report at c_bands before calling an iterative solver
          1804 MiB given to the printing process from OS
          1341 MiB allocation reported by mallinfo(arena+hblkhd)
        397162 MiB available memory on the node where the printing process lives
------------------
     c_bands:  1 eigenvalues not converged
     c_bands:  1 eigenvalues not converged
     c_bands:  1 eigenvalues not converged
     c_bands:  1 eigenvalues not converged
     c_bands:  1 eigenvalues not converged
     c_bands:  1 eigenvalues not converged
     c_bands:  1 eigenvalues not converged
     c_bands:  1 eigenvalues not converged
     c_bands:  1 eigenvalues not converged
     ethr =  1.75E-07,  avg # of iterations = 12.9

     negative rho (up, down):  6.718E-04 6.631E-04

     Adding external electric field

     Computed dipole along edir(3) : 
        Elec. dipole        -10.0228 Ry au,        -25.4755 Debye
        Ion. dipole         -10.0252 Ry au,        -25.4815 Debye
        Dipole               -2.1220 Ry au,         -5.3936 Debye
        Dipole field         -0.0024 Ry au, 

        Potential amp.        0.2293 Ry
        Total length         48.2953 bohr


     Adding external electric field

     Computed dipole along edir(3) : 
        Elec. dipole        -10.0228 Ry au,        -25.4755 Debye
        Ion. dipole         -10.0252 Ry au,        -25.4815 Debye
        Dipole               -2.1220 Ry au,         -5.3936 Debye
        Dipole field         -0.0024 Ry au, 

        Potential amp.        0.2293 Ry
        Total length         48.2953 bohr


     total cpu time spent up to now is    78475.0 secs

     total energy              =  -33081.83409383 Ry
     estimated scf accuracy    <       0.00528640 Ry

     total magnetization       =     2.00 Bohr mag/cell
     absolute magnetization    =     2.03 Bohr mag/cell

     iteration # 73     ecut=    60.00 Ry     beta= 0.70
     Davidson diagonalization with overlap

---- Real-time Memory Report at c_bands before calling an iterative solver
          1804 MiB given to the printing process from OS
          1341 MiB allocation reported by mallinfo(arena+hblkhd)
        397167 MiB available memory on the node where the printing process lives
------------------
     ethr =  1.75E-07,  avg # of iterations =  5.1

     negative rho (up, down):  8.720E-04 8.568E-04

     Adding external electric field

     Computed dipole along edir(3) : 
        Elec. dipole        -10.0229 Ry au,        -25.4755 Debye
        Ion. dipole         -10.0252 Ry au,        -25.4815 Debye
        Dipole               -2.1094 Ry au,         -5.3615 Debye
        Dipole field         -0.0024 Ry au, 

        Potential amp.        0.2279 Ry
        Total length         48.2953 bohr


     Adding external electric field

     Computed dipole along edir(3) : 
        Elec. dipole        -10.0229 Ry au,        -25.4755 Debye
        Ion. dipole         -10.0252 Ry au,        -25.4815 Debye
        Dipole               -2.1094 Ry au,         -5.3615 Debye
        Dipole field         -0.0024 Ry au, 

        Potential amp.        0.2279 Ry
        Total length         48.2953 bohr


     total cpu time spent up to now is    79567.7 secs

     total energy              =  -33081.83499188 Ry
     estimated scf accuracy    <       0.00317664 Ry

     total magnetization       =     2.00 Bohr mag/cell
     absolute magnetization    =     2.02 Bohr mag/cell

     iteration # 74     ecut=    60.00 Ry     beta= 0.70
     Davidson diagonalization with overlap

---- Real-time Memory Report at c_bands before calling an iterative solver
          1804 MiB given to the printing process from OS
          1341 MiB allocation reported by mallinfo(arena+hblkhd)
        397171 MiB available memory on the node where the printing process lives
------------------
     ethr =  1.75E-07,  avg # of iterations =  2.0

     negative rho (up, down):  9.477E-04 9.315E-04

     Adding external electric field

     Computed dipole along edir(3) : 
        Elec. dipole        -10.0228 Ry au,        -25.4755 Debye
        Ion. dipole         -10.0252 Ry au,        -25.4815 Debye
        Dipole               -2.1154 Ry au,         -5.3768 Debye
        Dipole field         -0.0024 Ry au, 

        Potential amp.        0.2286 Ry
        Total length         48.2953 bohr


     Adding external electric field

     Computed dipole along edir(3) : 
        Elec. dipole        -10.0228 Ry au,        -25.4755 Debye
        Ion. dipole         -10.0252 Ry au,        -25.4815 Debye
        Dipole               -2.1154 Ry au,         -5.3768 Debye
        Dipole field         -0.0024 Ry au, 

        Potential amp.        0.2286 Ry
        Total length         48.2953 bohr


     total cpu time spent up to now is    80611.2 secs

     total energy              =  -33081.83508438 Ry
     estimated scf accuracy    <       0.00338902 Ry

     total magnetization       =     2.00 Bohr mag/cell
     absolute magnetization    =     2.02 Bohr mag/cell

     iteration # 75     ecut=    60.00 Ry     beta= 0.70
     Davidson diagonalization with overlap

---- Real-time Memory Report at c_bands before calling an iterative solver
          1804 MiB given to the printing process from OS
          1341 MiB allocation reported by mallinfo(arena+hblkhd)
        397172 MiB available memory on the node where the printing process lives
------------------
     ethr =  1.75E-07,  avg # of iterations =  2.4

     negative rho (up, down):  1.195E-03 1.178E-03

     Adding external electric field

     Computed dipole along edir(3) : 
        Elec. dipole        -10.0228 Ry au,        -25.4755 Debye
        Ion. dipole         -10.0252 Ry au,        -25.4815 Debye
        Dipole               -2.1236 Ry au,         -5.3976 Debye
        Dipole field         -0.0024 Ry au, 

        Potential amp.        0.2294 Ry
        Total length         48.2953 bohr


     Adding external electric field

     Computed dipole along edir(3) : 
        Elec. dipole        -10.0228 Ry au,        -25.4755 Debye
        Ion. dipole         -10.0252 Ry au,        -25.4815 Debye
        Dipole               -2.1236 Ry au,         -5.3976 Debye
        Dipole field         -0.0024 Ry au, 

        Potential amp.        0.2294 Ry
        Total length         48.2953 bohr


     total cpu time spent up to now is    81659.1 secs

     total energy              =  -33081.83514931 Ry
     estimated scf accuracy    <       0.00391564 Ry

     total magnetization       =     2.00 Bohr mag/cell
     absolute magnetization    =     2.02 Bohr mag/cell

     iteration # 76     ecut=    60.00 Ry     beta= 0.70
     Davidson diagonalization with overlap

---- Real-time Memory Report at c_bands before calling an iterative solver
          1804 MiB given to the printing process from OS
          1341 MiB allocation reported by mallinfo(arena+hblkhd)
        397148 MiB available memory on the node where the printing process lives
------------------
     ethr =  1.75E-07,  avg # of iterations =  4.0

     negative rho (up, down):  1.164E-03 1.149E-03

     Adding external electric field

     Computed dipole along edir(3) : 
        Elec. dipole        -10.0228 Ry au,        -25.4755 Debye
        Ion. dipole         -10.0252 Ry au,        -25.4815 Debye
        Dipole               -2.1253 Ry au,         -5.4019 Debye
        Dipole field         -0.0024 Ry au, 

        Potential amp.        0.2296 Ry
        Total length         48.2953 bohr


     Adding external electric field

     Computed dipole along edir(3) : 
        Elec. dipole        -10.0228 Ry au,        -25.4755 Debye
        Ion. dipole         -10.0252 Ry au,        -25.4815 Debye
        Dipole               -2.1253 Ry au,         -5.4019 Debye
        Dipole field         -0.0024 Ry au, 

        Potential amp.        0.2296 Ry
        Total length         48.2953 bohr


     total cpu time spent up to now is    82727.1 secs

     total energy              =  -33081.83527818 Ry
     estimated scf accuracy    <       0.00508609 Ry

     total magnetization       =     2.00 Bohr mag/cell
     absolute magnetization    =     2.03 Bohr mag/cell

     iteration # 77     ecut=    60.00 Ry     beta= 0.70
     Davidson diagonalization with overlap

---- Real-time Memory Report at c_bands before calling an iterative solver
          1804 MiB given to the printing process from OS
          1341 MiB allocation reported by mallinfo(arena+hblkhd)
        397142 MiB available memory on the node where the printing process lives
------------------
     ethr =  1.75E-07,  avg # of iterations =  1.0

     negative rho (up, down):  1.225E-03 1.210E-03

     Adding external electric field

     Computed dipole along edir(3) : 
        Elec. dipole        -10.0228 Ry au,        -25.4755 Debye
        Ion. dipole         -10.0252 Ry au,        -25.4815 Debye
        Dipole               -2.1293 Ry au,         -5.4122 Debye
        Dipole field         -0.0024 Ry au, 

        Potential amp.        0.2301 Ry
        Total length         48.2953 bohr


     Adding external electric field

     Computed dipole along edir(3) : 
        Elec. dipole        -10.0228 Ry au,        -25.4755 Debye
        Ion. dipole         -10.0252 Ry au,        -25.4815 Debye
        Dipole               -2.1293 Ry au,         -5.4122 Debye
        Dipole field         -0.0024 Ry au, 

        Potential amp.        0.2301 Ry
        Total length         48.2953 bohr


     total cpu time spent up to now is    83626.0 secs

     total energy              =  -33081.83530770 Ry
     estimated scf accuracy    <       0.00493007 Ry

     total magnetization       =     2.00 Bohr mag/cell
     absolute magnetization    =     2.03 Bohr mag/cell

     iteration # 78     ecut=    60.00 Ry     beta= 0.70
     Davidson diagonalization with overlap

---- Real-time Memory Report at c_bands before calling an iterative solver
          1804 MiB given to the printing process from OS
          1341 MiB allocation reported by mallinfo(arena+hblkhd)
        397158 MiB available memory on the node where the printing process lives
------------------
     ethr =  1.75E-07,  avg # of iterations =  2.0

     negative rho (up, down):  1.233E-03 1.219E-03

     Adding external electric field

     Computed dipole along edir(3) : 
        Elec. dipole        -10.0228 Ry au,        -25.4755 Debye
        Ion. dipole         -10.0252 Ry au,        -25.4815 Debye
        Dipole               -2.1292 Ry au,         -5.4119 Debye
        Dipole field         -0.0024 Ry au, 

        Potential amp.        0.2301 Ry
        Total length         48.2953 bohr


     Adding external electric field

     Computed dipole along edir(3) : 
        Elec. dipole        -10.0228 Ry au,        -25.4755 Debye
        Ion. dipole         -10.0252 Ry au,        -25.4815 Debye
        Dipole               -2.1292 Ry au,         -5.4119 Debye
        Dipole field         -0.0024 Ry au, 

        Potential amp.        0.2301 Ry
        Total length         48.2953 bohr


     total cpu time spent up to now is    84674.1 secs

     total energy              =  -33081.83534203 Ry
     estimated scf accuracy    <       0.00527537 Ry

     total magnetization       =     2.00 Bohr mag/cell
     absolute magnetization    =     2.03 Bohr mag/cell

     iteration # 79     ecut=    60.00 Ry     beta= 0.70
     Davidson diagonalization with overlap

---- Real-time Memory Report at c_bands before calling an iterative solver
          1804 MiB given to the printing process from OS
          1341 MiB allocation reported by mallinfo(arena+hblkhd)
        397168 MiB available memory on the node where the printing process lives
------------------
     ethr =  1.75E-07,  avg # of iterations =  1.2

     negative rho (up, down):  1.080E-03 1.062E-03

     Adding external electric field

     Computed dipole along edir(3) : 
        Elec. dipole        -10.0228 Ry au,        -25.4755 Debye
        Ion. dipole         -10.0252 Ry au,        -25.4815 Debye
        Dipole               -2.1161 Ry au,         -5.3787 Debye
        Dipole field         -0.0024 Ry au, 

        Potential amp.        0.2286 Ry
        Total length         48.2953 bohr


     Adding external electric field

     Computed dipole along edir(3) : 
        Elec. dipole        -10.0228 Ry au,        -25.4755 Debye
        Ion. dipole         -10.0252 Ry au,        -25.4815 Debye
        Dipole               -2.1161 Ry au,         -5.3787 Debye
        Dipole field         -0.0024 Ry au, 

        Potential amp.        0.2286 Ry
        Total length         48.2953 bohr


     total cpu time spent up to now is    85606.0 secs

     total energy              =  -33081.83469409 Ry
     estimated scf accuracy    <       0.00524906 Ry

     total magnetization       =     2.00 Bohr mag/cell
     absolute magnetization    =     2.03 Bohr mag/cell

     iteration # 80     ecut=    60.00 Ry     beta= 0.70
     Davidson diagonalization with overlap

---- Real-time Memory Report at c_bands before calling an iterative solver
          1804 MiB given to the printing process from OS
          1341 MiB allocation reported by mallinfo(arena+hblkhd)
        397165 MiB available memory on the node where the printing process lives
------------------
     ethr =  1.75E-07,  avg # of iterations =  4.0

     negative rho (up, down):  1.097E-03 1.076E-03

     Adding external electric field

     Computed dipole along edir(3) : 
        Elec. dipole        -10.0229 Ry au,        -25.4755 Debye
        Ion. dipole         -10.0252 Ry au,        -25.4815 Debye
        Dipole               -2.1092 Ry au,         -5.3611 Debye
        Dipole field         -0.0024 Ry au, 

        Potential amp.        0.2279 Ry
        Total length         48.2953 bohr


     Adding external electric field

     Computed dipole along edir(3) : 
        Elec. dipole        -10.0229 Ry au,        -25.4755 Debye
        Ion. dipole         -10.0252 Ry au,        -25.4815 Debye
        Dipole               -2.1092 Ry au,         -5.3611 Debye
        Dipole field         -0.0024 Ry au, 

        Potential amp.        0.2279 Ry
        Total length         48.2953 bohr


     total cpu time spent up to now is    86676.7 secs

     total energy              =  -33081.83489653 Ry
     estimated scf accuracy    <       0.00387451 Ry

     total magnetization       =     2.00 Bohr mag/cell
     absolute magnetization    =     2.02 Bohr mag/cell

     iteration # 81     ecut=    60.00 Ry     beta= 0.70
     Davidson diagonalization with overlap

---- Real-time Memory Report at c_bands before calling an iterative solver
          1804 MiB given to the printing process from OS
          1341 MiB allocation reported by mallinfo(arena+hblkhd)
        397161 MiB available memory on the node where the printing process lives
------------------
     ethr =  1.75E-07,  avg # of iterations =  4.0

     negative rho (up, down):  1.089E-03 1.068E-03

     Adding external electric field

     Computed dipole along edir(3) : 
        Elec. dipole        -10.0229 Ry au,        -25.4755 Debye
        Ion. dipole         -10.0252 Ry au,        -25.4815 Debye
        Dipole               -2.1099 Ry au,         -5.3628 Debye
        Dipole field         -0.0024 Ry au, 

        Potential amp.        0.2280 Ry
        Total length         48.2953 bohr


     Adding external electric field

     Computed dipole along edir(3) : 
        Elec. dipole        -10.0229 Ry au,        -25.4755 Debye
        Ion. dipole         -10.0252 Ry au,        -25.4815 Debye
        Dipole               -2.1099 Ry au,         -5.3628 Debye
        Dipole field         -0.0024 Ry au, 

        Potential amp.        0.2280 Ry
        Total length         48.2953 bohr


     total cpu time spent up to now is    87751.1 secs

     total energy              =  -33081.83497883 Ry
     estimated scf accuracy    <       0.00327266 Ry

     total magnetization       =     2.00 Bohr mag/cell
     absolute magnetization    =     2.02 Bohr mag/cell

     iteration # 82     ecut=    60.00 Ry     beta= 0.70
     Davidson diagonalization with overlap

---- Real-time Memory Report at c_bands before calling an iterative solver
          1804 MiB given to the printing process from OS
          1341 MiB allocation reported by mallinfo(arena+hblkhd)
        397161 MiB available memory on the node where the printing process lives
------------------
     ethr =  1.75E-07,  avg # of iterations =  1.9

     negative rho (up, down):  1.286E-03 1.261E-03

     Adding external electric field

     Computed dipole along edir(3) : 
        Elec. dipole        -10.0229 Ry au,        -25.4756 Debye
        Ion. dipole         -10.0252 Ry au,        -25.4815 Debye
        Dipole               -2.1064 Ry au,         -5.3538 Debye
        Dipole field         -0.0024 Ry au, 

        Potential amp.        0.2276 Ry
        Total length         48.2953 bohr


     Adding external electric field

     Computed dipole along edir(3) : 
        Elec. dipole        -10.0229 Ry au,        -25.4756 Debye
        Ion. dipole         -10.0252 Ry au,        -25.4815 Debye
        Dipole               -2.1064 Ry au,         -5.3538 Debye
        Dipole field         -0.0024 Ry au, 

        Potential amp.        0.2276 Ry
        Total length         48.2953 bohr


     total cpu time spent up to now is    88797.9 secs

     total energy              =  -33081.83499323 Ry
     estimated scf accuracy    <       0.00297263 Ry

     total magnetization       =     1.99 Bohr mag/cell
     absolute magnetization    =     2.02 Bohr mag/cell

     iteration # 83     ecut=    60.00 Ry     beta= 0.70
     Davidson diagonalization with overlap

---- Real-time Memory Report at c_bands before calling an iterative solver
          1804 MiB given to the printing process from OS
          1341 MiB allocation reported by mallinfo(arena+hblkhd)
        397136 MiB available memory on the node where the printing process lives
------------------
     ethr =  1.75E-07,  avg # of iterations =  2.0

     negative rho (up, down):  1.357E-03 1.332E-03

     Adding external electric field

     Computed dipole along edir(3) : 
        Elec. dipole        -10.0228 Ry au,        -25.4755 Debye
        Ion. dipole         -10.0252 Ry au,        -25.4815 Debye
        Dipole               -2.1109 Ry au,         -5.3653 Debye
        Dipole field         -0.0024 Ry au, 

        Potential amp.        0.2281 Ry
        Total length         48.2953 bohr


     Adding external electric field

     Computed dipole along edir(3) : 
        Elec. dipole        -10.0228 Ry au,        -25.4755 Debye
        Ion. dipole         -10.0252 Ry au,        -25.4815 Debye
        Dipole               -2.1109 Ry au,         -5.3653 Debye
        Dipole field         -0.0024 Ry au, 

        Potential amp.        0.2281 Ry
        Total length         48.2953 bohr


     total cpu time spent up to now is    89848.4 secs

     total energy              =  -33081.83516670 Ry
     estimated scf accuracy    <       0.00321295 Ry

     total magnetization       =     2.00 Bohr mag/cell
     absolute magnetization    =     2.02 Bohr mag/cell

     iteration # 84     ecut=    60.00 Ry     beta= 0.70
     Davidson diagonalization with overlap

---- Real-time Memory Report at c_bands before calling an iterative solver
          1804 MiB given to the printing process from OS
          1341 MiB allocation reported by mallinfo(arena+hblkhd)
        397163 MiB available memory on the node where the printing process lives
------------------
     ethr =  1.75E-07,  avg # of iterations =  3.2

     negative rho (up, down):  3.886E-04 6.161E-03

     Adding external electric field

     Computed dipole along edir(3) : 
        Elec. dipole        -10.0229 Ry au,        -25.4757 Debye
        Ion. dipole         -10.0252 Ry au,        -25.4815 Debye
        Dipole               -2.0540 Ry au,         -5.2206 Debye
        Dipole field         -0.0023 Ry au, 

        Potential amp.        0.2219 Ry
        Total length         48.2953 bohr


     Adding external electric field

     Computed dipole along edir(3) : 
        Elec. dipole        -10.0229 Ry au,        -25.4757 Debye
        Ion. dipole         -10.0252 Ry au,        -25.4815 Debye
        Dipole               -2.0540 Ry au,         -5.2206 Debye
        Dipole field         -0.0023 Ry au, 

        Potential amp.        0.2219 Ry
        Total length         48.2953 bohr


     total cpu time spent up to now is    90916.6 secs

     total energy              =  -33081.79900013 Ry
     estimated scf accuracy    <       0.00411110 Ry

     total magnetization       =     2.00 Bohr mag/cell
     absolute magnetization    =     2.02 Bohr mag/cell

     iteration # 85     ecut=    60.00 Ry     beta= 0.70
     Davidson diagonalization with overlap

---- Real-time Memory Report at c_bands before calling an iterative solver
          1804 MiB given to the printing process from OS
          1341 MiB allocation reported by mallinfo(arena+hblkhd)
        397168 MiB available memory on the node where the printing process lives
------------------
     ethr =  1.75E-07,  avg # of iterations =  9.3

     negative rho (up, down):  1.583E-03 3.072E-03

     Adding external electric field

     Computed dipole along edir(3) : 
        Elec. dipole        -10.0229 Ry au,        -25.4758 Debye
        Ion. dipole         -10.0252 Ry au,        -25.4815 Debye
        Dipole               -2.0323 Ry au,         -5.1655 Debye
        Dipole field         -0.0023 Ry au, 

        Potential amp.        0.2196 Ry
        Total length         48.2953 bohr


     Adding external electric field

     Computed dipole along edir(3) : 
        Elec. dipole        -10.0229 Ry au,        -25.4758 Debye
        Ion. dipole         -10.0252 Ry au,        -25.4815 Debye
        Dipole               -2.0323 Ry au,         -5.1655 Debye
        Dipole field         -0.0023 Ry au, 

        Potential amp.        0.2196 Ry
        Total length         48.2953 bohr


     total cpu time spent up to now is    92235.6 secs

     total energy              =  -33081.82297297 Ry
     estimated scf accuracy    <       0.17187319 Ry

     total magnetization       =     1.67 Bohr mag/cell
     absolute magnetization    =     1.70 Bohr mag/cell

     iteration # 86     ecut=    60.00 Ry     beta= 0.70
     Davidson diagonalization with overlap

---- Real-time Memory Report at c_bands before calling an iterative solver
          1804 MiB given to the printing process from OS
          1341 MiB allocation reported by mallinfo(arena+hblkhd)
        397167 MiB available memory on the node where the printing process lives
------------------
     c_bands:  1 eigenvalues not converged
     c_bands:  1 eigenvalues not converged
     c_bands:  1 eigenvalues not converged
     ethr =  1.75E-07,  avg # of iterations =  7.7

     negative rho (up, down):  6.295E-04 6.160E-04

     Adding external electric field

     Computed dipole along edir(3) : 
        Elec. dipole        -10.0229 Ry au,        -25.4755 Debye
        Ion. dipole         -10.0252 Ry au,        -25.4815 Debye
        Dipole               -2.1094 Ry au,         -5.3615 Debye
        Dipole field         -0.0024 Ry au, 

        Potential amp.        0.2279 Ry
        Total length         48.2953 bohr


     Adding external electric field

     Computed dipole along edir(3) : 
        Elec. dipole        -10.0229 Ry au,        -25.4755 Debye
        Ion. dipole         -10.0252 Ry au,        -25.4815 Debye
        Dipole               -2.1094 Ry au,         -5.3615 Debye
        Dipole field         -0.0024 Ry au, 

        Potential amp.        0.2279 Ry
        Total length         48.2953 bohr


     total cpu time spent up to now is    93411.6 secs

     total energy              =  -33081.82293460 Ry
     estimated scf accuracy    <       0.01110648 Ry

     total magnetization       =     2.00 Bohr mag/cell
     absolute magnetization    =     2.02 Bohr mag/cell

     iteration # 87     ecut=    60.00 Ry     beta= 0.70
     Davidson diagonalization with overlap

---- Real-time Memory Report at c_bands before calling an iterative solver
          1804 MiB given to the printing process from OS
          1341 MiB allocation reported by mallinfo(arena+hblkhd)
        397158 MiB available memory on the node where the printing process lives
------------------
     c_bands:  1 eigenvalues not converged
     c_bands:  1 eigenvalues not converged
     c_bands:  1 eigenvalues not converged
     c_bands:  1 eigenvalues not converged
     c_bands:  1 eigenvalues not converged
     c_bands:  1 eigenvalues not converged
     ethr =  1.75E-07,  avg # of iterations =  8.7

     negative rho (up, down):  5.263E-04 5.115E-04

     Adding external electric field

     Computed dipole along edir(3) : 
        Elec. dipole        -10.0228 Ry au,        -25.4755 Debye
        Ion. dipole         -10.0252 Ry au,        -25.4815 Debye
        Dipole               -2.1212 Ry au,         -5.3914 Debye
        Dipole field         -0.0024 Ry au, 

        Potential amp.        0.2292 Ry
        Total length         48.2953 bohr


     Adding external electric field

     Computed dipole along edir(3) : 
        Elec. dipole        -10.0228 Ry au,        -25.4755 Debye
        Ion. dipole         -10.0252 Ry au,        -25.4815 Debye
        Dipole               -2.1212 Ry au,         -5.3914 Debye
        Dipole field         -0.0024 Ry au, 

        Potential amp.        0.2292 Ry
        Total length         48.2953 bohr


     total cpu time spent up to now is    94665.3 secs

     total energy              =  -33081.83465747 Ry
     estimated scf accuracy    <       0.00263545 Ry

     total magnetization       =     2.00 Bohr mag/cell
     absolute magnetization    =     2.02 Bohr mag/cell

     iteration # 88     ecut=    60.00 Ry     beta= 0.70
     Davidson diagonalization with overlap

---- Real-time Memory Report at c_bands before calling an iterative solver
          1804 MiB given to the printing process from OS
          1341 MiB allocation reported by mallinfo(arena+hblkhd)
        397172 MiB available memory on the node where the printing process lives
------------------
     ethr =  1.75E-07,  avg # of iterations =  4.0

     negative rho (up, down):  4.597E-04 4.446E-04

     Adding external electric field

     Computed dipole along edir(3) : 
        Elec. dipole        -10.0228 Ry au,        -25.4755 Debye
        Ion. dipole         -10.0252 Ry au,        -25.4815 Debye
        Dipole               -2.1188 Ry au,         -5.3854 Debye
        Dipole field         -0.0024 Ry au, 

        Potential amp.        0.2289 Ry
        Total length         48.2953 bohr


     Adding external electric field

     Computed dipole along edir(3) : 
        Elec. dipole        -10.0228 Ry au,        -25.4755 Debye
        Ion. dipole         -10.0252 Ry au,        -25.4815 Debye
        Dipole               -2.1188 Ry au,         -5.3854 Debye
        Dipole field         -0.0024 Ry au, 

        Potential amp.        0.2289 Ry
        Total length         48.2953 bohr


     total cpu time spent up to now is    95742.5 secs

     total energy              =  -33081.83494586 Ry
     estimated scf accuracy    <       0.00271874 Ry

     total magnetization       =     2.00 Bohr mag/cell
     absolute magnetization    =     2.02 Bohr mag/cell

     iteration # 89     ecut=    60.00 Ry     beta= 0.70
     Davidson diagonalization with overlap

---- Real-time Memory Report at c_bands before calling an iterative solver
          1804 MiB given to the printing process from OS
          1341 MiB allocation reported by mallinfo(arena+hblkhd)
        397133 MiB available memory on the node where the printing process lives
------------------
     ethr =  1.75E-07,  avg # of iterations =  2.0

     negative rho (up, down):  4.997E-04 4.841E-04

     Adding external electric field

     Computed dipole along edir(3) : 
        Elec. dipole        -10.0228 Ry au,        -25.4755 Debye
        Ion. dipole         -10.0252 Ry au,        -25.4815 Debye
        Dipole               -2.1218 Ry au,         -5.3930 Debye
        Dipole field         -0.0024 Ry au, 

        Potential amp.        0.2293 Ry
        Total length         48.2953 bohr


     Adding external electric field

     Computed dipole along edir(3) : 
        Elec. dipole        -10.0228 Ry au,        -25.4755 Debye
        Ion. dipole         -10.0252 Ry au,        -25.4815 Debye
        Dipole               -2.1218 Ry au,         -5.3930 Debye
        Dipole field         -0.0024 Ry au, 

        Potential amp.        0.2293 Ry
        Total length         48.2953 bohr


     total cpu time spent up to now is    96801.6 secs

     total energy              =  -33081.83499540 Ry
     estimated scf accuracy    <       0.00231688 Ry

     total magnetization       =     1.99 Bohr mag/cell
     absolute magnetization    =     2.02 Bohr mag/cell

     iteration # 90     ecut=    60.00 Ry     beta= 0.70
     Davidson diagonalization with overlap

---- Real-time Memory Report at c_bands before calling an iterative solver
          1804 MiB given to the printing process from OS
          1341 MiB allocation reported by mallinfo(arena+hblkhd)
        397148 MiB available memory on the node where the printing process lives
------------------
     ethr =  1.75E-07,  avg # of iterations =  2.0

     negative rho (up, down):  5.077E-04 4.950E-04

     Adding external electric field

     Computed dipole along edir(3) : 
        Elec. dipole        -10.0228 Ry au,        -25.4755 Debye
        Ion. dipole         -10.0252 Ry au,        -25.4815 Debye
        Dipole               -2.1334 Ry au,         -5.4225 Debye
        Dipole field         -0.0024 Ry au, 

        Potential amp.        0.2305 Ry
        Total length         48.2953 bohr


     Adding external electric field

     Computed dipole along edir(3) : 
        Elec. dipole        -10.0228 Ry au,        -25.4755 Debye
        Ion. dipole         -10.0252 Ry au,        -25.4815 Debye
        Dipole               -2.1334 Ry au,         -5.4225 Debye
        Dipole field         -0.0024 Ry au, 

        Potential amp.        0.2305 Ry
        Total length         48.2953 bohr


     total cpu time spent up to now is    97853.8 secs

     total energy              =  -33081.83494944 Ry
     estimated scf accuracy    <       0.00270309 Ry

     total magnetization       =     2.00 Bohr mag/cell
     absolute magnetization    =     2.02 Bohr mag/cell

     iteration # 91     ecut=    60.00 Ry     beta= 0.70
     Davidson diagonalization with overlap

---- Real-time Memory Report at c_bands before calling an iterative solver
          1804 MiB given to the printing process from OS
          1341 MiB allocation reported by mallinfo(arena+hblkhd)
        397159 MiB available memory on the node where the printing process lives
------------------
     ethr =  1.75E-07,  avg # of iterations =  3.9

     negative rho (up, down):  4.995E-04 4.875E-04

     Adding external electric field

     Computed dipole along edir(3) : 
        Elec. dipole        -10.0228 Ry au,        -25.4755 Debye
        Ion. dipole         -10.0252 Ry au,        -25.4815 Debye
        Dipole               -2.1370 Ry au,         -5.4317 Debye
        Dipole field         -0.0024 Ry au, 

        Potential amp.        0.2309 Ry
        Total length         48.2953 bohr


     Adding external electric field

     Computed dipole along edir(3) : 
        Elec. dipole        -10.0228 Ry au,        -25.4755 Debye
        Ion. dipole         -10.0252 Ry au,        -25.4815 Debye
        Dipole               -2.1370 Ry au,         -5.4317 Debye
        Dipole field         -0.0024 Ry au, 

        Potential amp.        0.2309 Ry
        Total length         48.2953 bohr


     total cpu time spent up to now is    98932.3 secs

     total energy              =  -33081.83512159 Ry
     estimated scf accuracy    <       0.00367874 Ry

     total magnetization       =     2.00 Bohr mag/cell
     absolute magnetization    =     2.02 Bohr mag/cell

     iteration # 92     ecut=    60.00 Ry     beta= 0.70
     Davidson diagonalization with overlap

---- Real-time Memory Report at c_bands before calling an iterative solver
          1804 MiB given to the printing process from OS
          1341 MiB allocation reported by mallinfo(arena+hblkhd)
        397162 MiB available memory on the node where the printing process lives
------------------
     ethr =  1.75E-07,  avg # of iterations =  2.0

     negative rho (up, down):  4.816E-04 4.697E-04

     Adding external electric field

     Computed dipole along edir(3) : 
        Elec. dipole        -10.0228 Ry au,        -25.4755 Debye
        Ion. dipole         -10.0252 Ry au,        -25.4815 Debye
        Dipole               -2.1420 Ry au,         -5.4444 Debye
        Dipole field         -0.0024 Ry au, 

        Potential amp.        0.2314 Ry
        Total length         48.2953 bohr


     Adding external electric field

     Computed dipole along edir(3) : 
        Elec. dipole        -10.0228 Ry au,        -25.4755 Debye
        Ion. dipole         -10.0252 Ry au,        -25.4815 Debye
        Dipole               -2.1420 Ry au,         -5.4444 Debye
        Dipole field         -0.0024 Ry au, 

        Potential amp.        0.2314 Ry
        Total length         48.2953 bohr


     total cpu time spent up to now is    99991.6 secs

     total energy              =  -33081.83515274 Ry
     estimated scf accuracy    <       0.00389059 Ry

     total magnetization       =     2.00 Bohr mag/cell
     absolute magnetization    =     2.02 Bohr mag/cell

     iteration # 93     ecut=    60.00 Ry     beta= 0.70
     Davidson diagonalization with overlap

---- Real-time Memory Report at c_bands before calling an iterative solver
          1804 MiB given to the printing process from OS
          1341 MiB allocation reported by mallinfo(arena+hblkhd)
        397167 MiB available memory on the node where the printing process lives
------------------
     ethr =  1.75E-07,  avg # of iterations =  2.0

     negative rho (up, down):  4.822E-04 4.714E-04

     Adding external electric field

     Computed dipole along edir(3) : 
        Elec. dipole        -10.0229 Ry au,        -25.4756 Debye
        Ion. dipole         -10.0252 Ry au,        -25.4815 Debye
        Dipole               -2.1072 Ry au,         -5.3561 Debye
        Dipole field         -0.0024 Ry au, 

        Potential amp.        0.2277 Ry
        Total length         48.2953 bohr


     Adding external electric field

     Computed dipole along edir(3) : 
        Elec. dipole        -10.0229 Ry au,        -25.4756 Debye
        Ion. dipole         -10.0252 Ry au,        -25.4815 Debye
        Dipole               -2.1072 Ry au,         -5.3561 Debye
        Dipole field         -0.0024 Ry au, 

        Potential amp.        0.2277 Ry
        Total length         48.2953 bohr


     total cpu time spent up to now is   101059.0 secs

     total energy              =  -33081.83438569 Ry
     estimated scf accuracy    <       0.00402512 Ry

     total magnetization       =     2.00 Bohr mag/cell
     absolute magnetization    =     2.02 Bohr mag/cell

     iteration # 94     ecut=    60.00 Ry     beta= 0.70
     Davidson diagonalization with overlap

---- Real-time Memory Report at c_bands before calling an iterative solver
          1804 MiB given to the printing process from OS
          1341 MiB allocation reported by mallinfo(arena+hblkhd)
        397165 MiB available memory on the node where the printing process lives
------------------
     ethr =  1.75E-07,  avg # of iterations =  4.3

     negative rho (up, down):  5.316E-04 5.196E-04

     Adding external electric field

     Computed dipole along edir(3) : 
        Elec. dipole        -10.0229 Ry au,        -25.4756 Debye
        Ion. dipole         -10.0252 Ry au,        -25.4815 Debye
        Dipole               -2.0906 Ry au,         -5.3138 Debye
        Dipole field         -0.0023 Ry au, 

        Potential amp.        0.2259 Ry
        Total length         48.2953 bohr


     Adding external electric field

     Computed dipole along edir(3) : 
        Elec. dipole        -10.0229 Ry au,        -25.4756 Debye
        Ion. dipole         -10.0252 Ry au,        -25.4815 Debye
        Dipole               -2.0906 Ry au,         -5.3138 Debye
        Dipole field         -0.0023 Ry au, 

        Potential amp.        0.2259 Ry
        Total length         48.2953 bohr


     total cpu time spent up to now is   102153.1 secs

     total energy              =  -33081.83479427 Ry
     estimated scf accuracy    <       0.00229324 Ry

     total magnetization       =     1.99 Bohr mag/cell
     absolute magnetization    =     2.02 Bohr mag/cell

     iteration # 95     ecut=    60.00 Ry     beta= 0.70
     Davidson diagonalization with overlap

---- Real-time Memory Report at c_bands before calling an iterative solver
          1804 MiB given to the printing process from OS
          1341 MiB allocation reported by mallinfo(arena+hblkhd)
        397158 MiB available memory on the node where the printing process lives
------------------
     ethr =  1.75E-07,  avg # of iterations =  4.1

     negative rho (up, down):  5.509E-04 5.382E-04

     Adding external electric field

     Computed dipole along edir(3) : 
        Elec. dipole        -10.0229 Ry au,        -25.4756 Debye
        Ion. dipole         -10.0252 Ry au,        -25.4815 Debye
        Dipole               -2.0980 Ry au,         -5.3325 Debye
        Dipole field         -0.0023 Ry au, 

        Potential amp.        0.2267 Ry
        Total length         48.2953 bohr


     Adding external electric field

     Computed dipole along edir(3) : 
        Elec. dipole        -10.0229 Ry au,        -25.4756 Debye
        Ion. dipole         -10.0252 Ry au,        -25.4815 Debye
        Dipole               -2.0980 Ry au,         -5.3325 Debye
        Dipole field         -0.0023 Ry au, 

        Potential amp.        0.2267 Ry
        Total length         48.2953 bohr


     total cpu time spent up to now is   103233.8 secs

     total energy              =  -33081.83489977 Ry
     estimated scf accuracy    <       0.00148282 Ry

     total magnetization       =     1.99 Bohr mag/cell
     absolute magnetization    =     2.01 Bohr mag/cell

     iteration # 96     ecut=    60.00 Ry     beta= 0.70
     Davidson diagonalization with overlap

---- Real-time Memory Report at c_bands before calling an iterative solver
          1804 MiB given to the printing process from OS
          1341 MiB allocation reported by mallinfo(arena+hblkhd)
        397161 MiB available memory on the node where the printing process lives
------------------
     ethr =  1.75E-07,  avg # of iterations =  2.6

     negative rho (up, down):  5.740E-04 5.610E-04

     Adding external electric field

     Computed dipole along edir(3) : 
        Elec. dipole        -10.0229 Ry au,        -25.4756 Debye
        Ion. dipole         -10.0252 Ry au,        -25.4815 Debye
        Dipole               -2.0980 Ry au,         -5.3326 Debye
        Dipole field         -0.0023 Ry au, 

        Potential amp.        0.2267 Ry
        Total length         48.2953 bohr


     Adding external electric field

     Computed dipole along edir(3) : 
        Elec. dipole        -10.0229 Ry au,        -25.4756 Debye
        Ion. dipole         -10.0252 Ry au,        -25.4815 Debye
        Dipole               -2.0980 Ry au,         -5.3326 Debye
        Dipole field         -0.0023 Ry au, 

        Potential amp.        0.2267 Ry
        Total length         48.2953 bohr


     total cpu time spent up to now is   104298.6 secs

     total energy              =  -33081.83492560 Ry
     estimated scf accuracy    <       0.00192461 Ry

     total magnetization       =     1.99 Bohr mag/cell
     absolute magnetization    =     2.01 Bohr mag/cell

     iteration # 97     ecut=    60.00 Ry     beta= 0.70
     Davidson diagonalization with overlap

---- Real-time Memory Report at c_bands before calling an iterative solver
          1804 MiB given to the printing process from OS
          1341 MiB allocation reported by mallinfo(arena+hblkhd)
        397165 MiB available memory on the node where the printing process lives
------------------
     ethr =  1.75E-07,  avg # of iterations =  1.7

     negative rho (up, down):  5.580E-04 5.454E-04

     Adding external electric field

     Computed dipole along edir(3) : 
        Elec. dipole        -10.0229 Ry au,        -25.4756 Debye
        Ion. dipole         -10.0252 Ry au,        -25.4815 Debye
        Dipole               -2.0947 Ry au,         -5.3243 Debye
        Dipole field         -0.0023 Ry au, 

        Potential amp.        0.2263 Ry
        Total length         48.2953 bohr


     Adding external electric field

     Computed dipole along edir(3) : 
        Elec. dipole        -10.0229 Ry au,        -25.4756 Debye
        Ion. dipole         -10.0252 Ry au,        -25.4815 Debye
        Dipole               -2.0947 Ry au,         -5.3243 Debye
        Dipole field         -0.0023 Ry au, 

        Potential amp.        0.2263 Ry
        Total length         48.2953 bohr


     total cpu time spent up to now is   105318.1 secs

     total energy              =  -33081.83489240 Ry
     estimated scf accuracy    <       0.00194782 Ry

     total magnetization       =     1.99 Bohr mag/cell
     absolute magnetization    =     2.01 Bohr mag/cell

     iteration # 98     ecut=    60.00 Ry     beta= 0.70
     Davidson diagonalization with overlap

---- Real-time Memory Report at c_bands before calling an iterative solver
          1804 MiB given to the printing process from OS
          1341 MiB allocation reported by mallinfo(arena+hblkhd)
        397164 MiB available memory on the node where the printing process lives
------------------
     ethr =  1.75E-07,  avg # of iterations =  2.0

     negative rho (up, down):  5.593E-04 5.520E-04

     Adding external electric field

     Computed dipole along edir(3) : 
        Elec. dipole        -10.0229 Ry au,        -25.4758 Debye
        Ion. dipole         -10.0252 Ry au,        -25.4815 Debye
        Dipole               -2.0325 Ry au,         -5.1660 Debye
        Dipole field         -0.0023 Ry au, 

        Potential amp.        0.2196 Ry
        Total length         48.2953 bohr


     Adding external electric field

     Computed dipole along edir(3) : 
        Elec. dipole        -10.0229 Ry au,        -25.4758 Debye
        Ion. dipole         -10.0252 Ry au,        -25.4815 Debye
        Dipole               -2.0325 Ry au,         -5.1660 Debye
        Dipole field         -0.0023 Ry au, 

        Potential amp.        0.2196 Ry
        Total length         48.2953 bohr


     total cpu time spent up to now is   106381.6 secs

     total energy              =  -33081.83227595 Ry
     estimated scf accuracy    <       0.00160670 Ry

     total magnetization       =     1.99 Bohr mag/cell
     absolute magnetization    =     2.01 Bohr mag/cell

     iteration # 99     ecut=    60.00 Ry     beta= 0.70
     Davidson diagonalization with overlap

---- Real-time Memory Report at c_bands before calling an iterative solver
          1804 MiB given to the printing process from OS
          1341 MiB allocation reported by mallinfo(arena+hblkhd)
        397161 MiB available memory on the node where the printing process lives
------------------
     ethr =  1.75E-07,  avg # of iterations =  6.5

     negative rho (up, down):  5.676E-04 5.582E-04

     Adding external electric field

     Computed dipole along edir(3) : 
        Elec. dipole        -10.0229 Ry au,        -25.4758 Debye
        Ion. dipole         -10.0252 Ry au,        -25.4815 Debye
        Dipole               -2.0364 Ry au,         -5.1760 Debye
        Dipole field         -0.0023 Ry au, 

        Potential amp.        0.2200 Ry
        Total length         48.2953 bohr


     Adding external electric field

     Computed dipole along edir(3) : 
        Elec. dipole        -10.0229 Ry au,        -25.4758 Debye
        Ion. dipole         -10.0252 Ry au,        -25.4815 Debye
        Dipole               -2.0364 Ry au,         -5.1760 Debye
        Dipole field         -0.0023 Ry au, 

        Potential amp.        0.2200 Ry
        Total length         48.2953 bohr


     total cpu time spent up to now is   107539.8 secs

     total energy              =  -33081.83464943 Ry
     estimated scf accuracy    <       0.00068391 Ry

     total magnetization       =     1.95 Bohr mag/cell
     absolute magnetization    =     1.97 Bohr mag/cell

     iteration #100     ecut=    60.00 Ry     beta= 0.70
     Davidson diagonalization with overlap

---- Real-time Memory Report at c_bands before calling an iterative solver
          1804 MiB given to the printing process from OS
          1341 MiB allocation reported by mallinfo(arena+hblkhd)
        397160 MiB available memory on the node where the printing process lives
------------------
     ethr =  1.05E-07,  avg # of iterations =  4.2

     negative rho (up, down):  6.792E-04 6.679E-04

     Adding external electric field

     Computed dipole along edir(3) : 
        Elec. dipole        -10.0229 Ry au,        -25.4758 Debye
        Ion. dipole         -10.0252 Ry au,        -25.4815 Debye
        Dipole               -2.0222 Ry au,         -5.1399 Debye
        Dipole field         -0.0023 Ry au, 

        Potential amp.        0.2185 Ry
        Total length         48.2953 bohr


     Adding external electric field

     Computed dipole along edir(3) : 
        Elec. dipole        -10.0229 Ry au,        -25.4758 Debye
        Ion. dipole         -10.0252 Ry au,        -25.4815 Debye
        Dipole               -2.0222 Ry au,         -5.1399 Debye
        Dipole field         -0.0023 Ry au, 

        Potential amp.        0.2185 Ry
        Total length         48.2953 bohr


     total cpu time spent up to now is   108630.4 secs

     total energy              =  -33081.83454079 Ry
     estimated scf accuracy    <       0.00041182 Ry

     total magnetization       =     1.95 Bohr mag/cell
     absolute magnetization    =     1.98 Bohr mag/cell

     iteration #101     ecut=    60.00 Ry     beta= 0.70
     Davidson diagonalization with overlap

---- Real-time Memory Report at c_bands before calling an iterative solver
          1804 MiB given to the printing process from OS
          1341 MiB allocation reported by mallinfo(arena+hblkhd)
        397164 MiB available memory on the node where the printing process lives
------------------
     ethr =  6.30E-08,  avg # of iterations =  4.5

     negative rho (up, down):  6.537E-04 6.431E-04

     Adding external electric field

     Computed dipole along edir(3) : 
        Elec. dipole        -10.0229 Ry au,        -25.4758 Debye
        Ion. dipole         -10.0252 Ry au,        -25.4815 Debye
        Dipole               -2.0216 Ry au,         -5.1385 Debye
        Dipole field         -0.0023 Ry au, 

        Potential amp.        0.2184 Ry
        Total length         48.2953 bohr


     Adding external electric field

     Computed dipole along edir(3) : 
        Elec. dipole        -10.0229 Ry au,        -25.4758 Debye
        Ion. dipole         -10.0252 Ry au,        -25.4815 Debye
        Dipole               -2.0216 Ry au,         -5.1385 Debye
        Dipole field         -0.0023 Ry au, 

        Potential amp.        0.2184 Ry
        Total length         48.2953 bohr


     total cpu time spent up to now is   109744.4 secs

     total energy              =  -33081.83467395 Ry
     estimated scf accuracy    <       0.00095672 Ry

     total magnetization       =     1.94 Bohr mag/cell
     absolute magnetization    =     1.97 Bohr mag/cell

     iteration #102     ecut=    60.00 Ry     beta= 0.70
     Davidson diagonalization with overlap

---- Real-time Memory Report at c_bands before calling an iterative solver
          1804 MiB given to the printing process from OS
          1341 MiB allocation reported by mallinfo(arena+hblkhd)
        397166 MiB available memory on the node where the printing process lives
------------------
     ethr =  6.30E-08,  avg # of iterations =  2.0

     negative rho (up, down):  6.259E-04 6.160E-04

     Adding external electric field

     Computed dipole along edir(3) : 
        Elec. dipole        -10.0229 Ry au,        -25.4758 Debye
        Ion. dipole         -10.0252 Ry au,        -25.4815 Debye
        Dipole               -2.0246 Ry au,         -5.1461 Debye
        Dipole field         -0.0023 Ry au, 

        Potential amp.        0.2188 Ry
        Total length         48.2953 bohr


     Adding external electric field

     Computed dipole along edir(3) : 
        Elec. dipole        -10.0229 Ry au,        -25.4758 Debye
        Ion. dipole         -10.0252 Ry au,        -25.4815 Debye
        Dipole               -2.0246 Ry au,         -5.1461 Debye
        Dipole field         -0.0023 Ry au, 

        Potential amp.        0.2188 Ry
        Total length         48.2953 bohr


     total cpu time spent up to now is   110819.6 secs

     total energy              =  -33081.83466175 Ry
     estimated scf accuracy    <       0.00114426 Ry

     total magnetization       =     1.94 Bohr mag/cell
     absolute magnetization    =     1.97 Bohr mag/cell

     iteration #103     ecut=    60.00 Ry     beta= 0.70
     Davidson diagonalization with overlap

---- Real-time Memory Report at c_bands before calling an iterative solver
          1804 MiB given to the printing process from OS
          1341 MiB allocation reported by mallinfo(arena+hblkhd)
        397125 MiB available memory on the node where the printing process lives
------------------
     ethr =  6.30E-08,  avg # of iterations =  2.0

     negative rho (up, down):  5.646E-04 5.564E-04

     Adding external electric field

     Computed dipole along edir(3) : 
        Elec. dipole        -10.0229 Ry au,        -25.4758 Debye
        Ion. dipole         -10.0252 Ry au,        -25.4815 Debye
        Dipole               -2.0310 Ry au,         -5.1622 Debye
        Dipole field         -0.0023 Ry au, 

        Potential amp.        0.2194 Ry
        Total length         48.2953 bohr


     Adding external electric field

     Computed dipole along edir(3) : 
        Elec. dipole        -10.0229 Ry au,        -25.4758 Debye
        Ion. dipole         -10.0252 Ry au,        -25.4815 Debye
        Dipole               -2.0310 Ry au,         -5.1622 Debye
        Dipole field         -0.0023 Ry au, 

        Potential amp.        0.2194 Ry
        Total length         48.2953 bohr


     total cpu time spent up to now is   111904.0 secs

     total energy              =  -33081.83457122 Ry
     estimated scf accuracy    <       0.00097641 Ry

     total magnetization       =     1.94 Bohr mag/cell
     absolute magnetization    =     1.97 Bohr mag/cell

     iteration #104     ecut=    60.00 Ry     beta= 0.70
     Davidson diagonalization with overlap

---- Real-time Memory Report at c_bands before calling an iterative solver
          1804 MiB given to the printing process from OS
          1341 MiB allocation reported by mallinfo(arena+hblkhd)
        397156 MiB available memory on the node where the printing process lives
------------------
     ethr =  6.30E-08,  avg # of iterations =  4.3

     negative rho (up, down):  4.545E-04 4.485E-04

     Adding external electric field

     Computed dipole along edir(3) : 
        Elec. dipole        -10.0229 Ry au,        -25.4757 Debye
        Ion. dipole         -10.0252 Ry au,        -25.4815 Debye
        Dipole               -2.0408 Ry au,         -5.1872 Debye
        Dipole field         -0.0023 Ry au, 

        Potential amp.        0.2205 Ry
        Total length         48.2953 bohr


     Adding external electric field

     Computed dipole along edir(3) : 
        Elec. dipole        -10.0229 Ry au,        -25.4757 Debye
        Ion. dipole         -10.0252 Ry au,        -25.4815 Debye
        Dipole               -2.0408 Ry au,         -5.1872 Debye
        Dipole field         -0.0023 Ry au, 

        Potential amp.        0.2205 Ry
        Total length         48.2953 bohr


     total cpu time spent up to now is   113006.1 secs

     total energy              =  -33081.83460141 Ry
     estimated scf accuracy    <       0.00102156 Ry

     total magnetization       =     1.94 Bohr mag/cell
     absolute magnetization    =     1.97 Bohr mag/cell

     iteration #105     ecut=    60.00 Ry     beta= 0.70
     Davidson diagonalization with overlap

---- Real-time Memory Report at c_bands before calling an iterative solver
          1804 MiB given to the printing process from OS
          1341 MiB allocation reported by mallinfo(arena+hblkhd)
        397139 MiB available memory on the node where the printing process lives
------------------
     ethr =  6.30E-08,  avg # of iterations =  4.5

     negative rho (up, down):  4.135E-04 4.081E-04

     Adding external electric field

     Computed dipole along edir(3) : 
        Elec. dipole        -10.0229 Ry au,        -25.4757 Debye
        Ion. dipole         -10.0252 Ry au,        -25.4815 Debye
        Dipole               -2.0433 Ry au,         -5.1937 Debye
        Dipole field         -0.0023 Ry au, 

        Potential amp.        0.2208 Ry
        Total length         48.2953 bohr


     Adding external electric field

     Computed dipole along edir(3) : 
        Elec. dipole        -10.0229 Ry au,        -25.4757 Debye
        Ion. dipole         -10.0252 Ry au,        -25.4815 Debye
        Dipole               -2.0433 Ry au,         -5.1937 Debye
        Dipole field         -0.0023 Ry au, 

        Potential amp.        0.2208 Ry
        Total length         48.2953 bohr


     total cpu time spent up to now is   114106.3 secs

     total energy              =  -33081.83448020 Ry
     estimated scf accuracy    <       0.00100679 Ry

     total magnetization       =     1.94 Bohr mag/cell
     absolute magnetization    =     1.97 Bohr mag/cell

     iteration #106     ecut=    60.00 Ry     beta= 0.70
     Davidson diagonalization with overlap

---- Real-time Memory Report at c_bands before calling an iterative solver
          1804 MiB given to the printing process from OS
          1341 MiB allocation reported by mallinfo(arena+hblkhd)
        397080 MiB available memory on the node where the printing process lives
------------------
     ethr =  6.30E-08,  avg # of iterations =  4.5

     negative rho (up, down):  3.825E-04 3.772E-04

     Adding external electric field

     Computed dipole along edir(3) : 
        Elec. dipole        -10.0229 Ry au,        -25.4757 Debye
        Ion. dipole         -10.0252 Ry au,        -25.4815 Debye
        Dipole               -2.0573 Ry au,         -5.2292 Debye
        Dipole field         -0.0023 Ry au, 

        Potential amp.        0.2223 Ry
        Total length         48.2953 bohr


     Adding external electric field

     Computed dipole along edir(3) : 
        Elec. dipole        -10.0229 Ry au,        -25.4757 Debye
        Ion. dipole         -10.0252 Ry au,        -25.4815 Debye
        Dipole               -2.0573 Ry au,         -5.2292 Debye
        Dipole field         -0.0023 Ry au, 

        Potential amp.        0.2223 Ry
        Total length         48.2953 bohr


     total cpu time spent up to now is   115214.3 secs

     total energy              =  -33081.83448062 Ry
     estimated scf accuracy    <       0.00070805 Ry

     total magnetization       =     1.95 Bohr mag/cell
     absolute magnetization    =     1.97 Bohr mag/cell

     iteration #107     ecut=    60.00 Ry     beta= 0.70
     Davidson diagonalization with overlap

---- Real-time Memory Report at c_bands before calling an iterative solver
          1804 MiB given to the printing process from OS
          1341 MiB allocation reported by mallinfo(arena+hblkhd)
        397124 MiB available memory on the node where the printing process lives
------------------
     ethr =  6.30E-08,  avg # of iterations =  4.5

     negative rho (up, down):  3.121E-04 3.097E-04

     Adding external electric field

     Computed dipole along edir(3) : 
        Elec. dipole        -10.0229 Ry au,        -25.4757 Debye
        Ion. dipole         -10.0252 Ry au,        -25.4815 Debye
        Dipole               -2.0729 Ry au,         -5.2688 Debye
        Dipole field         -0.0023 Ry au, 

        Potential amp.        0.2240 Ry
        Total length         48.2953 bohr


     Adding external electric field

     Computed dipole along edir(3) : 
        Elec. dipole        -10.0229 Ry au,        -25.4757 Debye
        Ion. dipole         -10.0252 Ry au,        -25.4815 Debye
        Dipole               -2.0729 Ry au,         -5.2688 Debye
        Dipole field         -0.0023 Ry au, 

        Potential amp.        0.2240 Ry
        Total length         48.2953 bohr


     total cpu time spent up to now is   116323.3 secs

     total energy              =  -33081.83448092 Ry
     estimated scf accuracy    <       0.00020003 Ry

     total magnetization       =     1.96 Bohr mag/cell
     absolute magnetization    =     1.99 Bohr mag/cell

     iteration #108     ecut=    60.00 Ry     beta= 0.70
     Davidson diagonalization with overlap

---- Real-time Memory Report at c_bands before calling an iterative solver
          1804 MiB given to the printing process from OS
          1341 MiB allocation reported by mallinfo(arena+hblkhd)
        397130 MiB available memory on the node where the printing process lives
------------------
     ethr =  3.06E-08,  avg # of iterations =  4.7

     negative rho (up, down):  5.535E-04 5.446E-04

     Adding external electric field

     Computed dipole along edir(3) : 
        Elec. dipole        -10.0229 Ry au,        -25.4757 Debye
        Ion. dipole         -10.0252 Ry au,        -25.4815 Debye
        Dipole               -2.0710 Ry au,         -5.2640 Debye
        Dipole field         -0.0023 Ry au, 

        Potential amp.        0.2238 Ry
        Total length         48.2953 bohr


     Adding external electric field

     Computed dipole along edir(3) : 
        Elec. dipole        -10.0229 Ry au,        -25.4757 Debye
        Ion. dipole         -10.0252 Ry au,        -25.4815 Debye
        Dipole               -2.0710 Ry au,         -5.2640 Debye
        Dipole field         -0.0023 Ry au, 

        Potential amp.        0.2238 Ry
        Total length         48.2953 bohr


     total cpu time spent up to now is   117445.5 secs

     total energy              =  -33081.83323070 Ry
     estimated scf accuracy    <       0.00018473 Ry

     total magnetization       =     1.96 Bohr mag/cell
     absolute magnetization    =     1.98 Bohr mag/cell

     iteration #109     ecut=    60.00 Ry     beta= 0.70
     Davidson diagonalization with overlap

---- Real-time Memory Report at c_bands before calling an iterative solver
          1804 MiB given to the printing process from OS
          1341 MiB allocation reported by mallinfo(arena+hblkhd)
        397143 MiB available memory on the node where the printing process lives
------------------
     ethr =  2.82E-08,  avg # of iterations =  5.3

     negative rho (up, down):  4.330E-04 4.262E-04

     Adding external electric field

     Computed dipole along edir(3) : 
        Elec. dipole        -10.0229 Ry au,        -25.4756 Debye
        Ion. dipole         -10.0252 Ry au,        -25.4815 Debye
        Dipole               -2.0831 Ry au,         -5.2948 Debye
        Dipole field         -0.0023 Ry au, 

        Potential amp.        0.2251 Ry
        Total length         48.2953 bohr


     Adding external electric field

     Computed dipole along edir(3) : 
        Elec. dipole        -10.0229 Ry au,        -25.4756 Debye
        Ion. dipole         -10.0252 Ry au,        -25.4815 Debye
        Dipole               -2.0831 Ry au,         -5.2948 Debye
        Dipole field         -0.0023 Ry au, 

        Potential amp.        0.2251 Ry
        Total length         48.2953 bohr


     total cpu time spent up to now is   118601.5 secs

     total energy              =  -33081.83463634 Ry
     estimated scf accuracy    <       0.00021001 Ry

     total magnetization       =     1.97 Bohr mag/cell
     absolute magnetization    =     1.99 Bohr mag/cell

     iteration #110     ecut=    60.00 Ry     beta= 0.70
     Davidson diagonalization with overlap

---- Real-time Memory Report at c_bands before calling an iterative solver
          1804 MiB given to the printing process from OS
          1341 MiB allocation reported by mallinfo(arena+hblkhd)
        397135 MiB available memory on the node where the printing process lives
------------------
     ethr =  2.82E-08,  avg # of iterations =  4.5

     negative rho (up, down):  7.552E-04 7.422E-04

     Adding external electric field

     Computed dipole along edir(3) : 
        Elec. dipole        -10.0229 Ry au,        -25.4757 Debye
        Ion. dipole         -10.0252 Ry au,        -25.4815 Debye
        Dipole               -2.0591 Ry au,         -5.2337 Debye
        Dipole field         -0.0023 Ry au, 

        Potential amp.        0.2225 Ry
        Total length         48.2953 bohr


     Adding external electric field

     Computed dipole along edir(3) : 
        Elec. dipole        -10.0229 Ry au,        -25.4757 Debye
        Ion. dipole         -10.0252 Ry au,        -25.4815 Debye
        Dipole               -2.0591 Ry au,         -5.2337 Debye
        Dipole field         -0.0023 Ry au, 

        Potential amp.        0.2225 Ry
        Total length         48.2953 bohr


     total cpu time spent up to now is   119722.7 secs

     total energy              =  -33081.83408086 Ry
     estimated scf accuracy    <       0.00038306 Ry

     total magnetization       =     1.98 Bohr mag/cell
     absolute magnetization    =     2.00 Bohr mag/cell

     iteration #111     ecut=    60.00 Ry     beta= 0.70
     Davidson diagonalization with overlap

---- Real-time Memory Report at c_bands before calling an iterative solver
          1804 MiB given to the printing process from OS
          1341 MiB allocation reported by mallinfo(arena+hblkhd)
        397166 MiB available memory on the node where the printing process lives
------------------
     ethr =  2.82E-08,  avg # of iterations =  5.0

     negative rho (up, down):  5.567E-04 5.459E-04

     Adding external electric field

     Computed dipole along edir(3) : 
        Elec. dipole        -10.0229 Ry au,        -25.4756 Debye
        Ion. dipole         -10.0252 Ry au,        -25.4815 Debye
        Dipole               -2.0753 Ry au,         -5.2749 Debye
        Dipole field         -0.0023 Ry au, 

        Potential amp.        0.2242 Ry
        Total length         48.2953 bohr


     Adding external electric field

     Computed dipole along edir(3) : 
        Elec. dipole        -10.0229 Ry au,        -25.4756 Debye
        Ion. dipole         -10.0252 Ry au,        -25.4815 Debye
        Dipole               -2.0753 Ry au,         -5.2749 Debye
        Dipole field         -0.0023 Ry au, 

        Potential amp.        0.2242 Ry
        Total length         48.2953 bohr


     total cpu time spent up to now is   120852.0 secs

     total energy              =  -33081.83467728 Ry
     estimated scf accuracy    <       0.00014525 Ry

     total magnetization       =     1.95 Bohr mag/cell
     absolute magnetization    =     1.98 Bohr mag/cell

     iteration #112     ecut=    60.00 Ry     beta= 0.70
     Davidson diagonalization with overlap

---- Real-time Memory Report at c_bands before calling an iterative solver
          1804 MiB given to the printing process from OS
          1341 MiB allocation reported by mallinfo(arena+hblkhd)
        397166 MiB available memory on the node where the printing process lives
------------------
     ethr =  2.22E-08,  avg # of iterations =  4.7

     negative rho (up, down):  6.314E-04 6.195E-04

     Adding external electric field

     Computed dipole along edir(3) : 
        Elec. dipole        -10.0229 Ry au,        -25.4757 Debye
        Ion. dipole         -10.0252 Ry au,        -25.4815 Debye
        Dipole               -2.0694 Ry au,         -5.2600 Debye
        Dipole field         -0.0023 Ry au, 

        Potential amp.        0.2236 Ry
        Total length         48.2953 bohr


     Adding external electric field

     Computed dipole along edir(3) : 
        Elec. dipole        -10.0229 Ry au,        -25.4757 Debye
        Ion. dipole         -10.0252 Ry au,        -25.4815 Debye
        Dipole               -2.0694 Ry au,         -5.2600 Debye
        Dipole field         -0.0023 Ry au, 

        Potential amp.        0.2236 Ry
        Total length         48.2953 bohr


     total cpu time spent up to now is   121967.6 secs

     total energy              =  -33081.83474226 Ry
     estimated scf accuracy    <       0.00010401 Ry

     total magnetization       =     1.97 Bohr mag/cell
     absolute magnetization    =     1.99 Bohr mag/cell

     iteration #113     ecut=    60.00 Ry     beta= 0.70
     Davidson diagonalization with overlap

---- Real-time Memory Report at c_bands before calling an iterative solver
          1804 MiB given to the printing process from OS
          1341 MiB allocation reported by mallinfo(arena+hblkhd)
        397136 MiB available memory on the node where the printing process lives
------------------
     ethr =  1.59E-08,  avg # of iterations =  4.2

     negative rho (up, down):  6.775E-04 6.652E-04

     Adding external electric field

     Computed dipole along edir(3) : 
        Elec. dipole        -10.0229 Ry au,        -25.4757 Debye
        Ion. dipole         -10.0252 Ry au,        -25.4815 Debye
        Dipole               -2.0705 Ry au,         -5.2626 Debye
        Dipole field         -0.0023 Ry au, 

        Potential amp.        0.2237 Ry
        Total length         48.2953 bohr


     Adding external electric field

     Computed dipole along edir(3) : 
        Elec. dipole        -10.0229 Ry au,        -25.4757 Debye
        Ion. dipole         -10.0252 Ry au,        -25.4815 Debye
        Dipole               -2.0705 Ry au,         -5.2626 Debye
        Dipole field         -0.0023 Ry au, 

        Potential amp.        0.2237 Ry
        Total length         48.2953 bohr


     total cpu time spent up to now is   123072.4 secs

     total energy              =  -33081.83474295 Ry
     estimated scf accuracy    <       0.00004841 Ry

     total magnetization       =     1.95 Bohr mag/cell
     absolute magnetization    =     1.98 Bohr mag/cell

     iteration #114     ecut=    60.00 Ry     beta= 0.70
     Davidson diagonalization with overlap

---- Real-time Memory Report at c_bands before calling an iterative solver
          1804 MiB given to the printing process from OS
          1341 MiB allocation reported by mallinfo(arena+hblkhd)
        397168 MiB available memory on the node where the printing process lives
------------------
     ethr =  7.40E-09,  avg # of iterations =  4.5

     negative rho (up, down):  7.358E-04 7.251E-04

     Adding external electric field

     Computed dipole along edir(3) : 
        Elec. dipole        -10.0229 Ry au,        -25.4756 Debye
        Ion. dipole         -10.0252 Ry au,        -25.4815 Debye
        Dipole               -2.0779 Ry au,         -5.2814 Debye
        Dipole field         -0.0023 Ry au, 

        Potential amp.        0.2245 Ry
        Total length         48.2953 bohr


     Adding external electric field

     Computed dipole along edir(3) : 
        Elec. dipole        -10.0229 Ry au,        -25.4756 Debye
        Ion. dipole         -10.0252 Ry au,        -25.4815 Debye
        Dipole               -2.0779 Ry au,         -5.2814 Debye
        Dipole field         -0.0023 Ry au, 

        Potential amp.        0.2245 Ry
        Total length         48.2953 bohr


     total cpu time spent up to now is   124188.9 secs

     total energy              =  -33081.83447606 Ry
     estimated scf accuracy    <       0.00006384 Ry

     total magnetization       =     1.95 Bohr mag/cell
     absolute magnetization    =     1.97 Bohr mag/cell

     iteration #115     ecut=    60.00 Ry     beta= 0.70
     Davidson diagonalization with overlap

---- Real-time Memory Report at c_bands before calling an iterative solver
          1804 MiB given to the printing process from OS
          1341 MiB allocation reported by mallinfo(arena+hblkhd)
        397161 MiB available memory on the node where the printing process lives
------------------
     ethr =  7.40E-09,  avg # of iterations =  5.8

     negative rho (up, down):  7.117E-04 7.002E-04

     Adding external electric field

     Computed dipole along edir(3) : 
        Elec. dipole        -10.0229 Ry au,        -25.4756 Debye
        Ion. dipole         -10.0252 Ry au,        -25.4815 Debye
        Dipole               -2.0758 Ry au,         -5.2761 Debye
        Dipole field         -0.0023 Ry au, 

        Potential amp.        0.2243 Ry
        Total length         48.2953 bohr


     Adding external electric field

     Computed dipole along edir(3) : 
        Elec. dipole        -10.0229 Ry au,        -25.4756 Debye
        Ion. dipole         -10.0252 Ry au,        -25.4815 Debye
        Dipole               -2.0758 Ry au,         -5.2761 Debye
        Dipole field         -0.0023 Ry au, 

        Potential amp.        0.2243 Ry
        Total length         48.2953 bohr


     total cpu time spent up to now is   125339.2 secs

     total energy              =  -33081.83478031 Ry
     estimated scf accuracy    <       0.00003420 Ry

     total magnetization       =     1.95 Bohr mag/cell
     absolute magnetization    =     1.97 Bohr mag/cell

     iteration #116     ecut=    60.00 Ry     beta= 0.70
     Davidson diagonalization with overlap

---- Real-time Memory Report at c_bands before calling an iterative solver
          1804 MiB given to the printing process from OS
          1341 MiB allocation reported by mallinfo(arena+hblkhd)
        397129 MiB available memory on the node where the printing process lives
------------------
     ethr =  5.23E-09,  avg # of iterations =  4.0

     negative rho (up, down):  6.641E-04 6.530E-04

     Adding external electric field

     Computed dipole along edir(3) : 
        Elec. dipole        -10.0229 Ry au,        -25.4756 Debye
        Ion. dipole         -10.0252 Ry au,        -25.4815 Debye
        Dipole               -2.0820 Ry au,         -5.2918 Debye
        Dipole field         -0.0023 Ry au, 

        Potential amp.        0.2249 Ry
        Total length         48.2953 bohr


     Adding external electric field

     Computed dipole along edir(3) : 
        Elec. dipole        -10.0229 Ry au,        -25.4756 Debye
        Ion. dipole         -10.0252 Ry au,        -25.4815 Debye
        Dipole               -2.0820 Ry au,         -5.2918 Debye
        Dipole field         -0.0023 Ry au, 

        Potential amp.        0.2249 Ry
        Total length         48.2953 bohr


     total cpu time spent up to now is   126433.0 secs

     total energy              =  -33081.83477718 Ry
     estimated scf accuracy    <       0.00007775 Ry

     total magnetization       =     1.95 Bohr mag/cell
     absolute magnetization    =     1.97 Bohr mag/cell

     iteration #117     ecut=    60.00 Ry     beta= 0.70
     Davidson diagonalization with overlap

---- Real-time Memory Report at c_bands before calling an iterative solver
          1804 MiB given to the printing process from OS
          1341 MiB allocation reported by mallinfo(arena+hblkhd)
        397161 MiB available memory on the node where the printing process lives
------------------
     ethr =  5.23E-09,  avg # of iterations =  4.3

     negative rho (up, down):  6.430E-04 6.322E-04

     Adding external electric field

     Computed dipole along edir(3) : 
        Elec. dipole        -10.0229 Ry au,        -25.4756 Debye
        Ion. dipole         -10.0252 Ry au,        -25.4815 Debye
        Dipole               -2.0789 Ry au,         -5.2839 Debye
        Dipole field         -0.0023 Ry au, 

        Potential amp.        0.2246 Ry
        Total length         48.2953 bohr


     Adding external electric field

     Computed dipole along edir(3) : 
        Elec. dipole        -10.0229 Ry au,        -25.4756 Debye
        Ion. dipole         -10.0252 Ry au,        -25.4815 Debye
        Dipole               -2.0789 Ry au,         -5.2839 Debye
        Dipole field         -0.0023 Ry au, 

        Potential amp.        0.2246 Ry
        Total length         48.2953 bohr


     total cpu time spent up to now is   127539.4 secs

     total energy              =  -33081.83476479 Ry
     estimated scf accuracy    <       0.00004692 Ry

     total magnetization       =     1.96 Bohr mag/cell
     absolute magnetization    =     1.98 Bohr mag/cell

     iteration #118     ecut=    60.00 Ry     beta= 0.70
     Davidson diagonalization with overlap

---- Real-time Memory Report at c_bands before calling an iterative solver
          1804 MiB given to the printing process from OS
          1341 MiB allocation reported by mallinfo(arena+hblkhd)
        397157 MiB available memory on the node where the printing process lives
------------------
     ethr =  5.23E-09,  avg # of iterations =  4.5

     negative rho (up, down):  6.604E-04 6.500E-04

     Adding external electric field

     Computed dipole along edir(3) : 
        Elec. dipole        -10.0229 Ry au,        -25.4756 Debye
        Ion. dipole         -10.0252 Ry au,        -25.4815 Debye
        Dipole               -2.0753 Ry au,         -5.2749 Debye
        Dipole field         -0.0023 Ry au, 

        Potential amp.        0.2242 Ry
        Total length         48.2953 bohr


     Adding external electric field

     Computed dipole along edir(3) : 
        Elec. dipole        -10.0229 Ry au,        -25.4756 Debye
        Ion. dipole         -10.0252 Ry au,        -25.4815 Debye
        Dipole               -2.0753 Ry au,         -5.2749 Debye
        Dipole field         -0.0023 Ry au, 

        Potential amp.        0.2242 Ry
        Total length         48.2953 bohr


     total cpu time spent up to now is   128646.4 secs

     total energy              =  -33081.83479497 Ry
     estimated scf accuracy    <       0.00002304 Ry

     total magnetization       =     1.96 Bohr mag/cell
     absolute magnetization    =     1.98 Bohr mag/cell

     iteration #119     ecut=    60.00 Ry     beta= 0.70
     Davidson diagonalization with overlap

---- Real-time Memory Report at c_bands before calling an iterative solver
          1804 MiB given to the printing process from OS
          1341 MiB allocation reported by mallinfo(arena+hblkhd)
        397166 MiB available memory on the node where the printing process lives
------------------
     ethr =  3.52E-09,  avg # of iterations =  4.5

     negative rho (up, down):  5.826E-04 5.764E-04

     Adding external electric field

     Computed dipole along edir(3) : 
        Elec. dipole        -10.0229 Ry au,        -25.4757 Debye
        Ion. dipole         -10.0252 Ry au,        -25.4815 Debye
        Dipole               -2.0695 Ry au,         -5.2601 Debye
        Dipole field         -0.0023 Ry au, 

        Potential amp.        0.2236 Ry
        Total length         48.2953 bohr


     Adding external electric field

     Computed dipole along edir(3) : 
        Elec. dipole        -10.0229 Ry au,        -25.4757 Debye
        Ion. dipole         -10.0252 Ry au,        -25.4815 Debye
        Dipole               -2.0695 Ry au,         -5.2601 Debye
        Dipole field         -0.0023 Ry au, 

        Potential amp.        0.2236 Ry
        Total length         48.2953 bohr


     total cpu time spent up to now is   129757.4 secs

     total energy              =  -33081.83430113 Ry
     estimated scf accuracy    <       0.00001989 Ry

     total magnetization       =     1.95 Bohr mag/cell
     absolute magnetization    =     1.98 Bohr mag/cell

     iteration #120     ecut=    60.00 Ry     beta= 0.70
     Davidson diagonalization with overlap

---- Real-time Memory Report at c_bands before calling an iterative solver
          1804 MiB given to the printing process from OS
          1341 MiB allocation reported by mallinfo(arena+hblkhd)
        397143 MiB available memory on the node where the printing process lives
------------------
     ethr =  3.04E-09,  avg # of iterations =  5.6

     negative rho (up, down):  6.921E-04 6.844E-04

     Adding external electric field

     Computed dipole along edir(3) : 
        Elec. dipole        -10.0229 Ry au,        -25.4757 Debye
        Ion. dipole         -10.0252 Ry au,        -25.4815 Debye
        Dipole               -2.0647 Ry au,         -5.2478 Debye
        Dipole field         -0.0023 Ry au, 

        Potential amp.        0.2231 Ry
        Total length         48.2953 bohr


     Adding external electric field

     Computed dipole along edir(3) : 
        Elec. dipole        -10.0229 Ry au,        -25.4757 Debye
        Ion. dipole         -10.0252 Ry au,        -25.4815 Debye
        Dipole               -2.0647 Ry au,         -5.2478 Debye
        Dipole field         -0.0023 Ry au, 

        Potential amp.        0.2231 Ry
        Total length         48.2953 bohr


     total cpu time spent up to now is   130933.9 secs

     total energy              =  -33081.83477726 Ry
     estimated scf accuracy    <       0.00008605 Ry

     total magnetization       =     1.96 Bohr mag/cell
     absolute magnetization    =     1.99 Bohr mag/cell

     iteration #121     ecut=    60.00 Ry     beta= 0.70
     Davidson diagonalization with overlap

---- Real-time Memory Report at c_bands before calling an iterative solver
          1804 MiB given to the printing process from OS
          1341 MiB allocation reported by mallinfo(arena+hblkhd)
        397162 MiB available memory on the node where the printing process lives
------------------
     ethr =  3.04E-09,  avg # of iterations =  4.5

     negative rho (up, down):  6.524E-04 6.449E-04

     Adding external electric field

     Computed dipole along edir(3) : 
        Elec. dipole        -10.0229 Ry au,        -25.4757 Debye
        Ion. dipole         -10.0252 Ry au,        -25.4815 Debye
        Dipole               -2.0647 Ry au,         -5.2480 Debye
        Dipole field         -0.0023 Ry au, 

        Potential amp.        0.2231 Ry
        Total length         48.2953 bohr


     Adding external electric field

     Computed dipole along edir(3) : 
        Elec. dipole        -10.0229 Ry au,        -25.4757 Debye
        Ion. dipole         -10.0252 Ry au,        -25.4815 Debye
        Dipole               -2.0647 Ry au,         -5.2480 Debye
        Dipole field         -0.0023 Ry au, 

        Potential amp.        0.2231 Ry
        Total length         48.2953 bohr


     total cpu time spent up to now is   132047.0 secs

     total energy              =  -33081.83481257 Ry
     estimated scf accuracy    <       0.00003640 Ry

     total magnetization       =     1.95 Bohr mag/cell
     absolute magnetization    =     1.97 Bohr mag/cell

     iteration #122     ecut=    60.00 Ry     beta= 0.70
     Davidson diagonalization with overlap

---- Real-time Memory Report at c_bands before calling an iterative solver
          1804 MiB given to the printing process from OS
          1341 MiB allocation reported by mallinfo(arena+hblkhd)
        397168 MiB available memory on the node where the printing process lives
------------------
     ethr =  3.04E-09,  avg # of iterations =  4.0

     negative rho (up, down):  6.558E-04 6.483E-04

     Adding external electric field

     Computed dipole along edir(3) : 
        Elec. dipole        -10.0229 Ry au,        -25.4757 Debye
        Ion. dipole         -10.0252 Ry au,        -25.4815 Debye
        Dipole               -2.0640 Ry au,         -5.2462 Debye
        Dipole field         -0.0023 Ry au, 

        Potential amp.        0.2230 Ry
        Total length         48.2953 bohr


     Adding external electric field

     Computed dipole along edir(3) : 
        Elec. dipole        -10.0229 Ry au,        -25.4757 Debye
        Ion. dipole         -10.0252 Ry au,        -25.4815 Debye
        Dipole               -2.0640 Ry au,         -5.2462 Debye
        Dipole field         -0.0023 Ry au, 

        Potential amp.        0.2230 Ry
        Total length         48.2953 bohr


     total cpu time spent up to now is   133135.6 secs

     total energy              =  -33081.83481349 Ry
     estimated scf accuracy    <       0.00002104 Ry

     total magnetization       =     1.95 Bohr mag/cell
     absolute magnetization    =     1.97 Bohr mag/cell

     iteration #123     ecut=    60.00 Ry     beta= 0.70
     Davidson diagonalization with overlap

---- Real-time Memory Report at c_bands before calling an iterative solver
          1804 MiB given to the printing process from OS
          1341 MiB allocation reported by mallinfo(arena+hblkhd)
        397122 MiB available memory on the node where the printing process lives
------------------
     ethr =  3.04E-09,  avg # of iterations =  2.0

     negative rho (up, down):  6.233E-04 6.164E-04

     Adding external electric field

     Computed dipole along edir(3) : 
        Elec. dipole        -10.0229 Ry au,        -25.4757 Debye
        Ion. dipole         -10.0252 Ry au,        -25.4815 Debye
        Dipole               -2.0671 Ry au,         -5.2541 Debye
        Dipole field         -0.0023 Ry au, 

        Potential amp.        0.2233 Ry
        Total length         48.2953 bohr


     Adding external electric field

     Computed dipole along edir(3) : 
        Elec. dipole        -10.0229 Ry au,        -25.4757 Debye
        Ion. dipole         -10.0252 Ry au,        -25.4815 Debye
        Dipole               -2.0671 Ry au,         -5.2541 Debye
        Dipole field         -0.0023 Ry au, 

        Potential amp.        0.2233 Ry
        Total length         48.2953 bohr


     total cpu time spent up to now is   134202.9 secs

     total energy              =  -33081.83476575 Ry
     estimated scf accuracy    <       0.00002654 Ry

     total magnetization       =     1.95 Bohr mag/cell
     absolute magnetization    =     1.97 Bohr mag/cell

     iteration #124     ecut=    60.00 Ry     beta= 0.70
     Davidson diagonalization with overlap

---- Real-time Memory Report at c_bands before calling an iterative solver
          1804 MiB given to the printing process from OS
          1341 MiB allocation reported by mallinfo(arena+hblkhd)
        397163 MiB available memory on the node where the printing process lives
------------------
     ethr =  3.04E-09,  avg # of iterations =  5.0

     negative rho (up, down):  6.259E-04 6.169E-04

     Adding external electric field

     Computed dipole along edir(3) : 
        Elec. dipole        -10.0229 Ry au,        -25.4757 Debye
        Ion. dipole         -10.0252 Ry au,        -25.4815 Debye
        Dipole               -2.0678 Ry au,         -5.2559 Debye
        Dipole field         -0.0023 Ry au, 

        Potential amp.        0.2234 Ry
        Total length         48.2953 bohr


     Adding external electric field

     Computed dipole along edir(3) : 
        Elec. dipole        -10.0229 Ry au,        -25.4757 Debye
        Ion. dipole         -10.0252 Ry au,        -25.4815 Debye
        Dipole               -2.0678 Ry au,         -5.2559 Debye
        Dipole field         -0.0023 Ry au, 

        Potential amp.        0.2234 Ry
        Total length         48.2953 bohr


     total cpu time spent up to now is   135329.5 secs

     total energy              =  -33081.83481219 Ry
     estimated scf accuracy    <       0.00000794 Ry

     total magnetization       =     1.95 Bohr mag/cell
     absolute magnetization    =     1.98 Bohr mag/cell

     iteration #125     ecut=    60.00 Ry     beta= 0.70
     Davidson diagonalization with overlap

---- Real-time Memory Report at c_bands before calling an iterative solver
          1804 MiB given to the printing process from OS
          1341 MiB allocation reported by mallinfo(arena+hblkhd)
        397164 MiB available memory on the node where the printing process lives
------------------
     ethr =  1.21E-09,  avg # of iterations =  4.5

     negative rho (up, down):  6.285E-04 6.192E-04

     Adding external electric field

     Computed dipole along edir(3) : 
        Elec. dipole        -10.0229 Ry au,        -25.4757 Debye
        Ion. dipole         -10.0252 Ry au,        -25.4815 Debye
        Dipole               -2.0668 Ry au,         -5.2532 Debye
        Dipole field         -0.0023 Ry au, 

        Potential amp.        0.2233 Ry
        Total length         48.2953 bohr


     Adding external electric field

     Computed dipole along edir(3) : 
        Elec. dipole        -10.0229 Ry au,        -25.4757 Debye
        Ion. dipole         -10.0252 Ry au,        -25.4815 Debye
        Dipole               -2.0668 Ry au,         -5.2532 Debye
        Dipole field         -0.0023 Ry au, 

        Potential amp.        0.2233 Ry
        Total length         48.2953 bohr


     total cpu time spent up to now is   136442.1 secs

     total energy              =  -33081.83481883 Ry
     estimated scf accuracy    <       0.00002706 Ry

     total magnetization       =     1.96 Bohr mag/cell
     absolute magnetization    =     1.98 Bohr mag/cell

     iteration #126     ecut=    60.00 Ry     beta= 0.70
     Davidson diagonalization with overlap

---- Real-time Memory Report at c_bands before calling an iterative solver
          1804 MiB given to the printing process from OS
          1341 MiB allocation reported by mallinfo(arena+hblkhd)
        397132 MiB available memory on the node where the printing process lives
------------------
     ethr =  1.21E-09,  avg # of iterations =  4.2

     negative rho (up, down):  6.350E-04 6.249E-04

     Adding external electric field

     Computed dipole along edir(3) : 
        Elec. dipole        -10.0229 Ry au,        -25.4757 Debye
        Ion. dipole         -10.0252 Ry au,        -25.4815 Debye
        Dipole               -2.0652 Ry au,         -5.2493 Debye
        Dipole field         -0.0023 Ry au, 

        Potential amp.        0.2231 Ry
        Total length         48.2953 bohr


     Adding external electric field

     Computed dipole along edir(3) : 
        Elec. dipole        -10.0229 Ry au,        -25.4757 Debye
        Ion. dipole         -10.0252 Ry au,        -25.4815 Debye
        Dipole               -2.0652 Ry au,         -5.2493 Debye
        Dipole field         -0.0023 Ry au, 

        Potential amp.        0.2231 Ry
        Total length         48.2953 bohr


     total cpu time spent up to now is   137543.1 secs

     total energy              =  -33081.83480070 Ry
     estimated scf accuracy    <       0.00001398 Ry

     total magnetization       =     1.96 Bohr mag/cell
     absolute magnetization    =     1.98 Bohr mag/cell

     iteration #127     ecut=    60.00 Ry     beta= 0.70
     Davidson diagonalization with overlap

---- Real-time Memory Report at c_bands before calling an iterative solver
          1804 MiB given to the printing process from OS
          1341 MiB allocation reported by mallinfo(arena+hblkhd)
        397141 MiB available memory on the node where the printing process lives
------------------
     ethr =  1.21E-09,  avg # of iterations =  5.0

     negative rho (up, down):  6.327E-04 6.231E-04

     Adding external electric field

     Computed dipole along edir(3) : 
        Elec. dipole        -10.0229 Ry au,        -25.4757 Debye
        Ion. dipole         -10.0252 Ry au,        -25.4815 Debye
        Dipole               -2.0661 Ry au,         -5.2516 Debye
        Dipole field         -0.0023 Ry au, 

        Potential amp.        0.2232 Ry
        Total length         48.2953 bohr


     Adding external electric field

     Computed dipole along edir(3) : 
        Elec. dipole        -10.0229 Ry au,        -25.4757 Debye
        Ion. dipole         -10.0252 Ry au,        -25.4815 Debye
        Dipole               -2.0661 Ry au,         -5.2516 Debye
        Dipole field         -0.0023 Ry au, 

        Potential amp.        0.2232 Ry
        Total length         48.2953 bohr


     total cpu time spent up to now is   138669.6 secs

     total energy              =  -33081.83481815 Ry
     estimated scf accuracy    <       0.00001134 Ry

     total magnetization       =     1.96 Bohr mag/cell
     absolute magnetization    =     1.98 Bohr mag/cell

     iteration #128     ecut=    60.00 Ry     beta= 0.70
     Davidson diagonalization with overlap

---- Real-time Memory Report at c_bands before calling an iterative solver
          1804 MiB given to the printing process from OS
          1341 MiB allocation reported by mallinfo(arena+hblkhd)
        397149 MiB available memory on the node where the printing process lives
------------------
     ethr =  1.21E-09,  avg # of iterations =  4.2

     negative rho (up, down):  6.278E-04 6.177E-04

     Adding external electric field

     Computed dipole along edir(3) : 
        Elec. dipole        -10.0229 Ry au,        -25.4757 Debye
        Ion. dipole         -10.0252 Ry au,        -25.4815 Debye
        Dipole               -2.0667 Ry au,         -5.2530 Debye
        Dipole field         -0.0023 Ry au, 

        Potential amp.        0.2233 Ry
        Total length         48.2953 bohr


     Adding external electric field

     Computed dipole along edir(3) : 
        Elec. dipole        -10.0229 Ry au,        -25.4757 Debye
        Ion. dipole         -10.0252 Ry au,        -25.4815 Debye
        Dipole               -2.0667 Ry au,         -5.2530 Debye
        Dipole field         -0.0023 Ry au, 

        Potential amp.        0.2233 Ry
        Total length         48.2953 bohr


     total cpu time spent up to now is   139775.7 secs

     total energy              =  -33081.83479594 Ry
     estimated scf accuracy    <       0.00001248 Ry

     total magnetization       =     1.96 Bohr mag/cell
     absolute magnetization    =     1.98 Bohr mag/cell

     iteration #129     ecut=    60.00 Ry     beta= 0.70
     Davidson diagonalization with overlap

---- Real-time Memory Report at c_bands before calling an iterative solver
          1804 MiB given to the printing process from OS
          1341 MiB allocation reported by mallinfo(arena+hblkhd)
        397147 MiB available memory on the node where the printing process lives
------------------
     ethr =  1.21E-09,  avg # of iterations =  5.0

     negative rho (up, down):  6.252E-04 6.152E-04

     Adding external electric field

     Computed dipole along edir(3) : 
        Elec. dipole        -10.0229 Ry au,        -25.4757 Debye
        Ion. dipole         -10.0252 Ry au,        -25.4815 Debye
        Dipole               -2.0673 Ry au,         -5.2546 Debye
        Dipole field         -0.0023 Ry au, 

        Potential amp.        0.2234 Ry
        Total length         48.2953 bohr


     Adding external electric field

     Computed dipole along edir(3) : 
        Elec. dipole        -10.0229 Ry au,        -25.4757 Debye
        Ion. dipole         -10.0252 Ry au,        -25.4815 Debye
        Dipole               -2.0673 Ry au,         -5.2546 Debye
        Dipole field         -0.0023 Ry au, 

        Potential amp.        0.2234 Ry
        Total length         48.2953 bohr


     total cpu time spent up to now is   140903.7 secs

     total energy              =  -33081.83482418 Ry
     estimated scf accuracy    <       0.00001746 Ry

     total magnetization       =     1.96 Bohr mag/cell
     absolute magnetization    =     1.98 Bohr mag/cell

     iteration #130     ecut=    60.00 Ry     beta= 0.70
     Davidson diagonalization with overlap

---- Real-time Memory Report at c_bands before calling an iterative solver
          1804 MiB given to the printing process from OS
          1341 MiB allocation reported by mallinfo(arena+hblkhd)
        397155 MiB available memory on the node where the printing process lives
------------------
     ethr =  1.21E-09,  avg # of iterations =  2.9

     negative rho (up, down):  6.603E-04 6.501E-04

     Adding external electric field

     Computed dipole along edir(3) : 
        Elec. dipole        -10.0229 Ry au,        -25.4757 Debye
        Ion. dipole         -10.0252 Ry au,        -25.4815 Debye
        Dipole               -2.0647 Ry au,         -5.2479 Debye
        Dipole field         -0.0023 Ry au, 

        Potential amp.        0.2231 Ry
        Total length         48.2953 bohr


     Adding external electric field

     Computed dipole along edir(3) : 
        Elec. dipole        -10.0229 Ry au,        -25.4757 Debye
        Ion. dipole         -10.0252 Ry au,        -25.4815 Debye
        Dipole               -2.0647 Ry au,         -5.2479 Debye
        Dipole field         -0.0023 Ry au, 

        Potential amp.        0.2231 Ry
        Total length         48.2953 bohr


     total cpu time spent up to now is   141970.8 secs

     total energy              =  -33081.83478440 Ry
     estimated scf accuracy    <       0.00001927 Ry

     total magnetization       =     1.96 Bohr mag/cell
     absolute magnetization    =     1.98 Bohr mag/cell

     iteration #131     ecut=    60.00 Ry     beta= 0.70
     Davidson diagonalization with overlap

---- Real-time Memory Report at c_bands before calling an iterative solver
          1804 MiB given to the printing process from OS
          1341 MiB allocation reported by mallinfo(arena+hblkhd)
        397159 MiB available memory on the node where the printing process lives
------------------
     ethr =  1.21E-09,  avg # of iterations =  5.0

     negative rho (up, down):  6.721E-04 6.621E-04

     Adding external electric field

     Computed dipole along edir(3) : 
        Elec. dipole        -10.0229 Ry au,        -25.4757 Debye
        Ion. dipole         -10.0252 Ry au,        -25.4815 Debye
        Dipole               -2.0640 Ry au,         -5.2462 Debye
        Dipole field         -0.0023 Ry au, 

        Potential amp.        0.2230 Ry
        Total length         48.2953 bohr


     Adding external electric field

     Computed dipole along edir(3) : 
        Elec. dipole        -10.0229 Ry au,        -25.4757 Debye
        Ion. dipole         -10.0252 Ry au,        -25.4815 Debye
        Dipole               -2.0640 Ry au,         -5.2462 Debye
        Dipole field         -0.0023 Ry au, 

        Potential amp.        0.2230 Ry
        Total length         48.2953 bohr


     total cpu time spent up to now is   143098.0 secs

     total energy              =  -33081.83482323 Ry
     estimated scf accuracy    <       0.00000321 Ry

     total magnetization       =     1.95 Bohr mag/cell
     absolute magnetization    =     1.98 Bohr mag/cell

     iteration #132     ecut=    60.00 Ry     beta= 0.70
     Davidson diagonalization with overlap

---- Real-time Memory Report at c_bands before calling an iterative solver
          1804 MiB given to the printing process from OS
          1341 MiB allocation reported by mallinfo(arena+hblkhd)
        397161 MiB available memory on the node where the printing process lives
------------------
     ethr =  4.91E-10,  avg # of iterations =  4.0

     negative rho (up, down):  6.852E-04 6.759E-04

     Adding external electric field

     Computed dipole along edir(3) : 
        Elec. dipole        -10.0229 Ry au,        -25.4757 Debye
        Ion. dipole         -10.0252 Ry au,        -25.4815 Debye
        Dipole               -2.0662 Ry au,         -5.2518 Debye
        Dipole field         -0.0023 Ry au, 

        Potential amp.        0.2232 Ry
        Total length         48.2953 bohr


     Adding external electric field

     Computed dipole along edir(3) : 
        Elec. dipole        -10.0229 Ry au,        -25.4757 Debye
        Ion. dipole         -10.0252 Ry au,        -25.4815 Debye
        Dipole               -2.0662 Ry au,         -5.2518 Debye
        Dipole field         -0.0023 Ry au, 

        Potential amp.        0.2232 Ry
        Total length         48.2953 bohr


     total cpu time spent up to now is   144176.7 secs

     total energy              =  -33081.83479444 Ry
     estimated scf accuracy    <       0.00000335 Ry

     total magnetization       =     1.95 Bohr mag/cell
     absolute magnetization    =     1.98 Bohr mag/cell

     iteration #133     ecut=    60.00 Ry     beta= 0.70
     Davidson diagonalization with overlap

---- Real-time Memory Report at c_bands before calling an iterative solver
          1804 MiB given to the printing process from OS
          1341 MiB allocation reported by mallinfo(arena+hblkhd)
        397160 MiB available memory on the node where the printing process lives
------------------
     ethr =  4.91E-10,  avg # of iterations =  5.2

     negative rho (up, down):  6.584E-04 6.484E-04

     Adding external electric field

     Computed dipole along edir(3) : 
        Elec. dipole        -10.0229 Ry au,        -25.4757 Debye
        Ion. dipole         -10.0252 Ry au,        -25.4815 Debye
        Dipole               -2.0650 Ry au,         -5.2487 Debye
        Dipole field         -0.0023 Ry au, 

        Potential amp.        0.2231 Ry
        Total length         48.2953 bohr


     Adding external electric field

     Computed dipole along edir(3) : 
        Elec. dipole        -10.0229 Ry au,        -25.4757 Debye
        Ion. dipole         -10.0252 Ry au,        -25.4815 Debye
        Dipole               -2.0650 Ry au,         -5.2487 Debye
        Dipole field         -0.0023 Ry au, 

        Potential amp.        0.2231 Ry
        Total length         48.2953 bohr


     total cpu time spent up to now is   145313.6 secs

     total energy              =  -33081.83482503 Ry
     estimated scf accuracy    <       0.00000166 Ry

     total magnetization       =     1.95 Bohr mag/cell
     absolute magnetization    =     1.98 Bohr mag/cell

     iteration #134     ecut=    60.00 Ry     beta= 0.70
     Davidson diagonalization with overlap

---- Real-time Memory Report at c_bands before calling an iterative solver
          1804 MiB given to the printing process from OS
          1341 MiB allocation reported by mallinfo(arena+hblkhd)
        397154 MiB available memory on the node where the printing process lives
------------------
     ethr =  2.54E-10,  avg # of iterations =  5.0

     negative rho (up, down):  6.535E-04 6.430E-04

     Adding external electric field

     Computed dipole along edir(3) : 
        Elec. dipole        -10.0229 Ry au,        -25.4757 Debye
        Ion. dipole         -10.0252 Ry au,        -25.4815 Debye
        Dipole               -2.0652 Ry au,         -5.2491 Debye
        Dipole field         -0.0023 Ry au, 

        Potential amp.        0.2231 Ry
        Total length         48.2953 bohr


     Adding external electric field

     Computed dipole along edir(3) : 
        Elec. dipole        -10.0229 Ry au,        -25.4757 Debye
        Ion. dipole         -10.0252 Ry au,        -25.4815 Debye
        Dipole               -2.0652 Ry au,         -5.2491 Debye
        Dipole field         -0.0023 Ry au, 

        Potential amp.        0.2231 Ry
        Total length         48.2953 bohr


     total cpu time spent up to now is   146418.9 secs

     total energy              =  -33081.83482407 Ry
     estimated scf accuracy    <       0.00000102 Ry

     total magnetization       =     1.95 Bohr mag/cell
     absolute magnetization    =     1.98 Bohr mag/cell

     iteration #135     ecut=    60.00 Ry     beta= 0.70
     Davidson diagonalization with overlap

---- Real-time Memory Report at c_bands before calling an iterative solver
          1804 MiB given to the printing process from OS
          1341 MiB allocation reported by mallinfo(arena+hblkhd)
        397154 MiB available memory on the node where the printing process lives
------------------
     ethr =  1.56E-10,  avg # of iterations =  5.0

     negative rho (up, down):  6.000E-04 5.893E-04

     Adding external electric field

     Computed dipole along edir(3) : 
        Elec. dipole        -10.0229 Ry au,        -25.4757 Debye
        Ion. dipole         -10.0252 Ry au,        -25.4815 Debye
        Dipole               -2.0646 Ry au,         -5.2476 Debye
        Dipole field         -0.0023 Ry au, 

        Potential amp.        0.2231 Ry
        Total length         48.2953 bohr


     Adding external electric field

     Computed dipole along edir(3) : 
        Elec. dipole        -10.0229 Ry au,        -25.4757 Debye
        Ion. dipole         -10.0252 Ry au,        -25.4815 Debye
        Dipole               -2.0646 Ry au,         -5.2476 Debye
        Dipole field         -0.0023 Ry au, 

        Potential amp.        0.2231 Ry
        Total length         48.2953 bohr


     Magnetic moment per site  (integrated on atomic sphere of radius R)
     atom   1 (R=0.134)  charge= 15.8688  magn= -0.0001
     atom   2 (R=0.134)  charge= 15.8689  magn= -0.0000
     atom   3 (R=0.134)  charge= 15.8687  magn= -0.0000
     atom   4 (R=0.134)  charge= 15.8690  magn=  0.0001
     atom   5 (R=0.134)  charge= 15.8687  magn= -0.0000
     atom   6 (R=0.134)  charge= 15.8687  magn= -0.0000
     atom   7 (R=0.134)  charge= 15.8690  magn=  0.0001
     atom   8 (R=0.134)  charge= 15.8688  magn= -0.0001
     atom   9 (R=0.134)  charge= 15.8691  magn=  0.0001
     atom  10 (R=0.134)  charge= 15.9205  magn=  0.0002
     atom  11 (R=0.134)  charge= 15.9178  magn=  0.0001
     atom  12 (R=0.134)  charge= 15.9178  magn=  0.0001
     atom  13 (R=0.134)  charge= 15.9221  magn= -0.0000
     atom  14 (R=0.134)  charge= 15.9179  magn=  0.0001
     atom  15 (R=0.134)  charge= 15.9222  magn= -0.0000
     atom  16 (R=0.134)  charge= 15.9204  magn=  0.0001
     atom  17 (R=0.134)  charge= 15.9205  magn=  0.0002
     atom  18 (R=0.134)  charge= 15.9220  magn= -0.0000
     atom  19 (R=0.134)  charge= 15.9115  magn=  0.0002
     atom  20 (R=0.134)  charge= 15.9114  magn=  0.0002
     atom  21 (R=0.134)  charge= 15.8910  magn=  0.0001
     atom  22 (R=0.134)  charge= 15.9228  magn= -0.0000
     atom  23 (R=0.134)  charge= 15.9112  magn=  0.0001
     atom  24 (R=0.134)  charge= 15.9113  magn=  0.0001
     atom  25 (R=0.134)  charge= 15.9114  magn=  0.0001
     atom  26 (R=0.134)  charge= 15.9191  magn=  0.0001
     atom  27 (R=0.134)  charge= 15.9115  magn=  0.0001
     atom  28 (R=0.134)  charge= 15.8646  magn= -0.0001
     atom  29 (R=0.134)  charge= 15.8646  magn= -0.0001
     atom  30 (R=0.134)  charge= 15.8370  magn=  0.0006
     atom  31 (R=0.134)  charge= 15.8735  magn=  0.0000
     atom  32 (R=0.134)  charge= 15.8371  magn=  0.0006
     atom  33 (R=0.134)  charge= 15.8370  magn=  0.0005
     atom  34 (R=0.134)  charge= 15.8736  magn=  0.0000
     atom  35 (R=0.134)  charge= 15.8642  magn= -0.0001
     atom  36 (R=0.134)  charge= 15.8736  magn=  0.0000
     atom  37 (R=0.230)  charge=  6.0268  magn=  1.9445

     total cpu time spent up to now is   147527.9 secs

     End of self-consistent calculation

 ------ SPIN UP ------------


          k = 0.0000 0.0000 0.0000 ( 88097 PWs)   bands (ev):

   -95.3650 -95.3564 -95.3524 -95.3523 -95.3519 -95.3469 -95.3461 -95.3457
   -95.3327 -95.3276 -95.3273 -95.3257 -95.3222 -95.3221 -95.3205 -95.3204
   -95.3159 -95.2188 -94.9653 -94.9586 -94.9580 -94.9252 -94.9180 -94.9161
   -94.9146 -94.9037 -94.9035 -94.9033 -94.9000 -94.9000 -94.8965 -94.8913
   -94.8910 -94.7182 -94.7158 -94.7140 -49.6340 -49.6206 -49.6116 -49.6101
   -49.6046 -49.6033 -49.6021 -49.5975 -49.5974 -49.5907 -49.5899 -49.5898
   -49.5836 -49.5821 -49.5771 -49.5766 -49.5606 -49.5604 -49.5579 -49.5237
   -49.5232 -49.5150 -49.5074 -49.5068 -49.4880 -49.4878 -49.4869 -49.4457
   -49.4455 -49.4425 -49.4331 -49.4291 -49.4290 -49.4284 -49.4232 -49.4137
   -49.4134 -49.4116 -49.4104 -49.4103 -49.4096 -49.4069 -49.4067 -49.3803
   -49.3794 -49.3763 -49.3655 -49.3624 -49.3613 -49.3482 -49.3472 -49.3022
   -49.3015 -49.2908 -49.2750 -49.2750 -49.2582 -49.2469 -49.2463 -49.2408
   -49.2318 -49.2195 -49.2174 -49.2173 -49.2158 -49.2157 -49.2155 -49.2082
   -49.2069 -49.1996 -49.1995 -49.1342 -49.1329 -49.0966 -49.0757 -49.0749
   -49.0580 -49.0577 -49.0574 -49.0549 -49.0549 -49.0532 -49.0082 -49.0007
   -49.0004 -48.9521 -48.9519 -48.9216 -48.8966 -48.8965 -48.8754 -48.8634
   -48.8626 -48.8473 -48.8452 -48.8343 -48.8324 -48.8288 -48.8286 -48.8283
   -48.8238 -48.8238 -48.8204 -48.8120 -48.8116 -48.6325 -48.6273 -48.6250
   -15.4801  -6.0261  -4.7228  -3.6363  -3.5848  -3.5469  -3.5457  -3.5383
    -3.5260  -3.5259  -3.4864  -2.9758  -2.9748  -2.9720  -2.9435  -2.9429
    -2.9012  -2.4929  -2.4922  -2.4831  -2.4524  -2.4524  -2.4237  -2.2569
    -2.2568  -2.2367  -2.2239  -2.2013  -2.2011  -2.0428  -2.0425  -2.0267
    -1.9990  -1.9909  -1.9907  -1.9702  -1.9698  -1.9624  -1.9088  -1.9072
    -1.8586  -1.3829  -1.3822  -1.3325  -1.3325  -1.3061  -1.3060  -1.2971
    -1.2171  -1.2163  -1.1991  -1.1370  -1.1369  -1.0822  -1.0139  -1.0019
    -1.0011  -0.5421  -0.5409  -0.5302  -0.5079  -0.5070  -0.4897  -0.4403
    -0.3392  -0.3391  -0.3305  -0.3242  -0.3132  -0.3130  -0.3017  -0.2908
    -0.2908  -0.2743  -0.2621  -0.2604  -0.2282  -0.1865  -0.1854  -0.0980
    -0.0964  -0.0681  -0.0558  -0.0547  -0.0524   0.1204   0.1217   0.1347
     0.1721   0.1732   0.1910   0.2162   0.2171   0.2974   0.2975   0.3108
     0.3119   0.3181   0.3184   0.3649   0.3651   0.3659   0.3743   0.5046
     0.5068   0.5085   0.5758   0.5855   0.5877   0.6006   0.9684   1.0503
     1.0509   1.0776   1.0876   1.0890   1.0979   1.1226   1.1239   1.1556
     1.1623   1.1823   1.1831   1.2434   1.2449   1.2776   1.2778   1.3403
     1.3492   1.3493   1.4844   1.5490   1.5494   1.5819   1.5863   1.6270
     1.6346   1.8439   1.8697   1.8707   1.8837   1.8844   1.9115   1.9764
     1.9764   2.0686   2.0692   2.0970   2.1071   2.1075   2.1212   2.2789
     2.2910   2.2924   2.3120   2.3187   2.3189   2.3244   2.3252   2.3257
     2.3550   2.3562   2.3564   2.4190   2.4667   2.4667   2.5034   2.5041
     2.5309   2.5369   2.5376   2.5600   2.6099   2.6111   2.6334   2.6334
     2.6586   2.6815   2.6816   2.7140   2.7275   2.7278   2.7520   2.7764
     2.7765   2.8383   2.8397   2.8421   2.8457   2.8573   2.8587   2.8675
     3.0729   3.0772   3.1648   3.1802   3.1806   3.1968   3.1975   3.1984
     3.8998   3.9607   3.9617   4.0004   4.0136   4.0146   4.0221   6.2826
     6.2874   6.2893   6.3320   6.3342   6.3440   7.8101   7.8114   7.8579
     7.8678   7.8681   7.8844   8.5703   8.5704   8.6114   9.1032   9.1056
     9.1400   9.1798   9.1829   9.2292   9.6759   9.7251   9.7253   9.7483
     9.7902  10.2291  10.4270  10.4281  10.6442  10.8517  10.8536  10.9526
    10.9547  11.0200  11.0821  11.5084  11.5300  11.5318  11.5709  11.7547

     occupation numbers 
     1.0000   1.0000   1.0000   1.0000   1.0000   1.0000   1.0000   1.0000
     1.0000   1.0000   1.0000   1.0000   1.0000   1.0000   1.0000   1.0000
     1.0000   1.0000   1.0000   1.0000   1.0000   1.0000   1.0000   1.0000
     1.0000   1.0000   1.0000   1.0000   1.0000   1.0000   1.0000   1.0000
     1.0000   1.0000   1.0000   1.0000   1.0000   1.0000   1.0000   1.0000
     1.0000   1.0000   1.0000   1.0000   1.0000   1.0000   1.0000   1.0000
     1.0000   1.0000   1.0000   1.0000   1.0000   1.0000   1.0000   1.0000
     1.0000   1.0000   1.0000   1.0000   1.0000   1.0000   1.0000   1.0000
     1.0000   1.0000   1.0000   1.0000   1.0000   1.0000   1.0000   1.0000
     1.0000   1.0000   1.0000   1.0000   1.0000   1.0000   1.0000   1.0000
     1.0000   1.0000   1.0000   1.0000   1.0000   1.0000   1.0000   1.0000
     1.0000   1.0000   1.0000   1.0000   1.0000   1.0000   1.0000   1.0000
     1.0000   1.0000   1.0000   1.0000   1.0000   1.0000   1.0000   1.0000
     1.0000   1.0000   1.0000   1.0000   1.0000   1.0000   1.0000   1.0000
     1.0000   1.0000   1.0000   1.0000   1.0000   1.0000   1.0000   1.0000
     1.0000   1.0000   1.0000   1.0000   1.0000   1.0000   1.0000   1.0000
     1.0000   1.0000   1.0000   1.0000   1.0000   1.0000   1.0000   1.0000
     1.0000   1.0000   1.0000   1.0000   1.0000   1.0000   1.0000   1.0000
     1.0000   1.0000   1.0000   1.0000   1.0000   1.0000   1.0000   1.0000
     1.0000   1.0000   1.0000   1.0000   1.0000   1.0000   1.0000   1.0000
     1.0000   1.0000   1.0000   1.0000   1.0000   1.0000   1.0000   1.0000
     1.0000   1.0000   1.0000   1.0000   1.0000   1.0000   1.0000   1.0000
     1.0000   1.0000   1.0000   1.0000   1.0000   1.0000   1.0000   1.0000
     1.0000   1.0000   1.0000   1.0000   1.0000   1.0000   1.0000   1.0000
     1.0000   1.0000   1.0000   1.0000   1.0000   1.0000   1.0000   1.0000
     1.0000   1.0000   1.0000   1.0000   1.0000   1.0000   1.0000   1.0000
     1.0000   1.0000   1.0000   1.0000   1.0000   1.0000   1.0000   1.0000
     1.0000   1.0000   1.0000   1.0000   1.0000   1.0000   1.0000   1.0000
     1.0000   1.0000   1.0000   1.0000   1.0000   1.0000   1.0000   1.0000
     1.0000   1.0000   1.0000   1.0000   1.0000   1.0000   1.0000   1.0000
     1.0000   1.0000   1.0000   1.0000   1.0000   1.0000   1.0000   1.0000
     1.0000   1.0000   1.0000   1.0000   1.0000   1.0000   1.0000   1.0000
     1.0000   1.0000   1.0000   1.0000   1.0000   1.0000   1.0000   1.0000
     1.0000   1.0000   1.0000   1.0000   1.0000   1.0000   1.0000   1.0000
     1.0000   1.0000   1.0000   1.0000   1.0000   1.0000   1.0000   1.0000
     1.0000   1.0000   1.0000   1.0000   1.0000   1.0000   1.0000   1.0000
     1.0000   1.0000   1.0000   1.0000   1.0000   1.0000   1.0000   1.0000
     1.0000   1.0000   1.0000   1.0000   1.0000   1.0000   1.0000   1.0000
     1.0000   1.0000   1.0000   1.0000   1.0000   1.0000   1.0000   1.0000
     1.0000   1.0000   1.0000   1.0000   0.9999   0.9999   0.9999   0.9999
     0.9999   0.9998   0.9998   0.9996   0.9994   0.9994   0.9990   0.9984
     0.9984   0.9947   0.9945   0.9942   0.9938   0.9922   0.9920   0.9905
     0.6310   0.6105   0.2139   0.1666   0.1656   0.1254   0.1240   0.1219
     0.0000   0.0000   0.0000   0.0000   0.0000   0.0000   0.0000   0.0000
     0.0000   0.0000   0.0000   0.0000   0.0000   0.0000   0.0000   0.0000
     0.0000   0.0000   0.0000   0.0000   0.0000   0.0000   0.0000   0.0000
     0.0000   0.0000   0.0000   0.0000   0.0000   0.0000   0.0000   0.0000
     0.0000   0.0000   0.0000   0.0000   0.0000   0.0000   0.0000   0.0000
     0.0000   0.0000   0.0000   0.0000   0.0000   0.0000   0.0000   0.0000

          k = 0.0000 0.1925 0.0000 ( 88230 PWs)   bands (ev):

   -95.3646 -95.3569 -95.3525 -95.3523 -95.3518 -95.3471 -95.3458 -95.3456
   -95.3327 -95.3277 -95.3274 -95.3256 -95.3226 -95.3224 -95.3201 -95.3199
   -95.3161 -95.2188 -94.9652 -94.9586 -94.9581 -94.9252 -94.9181 -94.9161
   -94.9141 -94.9055 -94.9037 -94.9022 -94.9002 -94.8997 -94.8960 -94.8914
   -94.8910 -94.7183 -94.7159 -94.7140 -49.6461 -49.6329 -49.6281 -49.6233
   -49.6141 -49.6103 -49.6083 -49.6052 -49.6033 -49.5897 -49.5879 -49.5866
   -49.5814 -49.5715 -49.5666 -49.5663 -49.5537 -49.5469 -49.5352 -49.5115
   -49.5111 -49.5102 -49.5047 -49.5000 -49.4855 -49.4849 -49.4783 -49.4497
   -49.4493 -49.4394 -49.4365 -49.4364 -49.4298 -49.4285 -49.4268 -49.4166
   -49.4149 -49.4133 -49.4119 -49.4109 -49.4053 -49.4032 -49.4010 -49.3858
   -49.3846 -49.3794 -49.3676 -49.3673 -49.3594 -49.3546 -49.3481 -49.3089
   -49.3029 -49.2916 -49.2844 -49.2816 -49.2701 -49.2527 -49.2483 -49.2455
   -49.2353 -49.2349 -49.2280 -49.2279 -49.2212 -49.2181 -49.1950 -49.1948
   -49.1750 -49.1742 -49.1706 -49.1321 -49.1280 -49.0994 -49.0794 -49.0749
   -49.0671 -49.0665 -49.0648 -49.0546 -49.0541 -49.0437 -49.0097 -49.0027
   -49.0022 -48.9542 -48.9498 -48.9232 -48.9024 -48.8981 -48.8749 -48.8634
   -48.8630 -48.8466 -48.8448 -48.8343 -48.8326 -48.8316 -48.8290 -48.8269
   -48.8241 -48.8231 -48.8192 -48.8122 -48.8118 -48.6325 -48.6273 -48.6249
   -15.4801  -5.9217  -4.6204  -3.9689  -3.6534  -3.6508  -3.5303  -3.4388
    -3.3494  -3.3369  -3.3261  -3.0631  -3.0112  -2.9279  -2.9107  -2.8901
    -2.8652  -2.5253  -2.4441  -2.4421  -2.4348  -2.4062  -2.3826  -2.3603
    -2.2949  -2.2848  -2.1933  -2.1769  -2.1605  -2.0897  -2.0858  -2.0717
    -2.0566  -2.0422  -2.0200  -1.9976  -1.8526  -1.8333  -1.7859  -1.7657
    -1.7309  -1.4667  -1.4634  -1.4364  -1.3922  -1.3793  -1.3390  -1.3264
    -1.1955  -1.1754  -1.1170  -1.0953  -1.0822  -1.0659  -1.0139  -1.0092
    -0.9853  -0.7391  -0.6363  -0.6350  -0.6078  -0.6075  -0.5857  -0.5040
    -0.5031  -0.4847  -0.4561  -0.4531  -0.4341  -0.3884  -0.3540  -0.3261
    -0.3036  -0.2876  -0.2247  -0.1989  -0.1856  -0.1366  -0.1303  -0.1292
    -0.0853  -0.0174  -0.0099   0.0134   0.0496   0.1080   0.1173   0.1223
     0.1387   0.1565   0.1741   0.1758   0.1997   0.2422   0.2471   0.2819
     0.3054   0.3174   0.3415   0.3596   0.4276   0.4386   0.4747   0.4880
     0.5095   0.5592   0.5620   0.5670   0.5716   0.5837   0.6423   0.6492
     0.6780   0.7176   0.8144   0.8511   0.9736   1.0554   1.1028   1.1216
     1.1245   1.1433   1.1444   1.1955   1.1957   1.2789   1.3113   1.4343
     1.4953   1.5269   1.5540   1.5548   1.5623   1.5741   1.5868   1.5921
     1.5972   1.7017   1.7067   1.7642   1.7697   1.8328   1.8585   1.9795
     1.9843   1.9875   2.0136   2.0429   2.0731   2.1243   2.1249   2.1374
     2.2084   2.2114   2.2359   2.2384   2.2552   2.2601   2.2768   2.3427
     2.3631   2.4016   2.4102   2.5033   2.5347   2.5373   2.5745   2.5925
     2.6317   2.6357   2.6889   2.6923   2.7039   2.7195   2.7259   2.7337
     2.7558   2.7690   2.7865   2.8016   2.8081   2.8704   2.8810   3.0424
     3.0551   3.0580   3.0749   3.0930   3.0936   3.1157   3.1400   3.1459
     3.1524   3.1601   3.1709   3.1728   3.2688   3.2977   3.2996   3.3671
     3.5846   3.8779   3.8922   4.4120   4.4268   4.4599   4.5493   5.7318
     6.0844   6.0896   6.7337   6.7358   6.9346   6.9347   6.9781   7.9297
     7.9461   7.9946   8.0090   8.3152   8.6833   8.6935   8.6943   8.8513
     8.8843   9.1121   9.1388   9.4084   9.5302   9.5454   9.7704   9.8226
     9.8410  10.2527  10.3054  10.3351  10.6012  10.6608  10.6865  10.6871
    10.7318  10.9758  11.0188  11.0811  11.0890  11.2162  11.2612  11.3667

     occupation numbers 
     1.0000   1.0000   1.0000   1.0000   1.0000   1.0000   1.0000   1.0000
     1.0000   1.0000   1.0000   1.0000   1.0000   1.0000   1.0000   1.0000
     1.0000   1.0000   1.0000   1.0000   1.0000   1.0000   1.0000   1.0000
     1.0000   1.0000   1.0000   1.0000   1.0000   1.0000   1.0000   1.0000
     1.0000   1.0000   1.0000   1.0000   1.0000   1.0000   1.0000   1.0000
     1.0000   1.0000   1.0000   1.0000   1.0000   1.0000   1.0000   1.0000
     1.0000   1.0000   1.0000   1.0000   1.0000   1.0000   1.0000   1.0000
     1.0000   1.0000   1.0000   1.0000   1.0000   1.0000   1.0000   1.0000
     1.0000   1.0000   1.0000   1.0000   1.0000   1.0000   1.0000   1.0000
     1.0000   1.0000   1.0000   1.0000   1.0000   1.0000   1.0000   1.0000
     1.0000   1.0000   1.0000   1.0000   1.0000   1.0000   1.0000   1.0000
     1.0000   1.0000   1.0000   1.0000   1.0000   1.0000   1.0000   1.0000
     1.0000   1.0000   1.0000   1.0000   1.0000   1.0000   1.0000   1.0000
     1.0000   1.0000   1.0000   1.0000   1.0000   1.0000   1.0000   1.0000
     1.0000   1.0000   1.0000   1.0000   1.0000   1.0000   1.0000   1.0000
     1.0000   1.0000   1.0000   1.0000   1.0000   1.0000   1.0000   1.0000
     1.0000   1.0000   1.0000   1.0000   1.0000   1.0000   1.0000   1.0000
     1.0000   1.0000   1.0000   1.0000   1.0000   1.0000   1.0000   1.0000
     1.0000   1.0000   1.0000   1.0000   1.0000   1.0000   1.0000   1.0000
     1.0000   1.0000   1.0000   1.0000   1.0000   1.0000   1.0000   1.0000
     1.0000   1.0000   1.0000   1.0000   1.0000   1.0000   1.0000   1.0000
     1.0000   1.0000   1.0000   1.0000   1.0000   1.0000   1.0000   1.0000
     1.0000   1.0000   1.0000   1.0000   1.0000   1.0000   1.0000   1.0000
     1.0000   1.0000   1.0000   1.0000   1.0000   1.0000   1.0000   1.0000
     1.0000   1.0000   1.0000   1.0000   1.0000   1.0000   1.0000   1.0000
     1.0000   1.0000   1.0000   1.0000   1.0000   1.0000   1.0000   1.0000
     1.0000   1.0000   1.0000   1.0000   1.0000   1.0000   1.0000   1.0000
     1.0000   1.0000   1.0000   1.0000   1.0000   1.0000   1.0000   1.0000
     1.0000   1.0000   1.0000   1.0000   1.0000   1.0000   1.0000   1.0000
     1.0000   1.0000   1.0000   1.0000   1.0000   1.0000   1.0000   1.0000
     1.0000   1.0000   1.0000   1.0000   1.0000   1.0000   1.0000   1.0000
     1.0000   1.0000   1.0000   1.0000   1.0000   1.0000   1.0000   1.0000
     1.0000   1.0000   1.0000   1.0000   1.0000   1.0000   1.0000   1.0000
     1.0000   1.0000   1.0000   1.0000   1.0000   1.0000   1.0000   1.0000
     1.0000   1.0000   1.0000   1.0000   1.0000   1.0000   1.0000   1.0000
     1.0000   1.0000   1.0000   1.0000   1.0000   1.0000   1.0000   1.0000
     1.0000   1.0000   1.0000   1.0000   1.0000   1.0000   1.0000   1.0000
     1.0000   1.0000   1.0000   1.0000   1.0000   1.0000   1.0000   1.0000
     1.0000   1.0000   1.0000   1.0000   1.0000   1.0000   1.0000   1.0000
     0.9999   0.9999   0.9997   0.9997   0.9996   0.9995   0.9994   0.9993
     0.9990   0.9987   0.9981   0.9974   0.9971   0.9899   0.9876   0.7589
     0.7092   0.6973   0.6214   0.5336   0.5303   0.4206   0.3090   0.2841
     0.2587   0.2302   0.1940   0.1881   0.0329   0.0187   0.0180   0.0047
     0.0001   0.0000   0.0000   0.0000   0.0000   0.0000   0.0000   0.0000
     0.0000   0.0000   0.0000   0.0000   0.0000   0.0000   0.0000   0.0000
     0.0000   0.0000   0.0000   0.0000   0.0000   0.0000   0.0000   0.0000
     0.0000   0.0000   0.0000   0.0000   0.0000   0.0000   0.0000   0.0000
     0.0000   0.0000   0.0000   0.0000   0.0000   0.0000   0.0000   0.0000
     0.0000   0.0000   0.0000   0.0000   0.0000   0.0000   0.0000   0.0000

          k = 0.0000 0.3849 0.0000 ( 88170 PWs)   bands (ev):

   -95.3635 -95.3582 -95.3526 -95.3524 -95.3516 -95.3474 -95.3455 -95.3452
   -95.3327 -95.3278 -95.3275 -95.3255 -95.3231 -95.3227 -95.3196 -95.3188
   -95.3167 -95.2188 -94.9650 -94.9586 -94.9583 -94.9251 -94.9181 -94.9162
   -94.9128 -94.9078 -94.9041 -94.9022 -94.8998 -94.8991 -94.8954 -94.8916
   -94.8910 -94.7183 -94.7159 -94.7139 -49.6677 -49.6469 -49.6413 -49.6360
   -49.6225 -49.6208 -49.6176 -49.6166 -49.6069 -49.5983 -49.5977 -49.5915
   -49.5768 -49.5654 -49.5489 -49.5479 -49.5233 -49.5204 -49.5044 -49.5014
   -49.4969 -49.4936 -49.4935 -49.4917 -49.4791 -49.4787 -49.4603 -49.4554
   -49.4520 -49.4463 -49.4385 -49.4366 -49.4364 -49.4300 -49.4235 -49.4234
   -49.4166 -49.4155 -49.4142 -49.4109 -49.4039 -49.4037 -49.3957 -49.3951
   -49.3905 -49.3838 -49.3810 -49.3740 -49.3717 -49.3604 -49.3464 -49.3242
   -49.3062 -49.3021 -49.2905 -49.2905 -49.2755 -49.2722 -49.2518 -49.2512
   -49.2473 -49.2467 -49.2431 -49.2430 -49.2036 -49.1848 -49.1763 -49.1761
   -49.1427 -49.1423 -49.1287 -49.1257 -49.1217 -49.1059 -49.0854 -49.0851
   -49.0833 -49.0743 -49.0719 -49.0585 -49.0579 -49.0352 -49.0311 -49.0091
   -48.9896 -48.9569 -48.9445 -48.9273 -48.9174 -48.9012 -48.8740 -48.8640
   -48.8633 -48.8454 -48.8433 -48.8356 -48.8342 -48.8326 -48.8296 -48.8274
   -48.8230 -48.8219 -48.8180 -48.8127 -48.8120 -48.6326 -48.6273 -48.6248
   -15.4801  -5.6176  -4.5568  -4.3232  -3.6994  -3.6984  -3.4061  -3.2923
    -3.2293  -3.1592  -3.0944  -3.0572  -3.0565  -2.8307  -2.7983  -2.7459
    -2.7398  -2.6395  -2.5027  -2.4478  -2.4091  -2.4080  -2.3715  -2.3662
    -2.3466  -2.3374  -2.2933  -2.2626  -2.1835  -2.1597  -2.1441  -2.1305
    -1.9273  -1.9242  -1.8828  -1.8690  -1.8426  -1.8394  -1.6457  -1.6400
    -1.5631  -1.5443  -1.5126  -1.4440  -1.3958  -1.3953  -1.3699  -1.3415
    -1.2068  -1.2016  -1.1447  -1.1191  -1.1033  -1.0986  -1.0822  -1.0140
    -1.0102  -0.9811  -0.9541  -0.8449  -0.7645  -0.7609  -0.7409  -0.6259
    -0.5914  -0.5612  -0.5582  -0.5243  -0.5179  -0.4981  -0.4338  -0.3023
    -0.2875  -0.2757  -0.2664  -0.2369  -0.2116  -0.2034  -0.1694  -0.1379
    -0.1359  -0.0701  -0.0700  -0.0519  -0.0372  -0.0183  -0.0091  -0.0044
     0.0021   0.0452   0.0547   0.0871   0.1166   0.1399   0.1505   0.1781
     0.2935   0.3118   0.3152   0.3368   0.3447   0.3857   0.4498   0.4540
     0.4695   0.4761   0.5072   0.5728   0.6525   0.6587   0.7132   0.7225
     0.7655   0.7802   0.8621   0.8908   0.9695   1.0394   1.0606   1.0612
     1.0872   1.0886   1.1062   1.1157   1.1361   1.1363   1.2195   1.2310
     1.2608   1.2614   1.2970   1.3445   1.4085   1.4459   1.4691   1.5000
     1.6340   1.6472   1.6690   1.6762   1.6884   1.7006   1.8510   1.9217
     1.9290   1.9465   1.9477   1.9846   1.9923   2.0277   2.0645   2.0803
     2.1410   2.1584   2.2032   2.2666   2.2797   2.2836   2.2956   2.3031
     2.3257   2.3467   2.4993   2.5388   2.5597   2.5855   2.6026   2.6031
     2.6302   2.7016   2.7192   2.7650   2.8076   2.8103   2.8207   2.8278
     2.9299   2.9521   2.9586   3.0085   3.0159   3.0438   3.0542   3.0713
     3.0958   3.1347   3.2212   3.2661   3.2843   3.2907   3.3054   3.3059
     3.4784   3.4886   3.5264   3.8867   3.8997   3.9713   3.9753   3.9895
     4.2662   4.2964   4.4463   5.1676   5.2190   5.3004   5.3221   5.3840
     5.9643   5.9679   5.9900   5.9943   6.7125   6.7366   7.1859   7.3488
     7.4479   7.4538   7.9047   7.9288   8.3874   8.4013   8.6954   8.7200
     8.7367   8.9036   9.2590   9.3255   9.3451   9.6186   9.6223   9.7082
     9.7219   9.7302   9.9999  10.0902  10.3120  10.3610  10.4040  10.4396
    10.4587  10.4924  10.5554  10.6759  10.9358  11.2868  11.3410  11.3545

     occupation numbers 
     1.0000   1.0000   1.0000   1.0000   1.0000   1.0000   1.0000   1.0000
     1.0000   1.0000   1.0000   1.0000   1.0000   1.0000   1.0000   1.0000
     1.0000   1.0000   1.0000   1.0000   1.0000   1.0000   1.0000   1.0000
     1.0000   1.0000   1.0000   1.0000   1.0000   1.0000   1.0000   1.0000
     1.0000   1.0000   1.0000   1.0000   1.0000   1.0000   1.0000   1.0000
     1.0000   1.0000   1.0000   1.0000   1.0000   1.0000   1.0000   1.0000
     1.0000   1.0000   1.0000   1.0000   1.0000   1.0000   1.0000   1.0000
     1.0000   1.0000   1.0000   1.0000   1.0000   1.0000   1.0000   1.0000
     1.0000   1.0000   1.0000   1.0000   1.0000   1.0000   1.0000   1.0000
     1.0000   1.0000   1.0000   1.0000   1.0000   1.0000   1.0000   1.0000
     1.0000   1.0000   1.0000   1.0000   1.0000   1.0000   1.0000   1.0000
     1.0000   1.0000   1.0000   1.0000   1.0000   1.0000   1.0000   1.0000
     1.0000   1.0000   1.0000   1.0000   1.0000   1.0000   1.0000   1.0000
     1.0000   1.0000   1.0000   1.0000   1.0000   1.0000   1.0000   1.0000
     1.0000   1.0000   1.0000   1.0000   1.0000   1.0000   1.0000   1.0000
     1.0000   1.0000   1.0000   1.0000   1.0000   1.0000   1.0000   1.0000
     1.0000   1.0000   1.0000   1.0000   1.0000   1.0000   1.0000   1.0000
     1.0000   1.0000   1.0000   1.0000   1.0000   1.0000   1.0000   1.0000
     1.0000   1.0000   1.0000   1.0000   1.0000   1.0000   1.0000   1.0000
     1.0000   1.0000   1.0000   1.0000   1.0000   1.0000   1.0000   1.0000
     1.0000   1.0000   1.0000   1.0000   1.0000   1.0000   1.0000   1.0000
     1.0000   1.0000   1.0000   1.0000   1.0000   1.0000   1.0000   1.0000
     1.0000   1.0000   1.0000   1.0000   1.0000   1.0000   1.0000   1.0000
     1.0000   1.0000   1.0000   1.0000   1.0000   1.0000   1.0000   1.0000
     1.0000   1.0000   1.0000   1.0000   1.0000   1.0000   1.0000   1.0000
     1.0000   1.0000   1.0000   1.0000   1.0000   1.0000   1.0000   1.0000
     1.0000   1.0000   1.0000   1.0000   1.0000   1.0000   1.0000   1.0000
     1.0000   1.0000   1.0000   1.0000   1.0000   1.0000   1.0000   1.0000
     1.0000   1.0000   1.0000   1.0000   1.0000   1.0000   1.0000   1.0000
     1.0000   1.0000   1.0000   1.0000   1.0000   1.0000   1.0000   1.0000
     1.0000   1.0000   1.0000   1.0000   1.0000   1.0000   1.0000   1.0000
     1.0000   1.0000   1.0000   1.0000   1.0000   1.0000   1.0000   1.0000
     1.0000   1.0000   1.0000   1.0000   1.0000   1.0000   1.0000   1.0000
     1.0000   1.0000   1.0000   1.0000   1.0000   1.0000   1.0000   1.0000
     1.0000   1.0000   1.0000   1.0000   1.0000   1.0000   1.0000   1.0000
     1.0000   1.0000   1.0000   1.0000   1.0000   1.0000   1.0000   1.0000
     1.0000   1.0000   1.0000   1.0000   1.0000   1.0000   1.0000   1.0000
     1.0000   1.0000   1.0000   1.0000   1.0000   1.0000   1.0000   1.0000
     1.0000   1.0000   1.0000   1.0000   1.0000   1.0000   1.0000   1.0000
     0.9999   0.9997   0.9995   0.9988   0.9971   0.9969   0.9962   0.9957
     0.9676   0.9504   0.9439   0.8611   0.8425   0.7535   0.7132   0.6381
     0.5194   0.3320   0.0809   0.0346   0.0243   0.0215   0.0161   0.0159
     0.0005   0.0004   0.0002   0.0000   0.0000   0.0000   0.0000   0.0000
     0.0000   0.0000   0.0000   0.0000   0.0000   0.0000   0.0000   0.0000
     0.0000   0.0000   0.0000   0.0000   0.0000   0.0000   0.0000   0.0000
     0.0000   0.0000   0.0000   0.0000   0.0000   0.0000   0.0000   0.0000
     0.0000   0.0000   0.0000   0.0000   0.0000   0.0000   0.0000   0.0000
     0.0000   0.0000   0.0000   0.0000   0.0000   0.0000   0.0000   0.0000
     0.0000   0.0000   0.0000   0.0000   0.0000   0.0000   0.0000   0.0000

          k = 0.0000-0.5774 0.0000 ( 88178 PWs)   bands (ev):

   -95.3628 -95.3591 -95.3527 -95.3524 -95.3515 -95.3475 -95.3453 -95.3450
   -95.3327 -95.3278 -95.3276 -95.3254 -95.3233 -95.3229 -95.3194 -95.3180
   -95.3174 -95.2188 -94.9649 -94.9586 -94.9584 -94.9251 -94.9181 -94.9162
   -94.9114 -94.9096 -94.9043 -94.9023 -94.8995 -94.8988 -94.8952 -94.8917
   -94.8910 -94.7183 -94.7159 -94.7139 -49.6759 -49.6534 -49.6458 -49.6405
   -49.6273 -49.6241 -49.6218 -49.6208 -49.6042 -49.6017 -49.6001 -49.5983
   -49.5755 -49.5653 -49.5388 -49.5382 -49.5060 -49.5050 -49.4987 -49.4986
   -49.4957 -49.4890 -49.4868 -49.4822 -49.4777 -49.4684 -49.4638 -49.4543
   -49.4492 -49.4440 -49.4423 -49.4375 -49.4358 -49.4268 -49.4267 -49.4227
   -49.4174 -49.4166 -49.4126 -49.4104 -49.4052 -49.4031 -49.3996 -49.3984
   -49.3937 -49.3878 -49.3876 -49.3826 -49.3779 -49.3643 -49.3439 -49.3331
   -49.3081 -49.3077 -49.2940 -49.2912 -49.2829 -49.2731 -49.2537 -49.2536
   -49.2515 -49.2505 -49.2485 -49.2482 -49.1950 -49.1686 -49.1682 -49.1647
   -49.1334 -49.1276 -49.1132 -49.1130 -49.1102 -49.1100 -49.1093 -49.0820
   -49.0758 -49.0742 -49.0738 -49.0737 -49.0606 -49.0604 -49.0204 -49.0176
   -48.9841 -48.9534 -48.9405 -48.9307 -48.9295 -48.9029 -48.8735 -48.8645
   -48.8633 -48.8449 -48.8411 -48.8385 -48.8342 -48.8327 -48.8298 -48.8278
   -48.8224 -48.8214 -48.8176 -48.8130 -48.8122 -48.6326 -48.6273 -48.6248
   -15.4801  -5.1656  -5.1179  -3.9175  -3.8570  -3.7093  -3.6973  -3.2887
    -3.1285  -2.8527  -2.8234  -2.7883  -2.7759  -2.7589  -2.7481  -2.7395
    -2.7181  -2.6999  -2.6801  -2.6305  -2.5885  -2.5724  -2.5406  -2.5346
    -2.4366  -2.3491  -2.2130  -2.2110  -2.1749  -2.1722  -1.9505  -1.9468
    -1.9228  -1.8935  -1.8679  -1.8590  -1.7923  -1.7879  -1.6535  -1.6435
    -1.5710  -1.5585  -1.5546  -1.4756  -1.4692  -1.3434  -1.3420  -1.3077
    -1.2821  -1.2195  -1.1878  -1.0836  -1.0815  -1.0805  -1.0668  -1.0140
    -1.0094  -0.9597  -0.9509  -0.9240  -0.9199  -0.8143  -0.8010  -0.7411
    -0.7001  -0.6760  -0.6318  -0.6141  -0.5032  -0.4623  -0.4584  -0.4507
    -0.4152  -0.4072  -0.4022  -0.3935  -0.3548  -0.1847  -0.1628  -0.1416
    -0.1391  -0.1360  -0.1348  -0.1042  -0.0900  -0.0875  -0.0527  -0.0351
     0.0327   0.0355   0.0798   0.0838   0.0959   0.1273   0.1931   0.2512
     0.3050   0.3267   0.3375   0.3444   0.3549   0.3593   0.3784   0.4084
     0.4416   0.4640   0.5869   0.6070   0.6126   0.7014   0.7842   0.8369
     0.8894   0.9080   0.9280   0.9368   0.9651   1.0044   1.0219   1.0318
     1.0468   1.0520   1.0566   1.0782   1.0905   1.1232   1.1375   1.1708
     1.2218   1.2242   1.2466   1.2511   1.3048   1.3575   1.3874   1.4064
     1.4372   1.4664   1.6089   1.6294   1.7607   1.8111   1.8290   1.8356
     1.8358   1.8668   1.9659   1.9929   2.0653   2.0743   2.0860   2.0914
     2.1029   2.1226   2.1928   2.2054   2.2273   2.2276   2.2448   2.3295
     2.3490   2.4020   2.4379   2.4826   2.5677   2.6160   2.6162   2.6256
     2.7150   2.7310   2.8059   2.8072   2.8186   2.8248   2.8748   2.8777
     2.9016   2.9133   2.9218   2.9698   3.0913   3.1015   3.1028   3.1201
     3.1247   3.1314   3.1864   3.3554   3.3797   3.3849   3.3944   3.3975
     3.6028   3.6406   3.8989   3.9125   4.1009   4.5652   4.6116   4.9647
     4.9672   4.9702   4.9753   5.4392   5.4495   5.4618   5.4799   5.5003
     5.7815   5.9545   5.9605   6.0839   6.3370   6.3610   6.5149   6.5376
     6.5520   6.5941   8.4235   8.4252   8.4578   8.4814   8.6623   8.6904
     8.8164   8.9649   9.0025   9.0187   9.0472   9.0718   9.2049   9.2966
     9.5091   9.9357   9.9412  10.0053  10.0565  10.2140  10.3217  10.3733
    10.4609  10.7874  10.8953  10.9026  10.9592  11.0267  11.0597  11.0599

     occupation numbers 
     1.0000   1.0000   1.0000   1.0000   1.0000   1.0000   1.0000   1.0000
     1.0000   1.0000   1.0000   1.0000   1.0000   1.0000   1.0000   1.0000
     1.0000   1.0000   1.0000   1.0000   1.0000   1.0000   1.0000   1.0000
     1.0000   1.0000   1.0000   1.0000   1.0000   1.0000   1.0000   1.0000
     1.0000   1.0000   1.0000   1.0000   1.0000   1.0000   1.0000   1.0000
     1.0000   1.0000   1.0000   1.0000   1.0000   1.0000   1.0000   1.0000
     1.0000   1.0000   1.0000   1.0000   1.0000   1.0000   1.0000   1.0000
     1.0000   1.0000   1.0000   1.0000   1.0000   1.0000   1.0000   1.0000
     1.0000   1.0000   1.0000   1.0000   1.0000   1.0000   1.0000   1.0000
     1.0000   1.0000   1.0000   1.0000   1.0000   1.0000   1.0000   1.0000
     1.0000   1.0000   1.0000   1.0000   1.0000   1.0000   1.0000   1.0000
     1.0000   1.0000   1.0000   1.0000   1.0000   1.0000   1.0000   1.0000
     1.0000   1.0000   1.0000   1.0000   1.0000   1.0000   1.0000   1.0000
     1.0000   1.0000   1.0000   1.0000   1.0000   1.0000   1.0000   1.0000
     1.0000   1.0000   1.0000   1.0000   1.0000   1.0000   1.0000   1.0000
     1.0000   1.0000   1.0000   1.0000   1.0000   1.0000   1.0000   1.0000
     1.0000   1.0000   1.0000   1.0000   1.0000   1.0000   1.0000   1.0000
     1.0000   1.0000   1.0000   1.0000   1.0000   1.0000   1.0000   1.0000
     1.0000   1.0000   1.0000   1.0000   1.0000   1.0000   1.0000   1.0000
     1.0000   1.0000   1.0000   1.0000   1.0000   1.0000   1.0000   1.0000
     1.0000   1.0000   1.0000   1.0000   1.0000   1.0000   1.0000   1.0000
     1.0000   1.0000   1.0000   1.0000   1.0000   1.0000   1.0000   1.0000
     1.0000   1.0000   1.0000   1.0000   1.0000   1.0000   1.0000   1.0000
     1.0000   1.0000   1.0000   1.0000   1.0000   1.0000   1.0000   1.0000
     1.0000   1.0000   1.0000   1.0000   1.0000   1.0000   1.0000   1.0000
     1.0000   1.0000   1.0000   1.0000   1.0000   1.0000   1.0000   1.0000
     1.0000   1.0000   1.0000   1.0000   1.0000   1.0000   1.0000   1.0000
     1.0000   1.0000   1.0000   1.0000   1.0000   1.0000   1.0000   1.0000
     1.0000   1.0000   1.0000   1.0000   1.0000   1.0000   1.0000   1.0000
     1.0000   1.0000   1.0000   1.0000   1.0000   1.0000   1.0000   1.0000
     1.0000   1.0000   1.0000   1.0000   1.0000   1.0000   1.0000   1.0000
     1.0000   1.0000   1.0000   1.0000   1.0000   1.0000   1.0000   1.0000
     1.0000   1.0000   1.0000   1.0000   1.0000   1.0000   1.0000   1.0000
     1.0000   1.0000   1.0000   1.0000   1.0000   1.0000   1.0000   1.0000
     1.0000   1.0000   1.0000   1.0000   1.0000   1.0000   1.0000   1.0000
     1.0000   1.0000   1.0000   1.0000   1.0000   1.0000   1.0000   1.0000
     1.0000   1.0000   1.0000   1.0000   1.0000   1.0000   1.0000   1.0000
     1.0000   1.0000   1.0000   1.0000   1.0000   1.0000   1.0000   1.0000
     1.0000   1.0000   1.0000   1.0000   1.0000   0.9999   0.9999   0.9999
     0.9995   0.9994   0.9972   0.9971   0.9964   0.9959   0.9890   0.9883
     0.9813   0.9765   0.9723   0.9308   0.5421   0.4909   0.4848   0.3995
     0.3775   0.3468   0.1502   0.0060   0.0037   0.0033   0.0028   0.0026
     0.0000   0.0000   0.0000   0.0000   0.0000   0.0000   0.0000   0.0000
     0.0000   0.0000   0.0000   0.0000   0.0000   0.0000   0.0000   0.0000
     0.0000   0.0000   0.0000   0.0000   0.0000   0.0000   0.0000   0.0000
     0.0000   0.0000   0.0000   0.0000   0.0000   0.0000   0.0000   0.0000
     0.0000   0.0000   0.0000   0.0000   0.0000   0.0000   0.0000   0.0000
     0.0000   0.0000   0.0000   0.0000   0.0000   0.0000   0.0000   0.0000
     0.0000   0.0000   0.0000   0.0000   0.0000   0.0000   0.0000   0.0000

          k = 0.1667-0.0962 0.0000 ( 88230 PWs)   bands (ev):

   -95.3646 -95.3569 -95.3525 -95.3522 -95.3519 -95.3471 -95.3461 -95.3453
   -95.3327 -95.3276 -95.3274 -95.3256 -95.3226 -95.3224 -95.3201 -95.3198
   -95.3161 -95.2188 -94.9652 -94.9587 -94.9580 -94.9252 -94.9181 -94.9161
   -94.9141 -94.9055 -94.9039 -94.9021 -94.9002 -94.8997 -94.8960 -94.8914
   -94.8911 -94.7183 -94.7158 -94.7140 -49.6451 -49.6326 -49.6283 -49.6242
   -49.6142 -49.6105 -49.6078 -49.6054 -49.6031 -49.5900 -49.5882 -49.5864
   -49.5816 -49.5718 -49.5668 -49.5661 -49.5534 -49.5472 -49.5350 -49.5115
   -49.5112 -49.5100 -49.5052 -49.4999 -49.4855 -49.4850 -49.4778 -49.4495
   -49.4491 -49.4392 -49.4366 -49.4363 -49.4302 -49.4283 -49.4270 -49.4161
   -49.4148 -49.4133 -49.4118 -49.4108 -49.4057 -49.4028 -49.4016 -49.3855
   -49.3845 -49.3798 -49.3673 -49.3665 -49.3604 -49.3540 -49.3488 -49.3084
   -49.3034 -49.2916 -49.2841 -49.2815 -49.2702 -49.2524 -49.2489 -49.2455
   -49.2354 -49.2349 -49.2281 -49.2279 -49.2212 -49.2178 -49.1952 -49.1949
   -49.1749 -49.1741 -49.1704 -49.1313 -49.1288 -49.0992 -49.0789 -49.0756
   -49.0672 -49.0664 -49.0650 -49.0545 -49.0539 -49.0439 -49.0095 -49.0029
   -49.0021 -48.9541 -48.9498 -48.9233 -48.9025 -48.8979 -48.8749 -48.8638
   -48.8627 -48.8466 -48.8449 -48.8344 -48.8325 -48.8316 -48.8291 -48.8268
   -48.8241 -48.8232 -48.8192 -48.8121 -48.8118 -48.6325 -48.6273 -48.6249
   -15.4801  -5.9218  -4.6204  -3.9699  -3.6526  -3.6503  -3.5303  -3.4389
    -3.3500  -3.3363  -3.3261  -3.0625  -3.0107  -2.9287  -2.9109  -2.8905
    -2.8655  -2.5248  -2.4449  -2.4419  -2.4347  -2.4066  -2.3822  -2.3602
    -2.2947  -2.2843  -2.1936  -2.1781  -2.1603  -2.0895  -2.0854  -2.0722
    -2.0562  -2.0434  -2.0195  -1.9970  -1.8529  -1.8332  -1.7848  -1.7667
    -1.7300  -1.4667  -1.4632  -1.4364  -1.3920  -1.3792  -1.3388  -1.3268
    -1.1952  -1.1751  -1.1171  -1.0955  -1.0822  -1.0658  -1.0139  -1.0089
    -0.9858  -0.7376  -0.6364  -0.6339  -0.6069  -0.6054  -0.5851  -0.5073
    -0.5031  -0.4837  -0.4578  -0.4534  -0.4346  -0.3877  -0.3537  -0.3258
    -0.3030  -0.2855  -0.2249  -0.2012  -0.1877  -0.1389  -0.1320  -0.1285
    -0.0860  -0.0152  -0.0067   0.0149   0.0473   0.1078   0.1179   0.1217
     0.1378   0.1570   0.1752   0.1761   0.1998   0.2422   0.2457   0.2807
     0.3047   0.3188   0.3440   0.3593   0.4264   0.4371   0.4749   0.4879
     0.5092   0.5589   0.5608   0.5670   0.5715   0.5829   0.6424   0.6492
     0.6778   0.7176   0.8154   0.8530   0.9736   1.0559   1.1035   1.1219
     1.1244   1.1418   1.1444   1.1945   1.1958   1.2783   1.3113   1.4334
     1.4938   1.5264   1.5540   1.5573   1.5626   1.5708   1.5862   1.5914
     1.5971   1.7023   1.7086   1.7632   1.7696   1.8328   1.8584   1.9789
     1.9849   1.9871   2.0141   2.0442   2.0733   2.1244   2.1254   2.1374
     2.2082   2.2107   2.2359   2.2384   2.2556   2.2603   2.2773   2.3421
     2.3631   2.4020   2.4110   2.5037   2.5349   2.5366   2.5741   2.5911
     2.6317   2.6355   2.6886   2.6904   2.7043   2.7197   2.7259   2.7342
     2.7551   2.7688   2.7867   2.8020   2.8087   2.8687   2.8793   3.0431
     3.0559   3.0583   3.0776   3.0923   3.0927   3.1163   3.1411   3.1464
     3.1522   3.1612   3.1716   3.1743   3.2691   3.2972   3.2999   3.3666
     3.5825   3.8797   3.8946   4.4114   4.4269   4.4589   4.5482   5.7297
     6.0864   6.0908   6.7337   6.7368   6.9344   6.9346   6.9766   7.9295
     7.9462   7.9939   8.0101   8.3110   8.6832   8.6926   8.6954   8.8531
     8.8873   9.1124   9.1392   9.4053   9.5321   9.5484   9.7703   9.8225
     9.8411  10.2527  10.3062  10.3343  10.6002  10.6600  10.6855  10.6870
    10.7316  10.9745  11.0187  11.0794  11.0881  11.2156  11.2602  11.3668

     occupation numbers 
     1.0000   1.0000   1.0000   1.0000   1.0000   1.0000   1.0000   1.0000
     1.0000   1.0000   1.0000   1.0000   1.0000   1.0000   1.0000   1.0000
     1.0000   1.0000   1.0000   1.0000   1.0000   1.0000   1.0000   1.0000
     1.0000   1.0000   1.0000   1.0000   1.0000   1.0000   1.0000   1.0000
     1.0000   1.0000   1.0000   1.0000   1.0000   1.0000   1.0000   1.0000
     1.0000   1.0000   1.0000   1.0000   1.0000   1.0000   1.0000   1.0000
     1.0000   1.0000   1.0000   1.0000   1.0000   1.0000   1.0000   1.0000
     1.0000   1.0000   1.0000   1.0000   1.0000   1.0000   1.0000   1.0000
     1.0000   1.0000   1.0000   1.0000   1.0000   1.0000   1.0000   1.0000
     1.0000   1.0000   1.0000   1.0000   1.0000   1.0000   1.0000   1.0000
     1.0000   1.0000   1.0000   1.0000   1.0000   1.0000   1.0000   1.0000
     1.0000   1.0000   1.0000   1.0000   1.0000   1.0000   1.0000   1.0000
     1.0000   1.0000   1.0000   1.0000   1.0000   1.0000   1.0000   1.0000
     1.0000   1.0000   1.0000   1.0000   1.0000   1.0000   1.0000   1.0000
     1.0000   1.0000   1.0000   1.0000   1.0000   1.0000   1.0000   1.0000
     1.0000   1.0000   1.0000   1.0000   1.0000   1.0000   1.0000   1.0000
     1.0000   1.0000   1.0000   1.0000   1.0000   1.0000   1.0000   1.0000
     1.0000   1.0000   1.0000   1.0000   1.0000   1.0000   1.0000   1.0000
     1.0000   1.0000   1.0000   1.0000   1.0000   1.0000   1.0000   1.0000
     1.0000   1.0000   1.0000   1.0000   1.0000   1.0000   1.0000   1.0000
     1.0000   1.0000   1.0000   1.0000   1.0000   1.0000   1.0000   1.0000
     1.0000   1.0000   1.0000   1.0000   1.0000   1.0000   1.0000   1.0000
     1.0000   1.0000   1.0000   1.0000   1.0000   1.0000   1.0000   1.0000
     1.0000   1.0000   1.0000   1.0000   1.0000   1.0000   1.0000   1.0000
     1.0000   1.0000   1.0000   1.0000   1.0000   1.0000   1.0000   1.0000
     1.0000   1.0000   1.0000   1.0000   1.0000   1.0000   1.0000   1.0000
     1.0000   1.0000   1.0000   1.0000   1.0000   1.0000   1.0000   1.0000
     1.0000   1.0000   1.0000   1.0000   1.0000   1.0000   1.0000   1.0000
     1.0000   1.0000   1.0000   1.0000   1.0000   1.0000   1.0000   1.0000
     1.0000   1.0000   1.0000   1.0000   1.0000   1.0000   1.0000   1.0000
     1.0000   1.0000   1.0000   1.0000   1.0000   1.0000   1.0000   1.0000
     1.0000   1.0000   1.0000   1.0000   1.0000   1.0000   1.0000   1.0000
     1.0000   1.0000   1.0000   1.0000   1.0000   1.0000   1.0000   1.0000
     1.0000   1.0000   1.0000   1.0000   1.0000   1.0000   1.0000   1.0000
     1.0000   1.0000   1.0000   1.0000   1.0000   1.0000   1.0000   1.0000
     1.0000   1.0000   1.0000   1.0000   1.0000   1.0000   1.0000   1.0000
     1.0000   1.0000   1.0000   1.0000   1.0000   1.0000   1.0000   1.0000
     1.0000   1.0000   1.0000   1.0000   1.0000   1.0000   1.0000   1.0000
     1.0000   1.0000   1.0000   1.0000   1.0000   1.0000   1.0000   1.0000
     0.9999   0.9999   0.9997   0.9997   0.9996   0.9995   0.9994   0.9993
     0.9990   0.9987   0.9981   0.9974   0.9970   0.9902   0.9880   0.7564
     0.7060   0.6961   0.6089   0.5368   0.5348   0.4178   0.3040   0.2823
     0.2593   0.2263   0.1918   0.1836   0.0327   0.0189   0.0179   0.0048
     0.0001   0.0000   0.0000   0.0000   0.0000   0.0000   0.0000   0.0000
     0.0000   0.0000   0.0000   0.0000   0.0000   0.0000   0.0000   0.0000
     0.0000   0.0000   0.0000   0.0000   0.0000   0.0000   0.0000   0.0000
     0.0000   0.0000   0.0000   0.0000   0.0000   0.0000   0.0000   0.0000
     0.0000   0.0000   0.0000   0.0000   0.0000   0.0000   0.0000   0.0000
     0.0000   0.0000   0.0000   0.0000   0.0000   0.0000   0.0000   0.0000

          k = 0.1667 0.0962 0.0000 ( 88230 PWs)   bands (ev):

   -95.3646 -95.3569 -95.3524 -95.3522 -95.3519 -95.3471 -95.3461 -95.3453
   -95.3327 -95.3276 -95.3274 -95.3256 -95.3226 -95.3224 -95.3201 -95.3199
   -95.3161 -95.2188 -94.9652 -94.9587 -94.9580 -94.9252 -94.9181 -94.9161
   -94.9141 -94.9055 -94.9039 -94.9021 -94.9002 -94.8997 -94.8960 -94.8914
   -94.8911 -94.7183 -94.7158 -94.7140 -49.6451 -49.6326 -49.6283 -49.6242
   -49.6143 -49.6105 -49.6078 -49.6054 -49.6031 -49.5900 -49.5882 -49.5864
   -49.5817 -49.5718 -49.5668 -49.5660 -49.5533 -49.5473 -49.5350 -49.5115
   -49.5112 -49.5100 -49.5052 -49.4999 -49.4855 -49.4850 -49.4778 -49.4495
   -49.4492 -49.4391 -49.4366 -49.4363 -49.4303 -49.4283 -49.4270 -49.4160
   -49.4148 -49.4133 -49.4118 -49.4108 -49.4057 -49.4028 -49.4016 -49.3855
   -49.3846 -49.3798 -49.3673 -49.3665 -49.3604 -49.3540 -49.3489 -49.3083
   -49.3035 -49.2916 -49.2841 -49.2815 -49.2702 -49.2524 -49.2490 -49.2455
   -49.2354 -49.2349 -49.2281 -49.2279 -49.2212 -49.2177 -49.1952 -49.1949
   -49.1749 -49.1741 -49.1704 -49.1312 -49.1289 -49.0992 -49.0789 -49.0756
   -49.0672 -49.0664 -49.0650 -49.0545 -49.0539 -49.0439 -49.0094 -49.0029
   -49.0021 -48.9542 -48.9498 -48.9233 -48.9025 -48.8980 -48.8749 -48.8638
   -48.8626 -48.8466 -48.8449 -48.8344 -48.8325 -48.8316 -48.8291 -48.8268
   -48.8241 -48.8232 -48.8192 -48.8121 -48.8118 -48.6325 -48.6273 -48.6249
   -15.4801  -5.9218  -4.6204  -3.9700  -3.6525  -3.6503  -3.5303  -3.4389
    -3.3500  -3.3363  -3.3261  -3.0625  -3.0107  -2.9287  -2.9109  -2.8906
    -2.8655  -2.5248  -2.4449  -2.4419  -2.4347  -2.4067  -2.3822  -2.3602
    -2.2947  -2.2843  -2.1937  -2.1782  -2.1603  -2.0895  -2.0854  -2.0722
    -2.0562  -2.0434  -2.0195  -1.9970  -1.8529  -1.8332  -1.7848  -1.7667
    -1.7300  -1.4667  -1.4632  -1.4364  -1.3920  -1.3792  -1.3388  -1.3268
    -1.1952  -1.1751  -1.1171  -1.0955  -1.0822  -1.0658  -1.0140  -1.0088
    -0.9858  -0.7376  -0.6364  -0.6339  -0.6068  -0.6054  -0.5851  -0.5074
    -0.5031  -0.4837  -0.4578  -0.4534  -0.4346  -0.3877  -0.3537  -0.3258
    -0.3030  -0.2855  -0.2249  -0.2012  -0.1877  -0.1389  -0.1320  -0.1285
    -0.0860  -0.0152  -0.0067   0.0149   0.0473   0.1078   0.1180   0.1217
     0.1378   0.1570   0.1752   0.1761   0.1998   0.2422   0.2456   0.2807
     0.3047   0.3188   0.3440   0.3593   0.4264   0.4371   0.4749   0.4879
     0.5092   0.5589   0.5607   0.5670   0.5714   0.5829   0.6424   0.6493
     0.6778   0.7177   0.8155   0.8529   0.9736   1.0560   1.1035   1.1219
     1.1245   1.1418   1.1444   1.1945   1.1958   1.2783   1.3112   1.4334
     1.4938   1.5264   1.5540   1.5573   1.5627   1.5707   1.5862   1.5914
     1.5970   1.7023   1.7086   1.7632   1.7696   1.8328   1.8585   1.9789
     1.9849   1.9871   2.0141   2.0442   2.0733   2.1244   2.1254   2.1374
     2.2082   2.2107   2.2359   2.2384   2.2556   2.2603   2.2774   2.3421
     2.3632   2.4019   2.4110   2.5037   2.5349   2.5366   2.5741   2.5911
     2.6317   2.6355   2.6886   2.6904   2.7043   2.7197   2.7259   2.7342
     2.7551   2.7689   2.7867   2.8020   2.8087   2.8687   2.8792   3.0431
     3.0559   3.0583   3.0776   3.0923   3.0927   3.1163   3.1412   3.1464
     3.1522   3.1612   3.1717   3.1744   3.2691   3.2972   3.2999   3.3666
     3.5825   3.8797   3.8947   4.4114   4.4269   4.4589   4.5481   5.7296
     6.0865   6.0908   6.7338   6.7368   6.9344   6.9346   6.9766   7.9295
     7.9462   7.9938   8.0101   8.3109   8.6833   8.6925   8.6954   8.8531
     8.8874   9.1124   9.1393   9.4051   9.5322   9.5485   9.7703   9.8225
     9.8411  10.2526  10.3053  10.3349  10.6013  10.6605  10.6854  10.6865
    10.7313  10.9745  11.0185  11.0795  11.0880  11.2150  11.2601  11.3677

     occupation numbers 
     1.0000   1.0000   1.0000   1.0000   1.0000   1.0000   1.0000   1.0000
     1.0000   1.0000   1.0000   1.0000   1.0000   1.0000   1.0000   1.0000
     1.0000   1.0000   1.0000   1.0000   1.0000   1.0000   1.0000   1.0000
     1.0000   1.0000   1.0000   1.0000   1.0000   1.0000   1.0000   1.0000
     1.0000   1.0000   1.0000   1.0000   1.0000   1.0000   1.0000   1.0000
     1.0000   1.0000   1.0000   1.0000   1.0000   1.0000   1.0000   1.0000
     1.0000   1.0000   1.0000   1.0000   1.0000   1.0000   1.0000   1.0000
     1.0000   1.0000   1.0000   1.0000   1.0000   1.0000   1.0000   1.0000
     1.0000   1.0000   1.0000   1.0000   1.0000   1.0000   1.0000   1.0000
     1.0000   1.0000   1.0000   1.0000   1.0000   1.0000   1.0000   1.0000
     1.0000   1.0000   1.0000   1.0000   1.0000   1.0000   1.0000   1.0000
     1.0000   1.0000   1.0000   1.0000   1.0000   1.0000   1.0000   1.0000
     1.0000   1.0000   1.0000   1.0000   1.0000   1.0000   1.0000   1.0000
     1.0000   1.0000   1.0000   1.0000   1.0000   1.0000   1.0000   1.0000
     1.0000   1.0000   1.0000   1.0000   1.0000   1.0000   1.0000   1.0000
     1.0000   1.0000   1.0000   1.0000   1.0000   1.0000   1.0000   1.0000
     1.0000   1.0000   1.0000   1.0000   1.0000   1.0000   1.0000   1.0000
     1.0000   1.0000   1.0000   1.0000   1.0000   1.0000   1.0000   1.0000
     1.0000   1.0000   1.0000   1.0000   1.0000   1.0000   1.0000   1.0000
     1.0000   1.0000   1.0000   1.0000   1.0000   1.0000   1.0000   1.0000
     1.0000   1.0000   1.0000   1.0000   1.0000   1.0000   1.0000   1.0000
     1.0000   1.0000   1.0000   1.0000   1.0000   1.0000   1.0000   1.0000
     1.0000   1.0000   1.0000   1.0000   1.0000   1.0000   1.0000   1.0000
     1.0000   1.0000   1.0000   1.0000   1.0000   1.0000   1.0000   1.0000
     1.0000   1.0000   1.0000   1.0000   1.0000   1.0000   1.0000   1.0000
     1.0000   1.0000   1.0000   1.0000   1.0000   1.0000   1.0000   1.0000
     1.0000   1.0000   1.0000   1.0000   1.0000   1.0000   1.0000   1.0000
     1.0000   1.0000   1.0000   1.0000   1.0000   1.0000   1.0000   1.0000
     1.0000   1.0000   1.0000   1.0000   1.0000   1.0000   1.0000   1.0000
     1.0000   1.0000   1.0000   1.0000   1.0000   1.0000   1.0000   1.0000
     1.0000   1.0000   1.0000   1.0000   1.0000   1.0000   1.0000   1.0000
     1.0000   1.0000   1.0000   1.0000   1.0000   1.0000   1.0000   1.0000
     1.0000   1.0000   1.0000   1.0000   1.0000   1.0000   1.0000   1.0000
     1.0000   1.0000   1.0000   1.0000   1.0000   1.0000   1.0000   1.0000
     1.0000   1.0000   1.0000   1.0000   1.0000   1.0000   1.0000   1.0000
     1.0000   1.0000   1.0000   1.0000   1.0000   1.0000   1.0000   1.0000
     1.0000   1.0000   1.0000   1.0000   1.0000   1.0000   1.0000   1.0000
     1.0000   1.0000   1.0000   1.0000   1.0000   1.0000   1.0000   1.0000
     1.0000   1.0000   1.0000   1.0000   1.0000   1.0000   1.0000   1.0000
     0.9999   0.9999   0.9997   0.9997   0.9996   0.9995   0.9994   0.9993
     0.9990   0.9987   0.9981   0.9974   0.9970   0.9902   0.9880   0.7563
     0.7059   0.6962   0.6087   0.5369   0.5349   0.4178   0.3038   0.2823
     0.2592   0.2262   0.1917   0.1835   0.0327   0.0189   0.0179   0.0048
     0.0001   0.0000   0.0000   0.0000   0.0000   0.0000   0.0000   0.0000
     0.0000   0.0000   0.0000   0.0000   0.0000   0.0000   0.0000   0.0000
     0.0000   0.0000   0.0000   0.0000   0.0000   0.0000   0.0000   0.0000
     0.0000   0.0000   0.0000   0.0000   0.0000   0.0000   0.0000   0.0000
     0.0000   0.0000   0.0000   0.0000   0.0000   0.0000   0.0000   0.0000
     0.0000   0.0000   0.0000   0.0000   0.0000   0.0000   0.0000   0.0000

          k = 0.1667 0.2887 0.0000 ( 88188 PWs)   bands (ev):

   -95.3639 -95.3578 -95.3528 -95.3521 -95.3517 -95.3473 -95.3458 -95.3450
   -95.3327 -95.3278 -95.3275 -95.3254 -95.3231 -95.3227 -95.3195 -95.3193
   -95.3165 -95.2188 -94.9650 -94.9587 -94.9582 -94.9252 -94.9181 -94.9161
   -94.9132 -94.9070 -94.9046 -94.9015 -94.9002 -94.8993 -94.8955 -94.8915
   -94.8911 -94.7183 -94.7158 -94.7139 -49.6582 -49.6519 -49.6397 -49.6309
   -49.6264 -49.6191 -49.6113 -49.6085 -49.6025 -49.5949 -49.5920 -49.5875
   -49.5844 -49.5755 -49.5651 -49.5361 -49.5312 -49.5254 -49.5114 -49.5075
   -49.5035 -49.4991 -49.4967 -49.4905 -49.4814 -49.4712 -49.4660 -49.4543
   -49.4493 -49.4441 -49.4418 -49.4388 -49.4368 -49.4301 -49.4266 -49.4223
   -49.4180 -49.4151 -49.4111 -49.4078 -49.4035 -49.3994 -49.3977 -49.3926
   -49.3900 -49.3852 -49.3805 -49.3704 -49.3634 -49.3582 -49.3508 -49.3185
   -49.3063 -49.2974 -49.2926 -49.2847 -49.2790 -49.2648 -49.2626 -49.2497
   -49.2461 -49.2424 -49.2343 -49.2170 -49.2162 -49.2137 -49.1895 -49.1546
   -49.1499 -49.1484 -49.1467 -49.1302 -49.1234 -49.1034 -49.0840 -49.0758
   -49.0747 -49.0746 -49.0736 -49.0713 -49.0415 -49.0407 -49.0266 -49.0073
   -48.9924 -48.9577 -48.9452 -48.9268 -48.9116 -48.9012 -48.8742 -48.8641
   -48.8630 -48.8456 -48.8439 -48.8344 -48.8340 -48.8325 -48.8307 -48.8258
   -48.8239 -48.8223 -48.8182 -48.8126 -48.8120 -48.6326 -48.6273 -48.6249
   -15.4801  -5.7173  -4.4233  -4.2034  -4.1583  -3.3307  -3.2796  -3.2544
    -3.2397  -3.2372  -3.2235  -3.1634  -3.0887  -2.9923  -2.9772  -2.7008
    -2.6832  -2.5525  -2.5410  -2.4045  -2.3925  -2.3709  -2.3612  -2.3541
    -2.3303  -2.2782  -2.2624  -2.2300  -2.1815  -2.1714  -2.1362  -2.0781
    -2.0595  -2.0375  -1.9992  -1.9262  -1.8497  -1.7178  -1.6726  -1.6143
    -1.5950  -1.5425  -1.4934  -1.4625  -1.4476  -1.4049  -1.3642  -1.2774
    -1.2435  -1.1533  -1.1378  -1.1283  -1.0823  -1.0621  -1.0506  -1.0159
    -1.0138  -0.9419  -0.8951  -0.7325  -0.6974  -0.6694  -0.6588  -0.6476
    -0.5911  -0.5648  -0.5516  -0.5393  -0.4671  -0.4573  -0.3773  -0.3653
    -0.3534  -0.3380  -0.3304  -0.2167  -0.1925  -0.1625  -0.1482  -0.1260
    -0.0816  -0.0354  -0.0271  -0.0063   0.0036   0.0074   0.0199   0.0510
     0.0583   0.0727   0.1340   0.1382   0.2040   0.2211   0.2521   0.2729
     0.2997   0.3048   0.3474   0.3637   0.3706   0.3835   0.4052   0.4254
     0.4405   0.4504   0.5113   0.5240   0.5364   0.5678   0.6582   0.6871
     0.6999   0.7157   0.7712   0.7791   0.9362   0.9694   1.0188   1.0373
     1.0480   1.0957   1.1166   1.1590   1.1859   1.2016   1.2179   1.2270
     1.2453   1.3424   1.3548   1.4418   1.5222   1.5791   1.5841   1.6229
     1.6459   1.6845   1.7096   1.7264   1.7361   1.8615   1.9000   1.9033
     1.9210   1.9485   1.9579   2.0066   2.0152   2.0438   2.0512   2.0849
     2.1069   2.1472   2.1581   2.1703   2.1889   2.1947   2.2368   2.2826
     2.3056   2.3395   2.5009   2.5470   2.5658   2.6406   2.6659   2.6881
     2.7014   2.7702   2.7893   2.7928   2.8032   2.8206   2.8530   2.8590
     2.8938   2.9064   2.9088   3.0177   3.0298   3.0376   3.0546   3.0790
     3.0852   3.0953   3.1067   3.1553   3.2650   3.2797   3.2865   3.3445
     3.3613   3.3799   3.4116   3.4955   3.5139   3.7427   3.7478   3.8181
     4.1616   4.1715   4.4582   4.4825   5.0950   5.1697   5.1839   5.5168
     5.5228   5.9664   6.6305   6.6512   6.7678   6.9581   7.1299   7.3922
     7.4219   7.8341   7.9304   7.9450   8.0044   8.1472   8.8297   8.9785
     8.9965   9.0847   9.1374   9.3636   9.4135   9.5236   9.6099   9.7759
     9.8008   9.8243   9.9295  10.0289  10.0526  10.4529  10.5756  10.6046
    10.6709  10.6834  10.7316  10.8353  10.9706  11.0206  11.1225  11.1775

     occupation numbers 
     1.0000   1.0000   1.0000   1.0000   1.0000   1.0000   1.0000   1.0000
     1.0000   1.0000   1.0000   1.0000   1.0000   1.0000   1.0000   1.0000
     1.0000   1.0000   1.0000   1.0000   1.0000   1.0000   1.0000   1.0000
     1.0000   1.0000   1.0000   1.0000   1.0000   1.0000   1.0000   1.0000
     1.0000   1.0000   1.0000   1.0000   1.0000   1.0000   1.0000   1.0000
     1.0000   1.0000   1.0000   1.0000   1.0000   1.0000   1.0000   1.0000
     1.0000   1.0000   1.0000   1.0000   1.0000   1.0000   1.0000   1.0000
     1.0000   1.0000   1.0000   1.0000   1.0000   1.0000   1.0000   1.0000
     1.0000   1.0000   1.0000   1.0000   1.0000   1.0000   1.0000   1.0000
     1.0000   1.0000   1.0000   1.0000   1.0000   1.0000   1.0000   1.0000
     1.0000   1.0000   1.0000   1.0000   1.0000   1.0000   1.0000   1.0000
     1.0000   1.0000   1.0000   1.0000   1.0000   1.0000   1.0000   1.0000
     1.0000   1.0000   1.0000   1.0000   1.0000   1.0000   1.0000   1.0000
     1.0000   1.0000   1.0000   1.0000   1.0000   1.0000   1.0000   1.0000
     1.0000   1.0000   1.0000   1.0000   1.0000   1.0000   1.0000   1.0000
     1.0000   1.0000   1.0000   1.0000   1.0000   1.0000   1.0000   1.0000
     1.0000   1.0000   1.0000   1.0000   1.0000   1.0000   1.0000   1.0000
     1.0000   1.0000   1.0000   1.0000   1.0000   1.0000   1.0000   1.0000
     1.0000   1.0000   1.0000   1.0000   1.0000   1.0000   1.0000   1.0000
     1.0000   1.0000   1.0000   1.0000   1.0000   1.0000   1.0000   1.0000
     1.0000   1.0000   1.0000   1.0000   1.0000   1.0000   1.0000   1.0000
     1.0000   1.0000   1.0000   1.0000   1.0000   1.0000   1.0000   1.0000
     1.0000   1.0000   1.0000   1.0000   1.0000   1.0000   1.0000   1.0000
     1.0000   1.0000   1.0000   1.0000   1.0000   1.0000   1.0000   1.0000
     1.0000   1.0000   1.0000   1.0000   1.0000   1.0000   1.0000   1.0000
     1.0000   1.0000   1.0000   1.0000   1.0000   1.0000   1.0000   1.0000
     1.0000   1.0000   1.0000   1.0000   1.0000   1.0000   1.0000   1.0000
     1.0000   1.0000   1.0000   1.0000   1.0000   1.0000   1.0000   1.0000
     1.0000   1.0000   1.0000   1.0000   1.0000   1.0000   1.0000   1.0000
     1.0000   1.0000   1.0000   1.0000   1.0000   1.0000   1.0000   1.0000
     1.0000   1.0000   1.0000   1.0000   1.0000   1.0000   1.0000   1.0000
     1.0000   1.0000   1.0000   1.0000   1.0000   1.0000   1.0000   1.0000
     1.0000   1.0000   1.0000   1.0000   1.0000   1.0000   1.0000   1.0000
     1.0000   1.0000   1.0000   1.0000   1.0000   1.0000   1.0000   1.0000
     1.0000   1.0000   1.0000   1.0000   1.0000   1.0000   1.0000   1.0000
     1.0000   1.0000   1.0000   1.0000   1.0000   1.0000   1.0000   1.0000
     1.0000   1.0000   1.0000   1.0000   1.0000   1.0000   1.0000   1.0000
     1.0000   1.0000   1.0000   1.0000   1.0000   1.0000   1.0000   1.0000
     1.0000   1.0000   1.0000   1.0000   1.0000   0.9999   0.9998   0.9997
     0.9997   0.9986   0.9980   0.9978   0.9973   0.9963   0.9929   0.9920
     0.9840   0.9795   0.9785   0.8376   0.8019   0.7758   0.7115   0.6023
     0.5721   0.5218   0.4650   0.2474   0.0354   0.0266   0.0233   0.0074
     0.0053   0.0037   0.0019   0.0004   0.0003   0.0000   0.0000   0.0000
     0.0000   0.0000   0.0000   0.0000   0.0000   0.0000   0.0000   0.0000
     0.0000   0.0000   0.0000   0.0000   0.0000   0.0000   0.0000   0.0000
     0.0000   0.0000   0.0000   0.0000   0.0000   0.0000   0.0000   0.0000
     0.0000   0.0000   0.0000   0.0000   0.0000   0.0000   0.0000   0.0000
     0.0000   0.0000   0.0000   0.0000   0.0000   0.0000   0.0000   0.0000
     0.0000   0.0000   0.0000   0.0000   0.0000   0.0000   0.0000   0.0000

          k = 0.1667-0.6736 0.0000 ( 88140 PWs)   bands (ev):

   -95.3629 -95.3589 -95.3532 -95.3521 -95.3515 -95.3475 -95.3455 -95.3448
   -95.3327 -95.3278 -95.3276 -95.3253 -95.3234 -95.3228 -95.3191 -95.3184
   -95.3172 -95.2188 -94.9649 -94.9587 -94.9583 -94.9251 -94.9181 -94.9162
   -94.9116 -94.9090 -94.9053 -94.9012 -94.8997 -94.8991 -94.8952 -94.8917
   -94.8910 -94.7183 -94.7158 -94.7139 -49.6717 -49.6577 -49.6514 -49.6415
   -49.6317 -49.6255 -49.6180 -49.6101 -49.6036 -49.5981 -49.5958 -49.5920
   -49.5817 -49.5691 -49.5654 -49.5169 -49.5106 -49.5073 -49.5039 -49.4974
   -49.4944 -49.4888 -49.4832 -49.4761 -49.4705 -49.4676 -49.4610 -49.4560
   -49.4504 -49.4463 -49.4425 -49.4379 -49.4333 -49.4320 -49.4293 -49.4265
   -49.4225 -49.4163 -49.4124 -49.4110 -49.4063 -49.4017 -49.3975 -49.3951
   -49.3917 -49.3910 -49.3883 -49.3827 -49.3717 -49.3640 -49.3503 -49.3269
   -49.3106 -49.3052 -49.2965 -49.2889 -49.2824 -49.2783 -49.2665 -49.2604
   -49.2533 -49.2391 -49.2359 -49.2296 -49.2070 -49.2013 -49.1627 -49.1349
   -49.1337 -49.1266 -49.1219 -49.1189 -49.1070 -49.1012 -49.0981 -49.0931
   -49.0874 -49.0803 -49.0790 -49.0729 -49.0586 -49.0423 -49.0278 -49.0158
   -48.9815 -48.9575 -48.9430 -48.9319 -48.9216 -48.9053 -48.8735 -48.8646
   -48.8632 -48.8450 -48.8415 -48.8374 -48.8343 -48.8326 -48.8321 -48.8254
   -48.8228 -48.8218 -48.8176 -48.8131 -48.8120 -48.6326 -48.6273 -48.6248
   -15.4801  -5.3262  -4.7870  -4.2905  -4.0467  -3.5711  -3.2180  -3.1684
    -3.1575  -3.0520  -3.0140  -2.9539  -2.9008  -2.8381  -2.8267  -2.7101
    -2.6358  -2.6291  -2.5621  -2.5231  -2.4902  -2.4777  -2.4561  -2.4210
    -2.3660  -2.3289  -2.2690  -2.2539  -2.1943  -2.1521  -2.1003  -2.0380
    -2.0177  -1.9965  -1.9471  -1.9297  -1.8289  -1.7861  -1.7087  -1.6632
    -1.5269  -1.4700  -1.4513  -1.3837  -1.3657  -1.3560  -1.3402  -1.2617
    -1.2486  -1.2046  -1.1659  -1.1105  -1.0823  -1.0493  -1.0187  -1.0139
    -0.9979  -0.9655  -0.9459  -0.9199  -0.8705  -0.8423  -0.8032  -0.7555
    -0.6967  -0.6734  -0.6681  -0.6187  -0.5902  -0.4873  -0.4559  -0.4304
    -0.3751  -0.3584  -0.3516  -0.3268  -0.2950  -0.2792  -0.2434  -0.2176
    -0.1843  -0.1680  -0.0978  -0.0757  -0.0572  -0.0339  -0.0296   0.0062
     0.0866   0.1094   0.1293   0.1409   0.1600   0.2165   0.2260   0.2488
     0.2727   0.2817   0.2973   0.3109   0.3325   0.3698   0.3797   0.3972
     0.4108   0.4442   0.4816   0.5086   0.5327   0.5707   0.6258   0.6565
     0.6811   0.7702   0.7872   0.8216   0.9168   0.9665   0.9924   1.0207
     1.0502   1.0783   1.1001   1.1349   1.1581   1.1647   1.2254   1.2514
     1.2646   1.2861   1.3103   1.3498   1.3882   1.3972   1.4561   1.4970
     1.5357   1.6553   1.6766   1.6934   1.7228   1.7711   1.8096   1.8186
     1.8313   1.8593   1.8865   1.8994   1.9358   2.0039   2.0340   2.0650
     2.0774   2.0878   2.1087   2.1315   2.1460   2.2624   2.2943   2.3542
     2.4187   2.4384   2.5217   2.5512   2.5688   2.6291   2.6369   2.6641
     2.7526   2.7941   2.8258   2.8653   2.8805   2.8916   2.8950   2.9067
     2.9783   3.0042   3.0086   3.0471   3.0569   3.0808   3.1289   3.1406
     3.2068   3.2149   3.2930   3.3045   3.3409   3.3643   3.3841   3.3938
     3.4456   3.4702   3.5154   4.1183   4.3755   4.3987   4.4562   4.5193
     4.8099   4.9587   5.0318   5.3306   5.3782   5.4063   5.4507   5.5485
     5.8046   5.9371   6.0062   6.2528   6.5457   6.6153   6.6719   6.8093
     6.9737   7.2874   7.4630   7.7144   7.7647   7.7814   8.5242   8.7786
     8.8018   8.8608   9.0410   9.1079   9.2852   9.3737   9.5172   9.5892
     9.6617   9.9015   9.9108  10.0140  10.1573  10.2374  10.2585  10.4998
    10.6152  10.7474  10.8678  10.9881  11.0421  11.1212  11.1570  11.2026

     occupation numbers 
     1.0000   1.0000   1.0000   1.0000   1.0000   1.0000   1.0000   1.0000
     1.0000   1.0000   1.0000   1.0000   1.0000   1.0000   1.0000   1.0000
     1.0000   1.0000   1.0000   1.0000   1.0000   1.0000   1.0000   1.0000
     1.0000   1.0000   1.0000   1.0000   1.0000   1.0000   1.0000   1.0000
     1.0000   1.0000   1.0000   1.0000   1.0000   1.0000   1.0000   1.0000
     1.0000   1.0000   1.0000   1.0000   1.0000   1.0000   1.0000   1.0000
     1.0000   1.0000   1.0000   1.0000   1.0000   1.0000   1.0000   1.0000
     1.0000   1.0000   1.0000   1.0000   1.0000   1.0000   1.0000   1.0000
     1.0000   1.0000   1.0000   1.0000   1.0000   1.0000   1.0000   1.0000
     1.0000   1.0000   1.0000   1.0000   1.0000   1.0000   1.0000   1.0000
     1.0000   1.0000   1.0000   1.0000   1.0000   1.0000   1.0000   1.0000
     1.0000   1.0000   1.0000   1.0000   1.0000   1.0000   1.0000   1.0000
     1.0000   1.0000   1.0000   1.0000   1.0000   1.0000   1.0000   1.0000
     1.0000   1.0000   1.0000   1.0000   1.0000   1.0000   1.0000   1.0000
     1.0000   1.0000   1.0000   1.0000   1.0000   1.0000   1.0000   1.0000
     1.0000   1.0000   1.0000   1.0000   1.0000   1.0000   1.0000   1.0000
     1.0000   1.0000   1.0000   1.0000   1.0000   1.0000   1.0000   1.0000
     1.0000   1.0000   1.0000   1.0000   1.0000   1.0000   1.0000   1.0000
     1.0000   1.0000   1.0000   1.0000   1.0000   1.0000   1.0000   1.0000
     1.0000   1.0000   1.0000   1.0000   1.0000   1.0000   1.0000   1.0000
     1.0000   1.0000   1.0000   1.0000   1.0000   1.0000   1.0000   1.0000
     1.0000   1.0000   1.0000   1.0000   1.0000   1.0000   1.0000   1.0000
     1.0000   1.0000   1.0000   1.0000   1.0000   1.0000   1.0000   1.0000
     1.0000   1.0000   1.0000   1.0000   1.0000   1.0000   1.0000   1.0000
     1.0000   1.0000   1.0000   1.0000   1.0000   1.0000   1.0000   1.0000
     1.0000   1.0000   1.0000   1.0000   1.0000   1.0000   1.0000   1.0000
     1.0000   1.0000   1.0000   1.0000   1.0000   1.0000   1.0000   1.0000
     1.0000   1.0000   1.0000   1.0000   1.0000   1.0000   1.0000   1.0000
     1.0000   1.0000   1.0000   1.0000   1.0000   1.0000   1.0000   1.0000
     1.0000   1.0000   1.0000   1.0000   1.0000   1.0000   1.0000   1.0000
     1.0000   1.0000   1.0000   1.0000   1.0000   1.0000   1.0000   1.0000
     1.0000   1.0000   1.0000   1.0000   1.0000   1.0000   1.0000   1.0000
     1.0000   1.0000   1.0000   1.0000   1.0000   1.0000   1.0000   1.0000
     1.0000   1.0000   1.0000   1.0000   1.0000   1.0000   1.0000   1.0000
     1.0000   1.0000   1.0000   1.0000   1.0000   1.0000   1.0000   1.0000
     1.0000   1.0000   1.0000   1.0000   1.0000   1.0000   1.0000   1.0000
     1.0000   1.0000   1.0000   1.0000   1.0000   1.0000   1.0000   1.0000
     1.0000   1.0000   1.0000   1.0000   1.0000   1.0000   1.0000   1.0000
     1.0000   1.0000   1.0000   1.0000   1.0000   0.9999   0.9999   0.9998
     0.9990   0.9978   0.9958   0.9909   0.9877   0.9847   0.9836   0.9794
     0.9190   0.8711   0.8608   0.7413   0.7021   0.5936   0.3581   0.3065
     0.1050   0.0909   0.0205   0.0164   0.0080   0.0050   0.0034   0.0028
     0.0010   0.0006   0.0002   0.0000   0.0000   0.0000   0.0000   0.0000
     0.0000   0.0000   0.0000   0.0000   0.0000   0.0000   0.0000   0.0000
     0.0000   0.0000   0.0000   0.0000   0.0000   0.0000   0.0000   0.0000
     0.0000   0.0000   0.0000   0.0000   0.0000   0.0000   0.0000   0.0000
     0.0000   0.0000   0.0000   0.0000   0.0000   0.0000   0.0000   0.0000
     0.0000   0.0000   0.0000   0.0000   0.0000   0.0000   0.0000   0.0000
     0.0000   0.0000   0.0000   0.0000   0.0000   0.0000   0.0000   0.0000

          k = 0.1667-0.4811 0.0000 ( 88140 PWs)   bands (ev):

   -95.3629 -95.3589 -95.3532 -95.3521 -95.3515 -95.3475 -95.3455 -95.3449
   -95.3327 -95.3278 -95.3276 -95.3253 -95.3234 -95.3228 -95.3191 -95.3184
   -95.3172 -95.2188 -94.9649 -94.9587 -94.9583 -94.9251 -94.9181 -94.9162
   -94.9116 -94.9090 -94.9053 -94.9012 -94.8997 -94.8990 -94.8952 -94.8918
   -94.8910 -94.7183 -94.7158 -94.7139 -49.6717 -49.6577 -49.6514 -49.6415
   -49.6317 -49.6254 -49.6180 -49.6102 -49.6036 -49.5981 -49.5958 -49.5921
   -49.5817 -49.5691 -49.5654 -49.5169 -49.5106 -49.5073 -49.5039 -49.4974
   -49.4944 -49.4888 -49.4832 -49.4760 -49.4705 -49.4676 -49.4610 -49.4560
   -49.4505 -49.4462 -49.4425 -49.4378 -49.4333 -49.4320 -49.4293 -49.4265
   -49.4225 -49.4163 -49.4124 -49.4110 -49.4063 -49.4017 -49.3975 -49.3951
   -49.3918 -49.3910 -49.3883 -49.3827 -49.3716 -49.3640 -49.3503 -49.3269
   -49.3106 -49.3052 -49.2965 -49.2889 -49.2824 -49.2783 -49.2665 -49.2604
   -49.2533 -49.2391 -49.2359 -49.2296 -49.2070 -49.2013 -49.1627 -49.1349
   -49.1337 -49.1266 -49.1220 -49.1189 -49.1071 -49.1012 -49.0981 -49.0931
   -49.0874 -49.0803 -49.0790 -49.0729 -49.0586 -49.0423 -49.0278 -49.0158
   -48.9814 -48.9575 -48.9431 -48.9319 -48.9215 -48.9053 -48.8735 -48.8646
   -48.8632 -48.8450 -48.8415 -48.8374 -48.8343 -48.8326 -48.8321 -48.8254
   -48.8228 -48.8218 -48.8176 -48.8131 -48.8120 -48.6326 -48.6273 -48.6248
   -15.4801  -5.3262  -4.7870  -4.2905  -4.0467  -3.5711  -3.2180  -3.1684
    -3.1575  -3.0520  -3.0140  -2.9539  -2.9008  -2.8381  -2.8267  -2.7101
    -2.6358  -2.6291  -2.5621  -2.5231  -2.4902  -2.4777  -2.4561  -2.4210
    -2.3660  -2.3289  -2.2690  -2.2539  -2.1943  -2.1521  -2.1004  -2.0380
    -2.0177  -1.9965  -1.9471  -1.9296  -1.8289  -1.7861  -1.7087  -1.6632
    -1.5269  -1.4700  -1.4513  -1.3837  -1.3657  -1.3560  -1.3402  -1.2617
    -1.2486  -1.2046  -1.1659  -1.1105  -1.0823  -1.0493  -1.0186  -1.0139
    -0.9978  -0.9655  -0.9459  -0.9199  -0.8705  -0.8423  -0.8033  -0.7555
    -0.6967  -0.6734  -0.6681  -0.6187  -0.5902  -0.4873  -0.4558  -0.4304
    -0.3751  -0.3584  -0.3516  -0.3268  -0.2949  -0.2792  -0.2434  -0.2175
    -0.1843  -0.1680  -0.0978  -0.0757  -0.0573  -0.0339  -0.0296   0.0062
     0.0865   0.1094   0.1293   0.1409   0.1600   0.2165   0.2260   0.2489
     0.2727   0.2817   0.2973   0.3109   0.3325   0.3698   0.3796   0.3972
     0.4107   0.4441   0.4816   0.5085   0.5327   0.5707   0.6258   0.6565
     0.6811   0.7702   0.7872   0.8216   0.9168   0.9666   0.9923   1.0207
     1.0502   1.0783   1.1001   1.1349   1.1581   1.1647   1.2254   1.2514
     1.2646   1.2862   1.3103   1.3498   1.3882   1.3972   1.4561   1.4970
     1.5357   1.6553   1.6766   1.6934   1.7228   1.7711   1.8096   1.8186
     1.8313   1.8592   1.8866   1.8994   1.9358   2.0039   2.0339   2.0650
     2.0774   2.0878   2.1087   2.1315   2.1460   2.2624   2.2943   2.3542
     2.4187   2.4385   2.5217   2.5513   2.5689   2.6291   2.6369   2.6641
     2.7526   2.7941   2.8258   2.8653   2.8805   2.8916   2.8950   2.9067
     2.9784   3.0042   3.0086   3.0471   3.0568   3.0808   3.1289   3.1406
     3.2068   3.2148   3.2931   3.3045   3.3409   3.3643   3.3840   3.3937
     3.4456   3.4702   3.5154   4.1183   4.3755   4.3987   4.4562   4.5194
     4.8099   4.9587   5.0317   5.3306   5.3782   5.4062   5.4507   5.5485
     5.8046   5.9371   6.0063   6.2528   6.5457   6.6154   6.6719   6.8093
     6.9737   7.2874   7.4630   7.7145   7.7647   7.7813   8.5242   8.7786
     8.8018   8.8608   9.0410   9.1080   9.2852   9.3737   9.5173   9.5890
     9.6617   9.9015   9.9108  10.0139  10.1572  10.2374  10.2586  10.4998
    10.6152  10.7474  10.8676  10.9878  11.0424  11.1213  11.1571  11.2026

     occupation numbers 
     1.0000   1.0000   1.0000   1.0000   1.0000   1.0000   1.0000   1.0000
     1.0000   1.0000   1.0000   1.0000   1.0000   1.0000   1.0000   1.0000
     1.0000   1.0000   1.0000   1.0000   1.0000   1.0000   1.0000   1.0000
     1.0000   1.0000   1.0000   1.0000   1.0000   1.0000   1.0000   1.0000
     1.0000   1.0000   1.0000   1.0000   1.0000   1.0000   1.0000   1.0000
     1.0000   1.0000   1.0000   1.0000   1.0000   1.0000   1.0000   1.0000
     1.0000   1.0000   1.0000   1.0000   1.0000   1.0000   1.0000   1.0000
     1.0000   1.0000   1.0000   1.0000   1.0000   1.0000   1.0000   1.0000
     1.0000   1.0000   1.0000   1.0000   1.0000   1.0000   1.0000   1.0000
     1.0000   1.0000   1.0000   1.0000   1.0000   1.0000   1.0000   1.0000
     1.0000   1.0000   1.0000   1.0000   1.0000   1.0000   1.0000   1.0000
     1.0000   1.0000   1.0000   1.0000   1.0000   1.0000   1.0000   1.0000
     1.0000   1.0000   1.0000   1.0000   1.0000   1.0000   1.0000   1.0000
     1.0000   1.0000   1.0000   1.0000   1.0000   1.0000   1.0000   1.0000
     1.0000   1.0000   1.0000   1.0000   1.0000   1.0000   1.0000   1.0000
     1.0000   1.0000   1.0000   1.0000   1.0000   1.0000   1.0000   1.0000
     1.0000   1.0000   1.0000   1.0000   1.0000   1.0000   1.0000   1.0000
     1.0000   1.0000   1.0000   1.0000   1.0000   1.0000   1.0000   1.0000
     1.0000   1.0000   1.0000   1.0000   1.0000   1.0000   1.0000   1.0000
     1.0000   1.0000   1.0000   1.0000   1.0000   1.0000   1.0000   1.0000
     1.0000   1.0000   1.0000   1.0000   1.0000   1.0000   1.0000   1.0000
     1.0000   1.0000   1.0000   1.0000   1.0000   1.0000   1.0000   1.0000
     1.0000   1.0000   1.0000   1.0000   1.0000   1.0000   1.0000   1.0000
     1.0000   1.0000   1.0000   1.0000   1.0000   1.0000   1.0000   1.0000
     1.0000   1.0000   1.0000   1.0000   1.0000   1.0000   1.0000   1.0000
     1.0000   1.0000   1.0000   1.0000   1.0000   1.0000   1.0000   1.0000
     1.0000   1.0000   1.0000   1.0000   1.0000   1.0000   1.0000   1.0000
     1.0000   1.0000   1.0000   1.0000   1.0000   1.0000   1.0000   1.0000
     1.0000   1.0000   1.0000   1.0000   1.0000   1.0000   1.0000   1.0000
     1.0000   1.0000   1.0000   1.0000   1.0000   1.0000   1.0000   1.0000
     1.0000   1.0000   1.0000   1.0000   1.0000   1.0000   1.0000   1.0000
     1.0000   1.0000   1.0000   1.0000   1.0000   1.0000   1.0000   1.0000
     1.0000   1.0000   1.0000   1.0000   1.0000   1.0000   1.0000   1.0000
     1.0000   1.0000   1.0000   1.0000   1.0000   1.0000   1.0000   1.0000
     1.0000   1.0000   1.0000   1.0000   1.0000   1.0000   1.0000   1.0000
     1.0000   1.0000   1.0000   1.0000   1.0000   1.0000   1.0000   1.0000
     1.0000   1.0000   1.0000   1.0000   1.0000   1.0000   1.0000   1.0000
     1.0000   1.0000   1.0000   1.0000   1.0000   1.0000   1.0000   1.0000
     1.0000   1.0000   1.0000   1.0000   1.0000   0.9999   0.9999   0.9998
     0.9990   0.9978   0.9958   0.9909   0.9877   0.9847   0.9836   0.9794
     0.9189   0.8710   0.8609   0.7412   0.7022   0.5937   0.3579   0.3064
     0.1050   0.0910   0.0205   0.0164   0.0080   0.0050   0.0034   0.0028
     0.0010   0.0006   0.0002   0.0000   0.0000   0.0000   0.0000   0.0000
     0.0000   0.0000   0.0000   0.0000   0.0000   0.0000   0.0000   0.0000
     0.0000   0.0000   0.0000   0.0000   0.0000   0.0000   0.0000   0.0000
     0.0000   0.0000   0.0000   0.0000   0.0000   0.0000   0.0000   0.0000
     0.0000   0.0000   0.0000   0.0000   0.0000   0.0000   0.0000   0.0000
     0.0000   0.0000   0.0000   0.0000   0.0000   0.0000   0.0000   0.0000
     0.0000   0.0000   0.0000   0.0000   0.0000   0.0000   0.0000   0.0000

          k = 0.1667-0.2887 0.0000 ( 88188 PWs)   bands (ev):

   -95.3638 -95.3578 -95.3528 -95.3521 -95.3517 -95.3473 -95.3457 -95.3451
   -95.3327 -95.3277 -95.3275 -95.3254 -95.3230 -95.3227 -95.3195 -95.3193
   -95.3165 -95.2188 -94.9651 -94.9587 -94.9582 -94.9252 -94.9181 -94.9161
   -94.9132 -94.9070 -94.9046 -94.9015 -94.9002 -94.8993 -94.8955 -94.8916
   -94.8911 -94.7183 -94.7158 -94.7139 -49.6582 -49.6519 -49.6397 -49.6310
   -49.6263 -49.6191 -49.6113 -49.6085 -49.6025 -49.5948 -49.5920 -49.5875
   -49.5845 -49.5755 -49.5651 -49.5361 -49.5312 -49.5254 -49.5114 -49.5075
   -49.5035 -49.4991 -49.4967 -49.4905 -49.4814 -49.4712 -49.4660 -49.4543
   -49.4493 -49.4441 -49.4418 -49.4388 -49.4369 -49.4301 -49.4266 -49.4223
   -49.4180 -49.4151 -49.4111 -49.4078 -49.4035 -49.3994 -49.3976 -49.3926
   -49.3899 -49.3851 -49.3806 -49.3704 -49.3634 -49.3581 -49.3507 -49.3185
   -49.3063 -49.2974 -49.2926 -49.2847 -49.2790 -49.2648 -49.2626 -49.2497
   -49.2461 -49.2424 -49.2343 -49.2170 -49.2162 -49.2137 -49.1895 -49.1546
   -49.1499 -49.1484 -49.1467 -49.1302 -49.1234 -49.1034 -49.0840 -49.0758
   -49.0748 -49.0746 -49.0736 -49.0714 -49.0415 -49.0407 -49.0266 -49.0073
   -48.9923 -48.9577 -48.9453 -48.9268 -48.9116 -48.9011 -48.8742 -48.8641
   -48.8630 -48.8456 -48.8439 -48.8344 -48.8340 -48.8325 -48.8307 -48.8258
   -48.8239 -48.8223 -48.8182 -48.8126 -48.8120 -48.6326 -48.6273 -48.6249
   -15.4801  -5.7173  -4.4233  -4.2034  -4.1583  -3.3307  -3.2797  -3.2544
    -3.2397  -3.2372  -3.2235  -3.1634  -3.0887  -2.9923  -2.9772  -2.7007
    -2.6832  -2.5525  -2.5410  -2.4045  -2.3925  -2.3709  -2.3612  -2.3541
    -2.3303  -2.2782  -2.2624  -2.2300  -2.1815  -2.1714  -2.1362  -2.0781
    -2.0595  -2.0375  -1.9992  -1.9262  -1.8497  -1.7178  -1.6727  -1.6143
    -1.5950  -1.5425  -1.4934  -1.4625  -1.4476  -1.4049  -1.3642  -1.2774
    -1.2435  -1.1533  -1.1378  -1.1283  -1.0822  -1.0622  -1.0506  -1.0160
    -1.0137  -0.9419  -0.8951  -0.7325  -0.6974  -0.6695  -0.6588  -0.6476
    -0.5911  -0.5648  -0.5516  -0.5393  -0.4671  -0.4573  -0.3772  -0.3652
    -0.3534  -0.3380  -0.3304  -0.2168  -0.1925  -0.1625  -0.1481  -0.1260
    -0.0816  -0.0353  -0.0271  -0.0063   0.0036   0.0074   0.0200   0.0510
     0.0583   0.0727   0.1340   0.1382   0.2040   0.2211   0.2521   0.2729
     0.2997   0.3048   0.3474   0.3636   0.3707   0.3835   0.4052   0.4254
     0.4405   0.4504   0.5113   0.5239   0.5364   0.5678   0.6582   0.6871
     0.6999   0.7157   0.7712   0.7791   0.9361   0.9694   1.0188   1.0374
     1.0480   1.0957   1.1166   1.1590   1.1859   1.2016   1.2179   1.2270
     1.2454   1.3424   1.3548   1.4418   1.5222   1.5791   1.5841   1.6229
     1.6459   1.6845   1.7096   1.7264   1.7361   1.8615   1.9000   1.9033
     1.9211   1.9485   1.9579   2.0065   2.0152   2.0438   2.0512   2.0849
     2.1068   2.1471   2.1582   2.1702   2.1888   2.1947   2.2368   2.2826
     2.3055   2.3395   2.5009   2.5471   2.5658   2.6406   2.6659   2.6881
     2.7014   2.7702   2.7893   2.7928   2.8032   2.8205   2.8530   2.8590
     2.8938   2.9064   2.9088   3.0177   3.0298   3.0376   3.0546   3.0790
     3.0852   3.0953   3.1067   3.1553   3.2650   3.2797   3.2865   3.3445
     3.3613   3.3799   3.4116   3.4954   3.5140   3.7427   3.7478   3.8181
     4.1616   4.1714   4.4581   4.4825   5.0950   5.1697   5.1839   5.5166
     5.5231   5.9664   6.6304   6.6513   6.7678   6.9581   7.1299   7.3921
     7.4220   7.8341   7.9307   7.9447   8.0044   8.1472   8.8297   8.9785
     8.9965   9.0846   9.1374   9.3635   9.4136   9.5233   9.6100   9.7758
     9.8010   9.8242   9.9296  10.0299  10.0515  10.4529  10.5755  10.6046
    10.6709  10.6833  10.7319  10.8351  10.9712  11.0196  11.1219  11.1783

     occupation numbers 
     1.0000   1.0000   1.0000   1.0000   1.0000   1.0000   1.0000   1.0000
     1.0000   1.0000   1.0000   1.0000   1.0000   1.0000   1.0000   1.0000
     1.0000   1.0000   1.0000   1.0000   1.0000   1.0000   1.0000   1.0000
     1.0000   1.0000   1.0000   1.0000   1.0000   1.0000   1.0000   1.0000
     1.0000   1.0000   1.0000   1.0000   1.0000   1.0000   1.0000   1.0000
     1.0000   1.0000   1.0000   1.0000   1.0000   1.0000   1.0000   1.0000
     1.0000   1.0000   1.0000   1.0000   1.0000   1.0000   1.0000   1.0000
     1.0000   1.0000   1.0000   1.0000   1.0000   1.0000   1.0000   1.0000
     1.0000   1.0000   1.0000   1.0000   1.0000   1.0000   1.0000   1.0000
     1.0000   1.0000   1.0000   1.0000   1.0000   1.0000   1.0000   1.0000
     1.0000   1.0000   1.0000   1.0000   1.0000   1.0000   1.0000   1.0000
     1.0000   1.0000   1.0000   1.0000   1.0000   1.0000   1.0000   1.0000
     1.0000   1.0000   1.0000   1.0000   1.0000   1.0000   1.0000   1.0000
     1.0000   1.0000   1.0000   1.0000   1.0000   1.0000   1.0000   1.0000
     1.0000   1.0000   1.0000   1.0000   1.0000   1.0000   1.0000   1.0000
     1.0000   1.0000   1.0000   1.0000   1.0000   1.0000   1.0000   1.0000
     1.0000   1.0000   1.0000   1.0000   1.0000   1.0000   1.0000   1.0000
     1.0000   1.0000   1.0000   1.0000   1.0000   1.0000   1.0000   1.0000
     1.0000   1.0000   1.0000   1.0000   1.0000   1.0000   1.0000   1.0000
     1.0000   1.0000   1.0000   1.0000   1.0000   1.0000   1.0000   1.0000
     1.0000   1.0000   1.0000   1.0000   1.0000   1.0000   1.0000   1.0000
     1.0000   1.0000   1.0000   1.0000   1.0000   1.0000   1.0000   1.0000
     1.0000   1.0000   1.0000   1.0000   1.0000   1.0000   1.0000   1.0000
     1.0000   1.0000   1.0000   1.0000   1.0000   1.0000   1.0000   1.0000
     1.0000   1.0000   1.0000   1.0000   1.0000   1.0000   1.0000   1.0000
     1.0000   1.0000   1.0000   1.0000   1.0000   1.0000   1.0000   1.0000
     1.0000   1.0000   1.0000   1.0000   1.0000   1.0000   1.0000   1.0000
     1.0000   1.0000   1.0000   1.0000   1.0000   1.0000   1.0000   1.0000
     1.0000   1.0000   1.0000   1.0000   1.0000   1.0000   1.0000   1.0000
     1.0000   1.0000   1.0000   1.0000   1.0000   1.0000   1.0000   1.0000
     1.0000   1.0000   1.0000   1.0000   1.0000   1.0000   1.0000   1.0000
     1.0000   1.0000   1.0000   1.0000   1.0000   1.0000   1.0000   1.0000
     1.0000   1.0000   1.0000   1.0000   1.0000   1.0000   1.0000   1.0000
     1.0000   1.0000   1.0000   1.0000   1.0000   1.0000   1.0000   1.0000
     1.0000   1.0000   1.0000   1.0000   1.0000   1.0000   1.0000   1.0000
     1.0000   1.0000   1.0000   1.0000   1.0000   1.0000   1.0000   1.0000
     1.0000   1.0000   1.0000   1.0000   1.0000   1.0000   1.0000   1.0000
     1.0000   1.0000   1.0000   1.0000   1.0000   1.0000   1.0000   1.0000
     1.0000   1.0000   1.0000   1.0000   1.0000   0.9999   0.9998   0.9997
     0.9997   0.9986   0.9980   0.9978   0.9973   0.9963   0.9929   0.9920
     0.9840   0.9795   0.9785   0.8376   0.8018   0.7759   0.7114   0.6022
     0.5721   0.5218   0.4651   0.2474   0.0354   0.0266   0.0233   0.0074
     0.0053   0.0037   0.0019   0.0004   0.0003   0.0000   0.0000   0.0000
     0.0000   0.0000   0.0000   0.0000   0.0000   0.0000   0.0000   0.0000
     0.0000   0.0000   0.0000   0.0000   0.0000   0.0000   0.0000   0.0000
     0.0000   0.0000   0.0000   0.0000   0.0000   0.0000   0.0000   0.0000
     0.0000   0.0000   0.0000   0.0000   0.0000   0.0000   0.0000   0.0000
     0.0000   0.0000   0.0000   0.0000   0.0000   0.0000   0.0000   0.0000
     0.0000   0.0000   0.0000   0.0000   0.0000   0.0000   0.0000   0.0000

          k = 0.3333-0.1925 0.0000 ( 88170 PWs)   bands (ev):

   -95.3636 -95.3581 -95.3527 -95.3522 -95.3519 -95.3474 -95.3459 -95.3448
   -95.3327 -95.3277 -95.3276 -95.3253 -95.3231 -95.3228 -95.3195 -95.3188
   -95.3167 -95.2188 -94.9650 -94.9588 -94.9581 -94.9251 -94.9181 -94.9161
   -94.9128 -94.9078 -94.9042 -94.9021 -94.8998 -94.8992 -94.8954 -94.8915
   -94.8912 -94.7183 -94.7158 -94.7139 -49.6664 -49.6468 -49.6417 -49.6367
   -49.6231 -49.6203 -49.6177 -49.6162 -49.6068 -49.5984 -49.5977 -49.5913
   -49.5773 -49.5657 -49.5496 -49.5485 -49.5233 -49.5208 -49.5046 -49.5020
   -49.4965 -49.4937 -49.4933 -49.4914 -49.4790 -49.4786 -49.4597 -49.4549
   -49.4513 -49.4461 -49.4382 -49.4373 -49.4365 -49.4296 -49.4236 -49.4229
   -49.4166 -49.4153 -49.4140 -49.4108 -49.4039 -49.4032 -49.3959 -49.3950
   -49.3914 -49.3847 -49.3805 -49.3731 -49.3709 -49.3613 -49.3472 -49.3237
   -49.3067 -49.3018 -49.2906 -49.2903 -49.2753 -49.2723 -49.2525 -49.2512
   -49.2474 -49.2467 -49.2433 -49.2430 -49.2036 -49.1846 -49.1765 -49.1762
   -49.1427 -49.1423 -49.1278 -49.1261 -49.1215 -49.1054 -49.0853 -49.0850
   -49.0831 -49.0753 -49.0721 -49.0583 -49.0577 -49.0350 -49.0313 -49.0093
   -48.9893 -48.9568 -48.9442 -48.9279 -48.9176 -48.9009 -48.8740 -48.8646
   -48.8627 -48.8454 -48.8433 -48.8355 -48.8344 -48.8324 -48.8297 -48.8273
   -48.8229 -48.8221 -48.8179 -48.8126 -48.8122 -48.6326 -48.6272 -48.6249
   -15.4801  -5.6177  -4.5573  -4.3233  -3.6988  -3.6980  -3.4063  -3.2939
    -3.2294  -3.1596  -3.0941  -3.0569  -3.0550  -2.8313  -2.7992  -2.7469
    -2.7401  -2.6392  -2.5036  -2.4479  -2.4094  -2.4073  -2.3719  -2.3660
    -2.3461  -2.3372  -2.2940  -2.2635  -2.1827  -2.1595  -2.1439  -2.1298
    -1.9274  -1.9235  -1.8827  -1.8687  -1.8423  -1.8390  -1.6448  -1.6388
    -1.5630  -1.5441  -1.5121  -1.4421  -1.3962  -1.3955  -1.3707  -1.3418
    -1.2067  -1.2019  -1.1449  -1.1191  -1.1028  -1.0982  -1.0822  -1.0140
    -1.0105  -0.9807  -0.9530  -0.8447  -0.7617  -0.7584  -0.7380  -0.6255
    -0.5916  -0.5633  -0.5596  -0.5243  -0.5184  -0.4988  -0.4311  -0.3062
    -0.2913  -0.2768  -0.2677  -0.2363  -0.2126  -0.2037  -0.1684  -0.1360
    -0.1343  -0.0708  -0.0691  -0.0511  -0.0376  -0.0177  -0.0098  -0.0039
     0.0018   0.0451   0.0548   0.0877   0.1167   0.1414   0.1491   0.1795
     0.2915   0.3113   0.3148   0.3361   0.3433   0.3856   0.4493   0.4526
     0.4692   0.4745   0.5062   0.5727   0.6522   0.6588   0.7141   0.7228
     0.7661   0.7814   0.8616   0.8908   0.9695   1.0387   1.0612   1.0629
     1.0866   1.0882   1.1062   1.1153   1.1362   1.1377   1.2184   1.2291
     1.2585   1.2614   1.2957   1.3442   1.4122   1.4452   1.4664   1.4993
     1.6338   1.6461   1.6680   1.6757   1.6884   1.6997   1.8532   1.9223
     1.9306   1.9477   1.9486   1.9829   1.9934   2.0272   2.0652   2.0810
     2.1413   2.1591   2.2029   2.2670   2.2799   2.2836   2.2949   2.3036
     2.3255   2.3473   2.4992   2.5389   2.5588   2.5844   2.6016   2.6021
     2.6298   2.7012   2.7190   2.7651   2.8069   2.8101   2.8204   2.8274
     2.9299   2.9500   2.9567   3.0076   3.0155   3.0441   3.0539   3.0728
     3.0985   3.1368   3.2196   3.2664   3.2856   3.2923   3.3068   3.3087
     3.4784   3.4873   3.5263   3.8888   3.9022   3.9706   3.9748   3.9895
     4.2664   4.2960   4.4489   5.1656   5.2197   5.2995   5.3218   5.3824
     5.9649   5.9682   5.9918   5.9953   6.7125   6.7364   7.1882   7.3456
     7.4474   7.4543   7.9033   7.9283   8.3872   8.4025   8.6969   8.7169
     8.7381   8.9037   9.2583   9.3271   9.3457   9.6194   9.6240   9.7086
     9.7204   9.7301   9.9999  10.0849  10.3141  10.3621  10.4040  10.4399
    10.4588  10.4923  10.5550  10.6766  10.9360  11.2864  11.3415  11.3536

     occupation numbers 
     1.0000   1.0000   1.0000   1.0000   1.0000   1.0000   1.0000   1.0000
     1.0000   1.0000   1.0000   1.0000   1.0000   1.0000   1.0000   1.0000
     1.0000   1.0000   1.0000   1.0000   1.0000   1.0000   1.0000   1.0000
     1.0000   1.0000   1.0000   1.0000   1.0000   1.0000   1.0000   1.0000
     1.0000   1.0000   1.0000   1.0000   1.0000   1.0000   1.0000   1.0000
     1.0000   1.0000   1.0000   1.0000   1.0000   1.0000   1.0000   1.0000
     1.0000   1.0000   1.0000   1.0000   1.0000   1.0000   1.0000   1.0000
     1.0000   1.0000   1.0000   1.0000   1.0000   1.0000   1.0000   1.0000
     1.0000   1.0000   1.0000   1.0000   1.0000   1.0000   1.0000   1.0000
     1.0000   1.0000   1.0000   1.0000   1.0000   1.0000   1.0000   1.0000
     1.0000   1.0000   1.0000   1.0000   1.0000   1.0000   1.0000   1.0000
     1.0000   1.0000   1.0000   1.0000   1.0000   1.0000   1.0000   1.0000
     1.0000   1.0000   1.0000   1.0000   1.0000   1.0000   1.0000   1.0000
     1.0000   1.0000   1.0000   1.0000   1.0000   1.0000   1.0000   1.0000
     1.0000   1.0000   1.0000   1.0000   1.0000   1.0000   1.0000   1.0000
     1.0000   1.0000   1.0000   1.0000   1.0000   1.0000   1.0000   1.0000
     1.0000   1.0000   1.0000   1.0000   1.0000   1.0000   1.0000   1.0000
     1.0000   1.0000   1.0000   1.0000   1.0000   1.0000   1.0000   1.0000
     1.0000   1.0000   1.0000   1.0000   1.0000   1.0000   1.0000   1.0000
     1.0000   1.0000   1.0000   1.0000   1.0000   1.0000   1.0000   1.0000
     1.0000   1.0000   1.0000   1.0000   1.0000   1.0000   1.0000   1.0000
     1.0000   1.0000   1.0000   1.0000   1.0000   1.0000   1.0000   1.0000
     1.0000   1.0000   1.0000   1.0000   1.0000   1.0000   1.0000   1.0000
     1.0000   1.0000   1.0000   1.0000   1.0000   1.0000   1.0000   1.0000
     1.0000   1.0000   1.0000   1.0000   1.0000   1.0000   1.0000   1.0000
     1.0000   1.0000   1.0000   1.0000   1.0000   1.0000   1.0000   1.0000
     1.0000   1.0000   1.0000   1.0000   1.0000   1.0000   1.0000   1.0000
     1.0000   1.0000   1.0000   1.0000   1.0000   1.0000   1.0000   1.0000
     1.0000   1.0000   1.0000   1.0000   1.0000   1.0000   1.0000   1.0000
     1.0000   1.0000   1.0000   1.0000   1.0000   1.0000   1.0000   1.0000
     1.0000   1.0000   1.0000   1.0000   1.0000   1.0000   1.0000   1.0000
     1.0000   1.0000   1.0000   1.0000   1.0000   1.0000   1.0000   1.0000
     1.0000   1.0000   1.0000   1.0000   1.0000   1.0000   1.0000   1.0000
     1.0000   1.0000   1.0000   1.0000   1.0000   1.0000   1.0000   1.0000
     1.0000   1.0000   1.0000   1.0000   1.0000   1.0000   1.0000   1.0000
     1.0000   1.0000   1.0000   1.0000   1.0000   1.0000   1.0000   1.0000
     1.0000   1.0000   1.0000   1.0000   1.0000   1.0000   1.0000   1.0000
     1.0000   1.0000   1.0000   1.0000   1.0000   1.0000   1.0000   1.0000
     1.0000   1.0000   1.0000   1.0000   1.0000   1.0000   1.0000   1.0000
     0.9999   0.9997   0.9995   0.9988   0.9971   0.9970   0.9963   0.9957
     0.9676   0.9523   0.9459   0.8631   0.8435   0.7527   0.7144   0.6313
     0.5060   0.3228   0.0833   0.0345   0.0237   0.0208   0.0156   0.0151
     0.0005   0.0004   0.0002   0.0000   0.0000   0.0000   0.0000   0.0000
     0.0000   0.0000   0.0000   0.0000   0.0000   0.0000   0.0000   0.0000
     0.0000   0.0000   0.0000   0.0000   0.0000   0.0000   0.0000   0.0000
     0.0000   0.0000   0.0000   0.0000   0.0000   0.0000   0.0000   0.0000
     0.0000   0.0000   0.0000   0.0000   0.0000   0.0000   0.0000   0.0000
     0.0000   0.0000   0.0000   0.0000   0.0000   0.0000   0.0000   0.0000
     0.0000   0.0000   0.0000   0.0000   0.0000   0.0000   0.0000   0.0000

          k = 0.3333 0.0000 0.0000 ( 88188 PWs)   bands (ev):

   -95.3639 -95.3577 -95.3528 -95.3520 -95.3519 -95.3473 -95.3460 -95.3448
   -95.3327 -95.3277 -95.3276 -95.3253 -95.3231 -95.3227 -95.3195 -95.3192
   -95.3165 -95.2188 -94.9650 -94.9588 -94.9580 -94.9252 -94.9181 -94.9161
   -94.9132 -94.9070 -94.9047 -94.9013 -94.9003 -94.8993 -94.8955 -94.8915
   -94.8911 -94.7183 -94.7158 -94.7140 -49.6574 -49.6513 -49.6402 -49.6310
   -49.6269 -49.6191 -49.6111 -49.6081 -49.6030 -49.5949 -49.5925 -49.5879
   -49.5843 -49.5757 -49.5655 -49.5369 -49.5306 -49.5252 -49.5115 -49.5076
   -49.5037 -49.4991 -49.4967 -49.4905 -49.4814 -49.4710 -49.4656 -49.4540
   -49.4492 -49.4443 -49.4417 -49.4386 -49.4366 -49.4303 -49.4265 -49.4224
   -49.4180 -49.4149 -49.4108 -49.4076 -49.4036 -49.3994 -49.3980 -49.3922
   -49.3905 -49.3856 -49.3796 -49.3699 -49.3638 -49.3583 -49.3513 -49.3180
   -49.3068 -49.2970 -49.2926 -49.2847 -49.2793 -49.2646 -49.2625 -49.2498
   -49.2463 -49.2425 -49.2341 -49.2173 -49.2165 -49.2140 -49.1890 -49.1548
   -49.1497 -49.1483 -49.1467 -49.1298 -49.1235 -49.1031 -49.0841 -49.0759
   -49.0751 -49.0747 -49.0736 -49.0712 -49.0416 -49.0408 -49.0264 -49.0075
   -48.9922 -48.9574 -48.9455 -48.9271 -48.9116 -48.9010 -48.8742 -48.8645
   -48.8626 -48.8456 -48.8439 -48.8346 -48.8339 -48.8324 -48.8308 -48.8257
   -48.8240 -48.8223 -48.8182 -48.8125 -48.8120 -48.6326 -48.6272 -48.6249
   -15.4801  -5.7173  -4.4234  -4.2034  -4.1589  -3.3309  -3.2782  -3.2544
    -3.2401  -3.2373  -3.2234  -3.1631  -3.0887  -2.9920  -2.9772  -2.7022
    -2.6848  -2.5519  -2.5406  -2.4061  -2.3931  -2.3705  -2.3609  -2.3541
    -2.3307  -2.2773  -2.2617  -2.2294  -2.1812  -2.1703  -2.1360  -2.0776
    -2.0599  -2.0377  -2.0002  -1.9256  -1.8520  -1.7167  -1.6725  -1.6141
    -1.5936  -1.5423  -1.4930  -1.4626  -1.4468  -1.4053  -1.3649  -1.2770
    -1.2434  -1.1527  -1.1380  -1.1278  -1.0823  -1.0612  -1.0509  -1.0161
    -1.0138  -0.9415  -0.8950  -0.7310  -0.6965  -0.6682  -0.6567  -0.6462
    -0.5907  -0.5664  -0.5506  -0.5394  -0.4671  -0.4572  -0.3796  -0.3657
    -0.3549  -0.3387  -0.3318  -0.2146  -0.1915  -0.1621  -0.1487  -0.1277
    -0.0807  -0.0370  -0.0272  -0.0067   0.0031   0.0082   0.0188   0.0517
     0.0566   0.0721   0.1340   0.1378   0.2047   0.2219   0.2526   0.2726
     0.2996   0.3050   0.3472   0.3643   0.3696   0.3826   0.4048   0.4257
     0.4399   0.4504   0.5115   0.5230   0.5372   0.5677   0.6583   0.6869
     0.6995   0.7161   0.7707   0.7787   0.9361   0.9694   1.0196   1.0359
     1.0484   1.0940   1.1172   1.1593   1.1862   1.2013   1.2170   1.2272
     1.2448   1.3421   1.3536   1.4457   1.5187   1.5789   1.5844   1.6220
     1.6452   1.6847   1.7093   1.7262   1.7357   1.8616   1.8996   1.9031
     1.9215   1.9480   1.9580   2.0072   2.0157   2.0449   2.0524   2.0853
     2.1069   2.1484   2.1589   2.1705   2.1894   2.1962   2.2365   2.2820
     2.3065   2.3374   2.5001   2.5458   2.5651   2.6404   2.6654   2.6884
     2.7020   2.7701   2.7889   2.7922   2.8034   2.8218   2.8534   2.8590
     2.8927   2.9055   2.9078   3.0179   3.0288   3.0392   3.0537   3.0789
     3.0845   3.0955   3.1069   3.1549   3.2651   3.2812   3.2871   3.3462
     3.3631   3.3799   3.4111   3.4965   3.5146   3.7424   3.7474   3.8171
     4.1626   4.1726   4.4594   4.4835   5.0935   5.1693   5.1834   5.5167
     5.5224   5.9667   6.6326   6.6525   6.7682   6.9578   7.1291   7.3919
     7.4215   7.8341   7.9294   7.9433   8.0036   8.1452   8.8297   8.9779
     8.9956   9.0891   9.1356   9.3638   9.4136   9.5273   9.6142   9.7761
     9.8006   9.8242   9.9296  10.0291  10.0526  10.4530  10.5801  10.6034
    10.6703  10.6821  10.7286  10.8353  10.9709  11.0206  11.1201  11.1751

     occupation numbers 
     1.0000   1.0000   1.0000   1.0000   1.0000   1.0000   1.0000   1.0000
     1.0000   1.0000   1.0000   1.0000   1.0000   1.0000   1.0000   1.0000
     1.0000   1.0000   1.0000   1.0000   1.0000   1.0000   1.0000   1.0000
     1.0000   1.0000   1.0000   1.0000   1.0000   1.0000   1.0000   1.0000
     1.0000   1.0000   1.0000   1.0000   1.0000   1.0000   1.0000   1.0000
     1.0000   1.0000   1.0000   1.0000   1.0000   1.0000   1.0000   1.0000
     1.0000   1.0000   1.0000   1.0000   1.0000   1.0000   1.0000   1.0000
     1.0000   1.0000   1.0000   1.0000   1.0000   1.0000   1.0000   1.0000
     1.0000   1.0000   1.0000   1.0000   1.0000   1.0000   1.0000   1.0000
     1.0000   1.0000   1.0000   1.0000   1.0000   1.0000   1.0000   1.0000
     1.0000   1.0000   1.0000   1.0000   1.0000   1.0000   1.0000   1.0000
     1.0000   1.0000   1.0000   1.0000   1.0000   1.0000   1.0000   1.0000
     1.0000   1.0000   1.0000   1.0000   1.0000   1.0000   1.0000   1.0000
     1.0000   1.0000   1.0000   1.0000   1.0000   1.0000   1.0000   1.0000
     1.0000   1.0000   1.0000   1.0000   1.0000   1.0000   1.0000   1.0000
     1.0000   1.0000   1.0000   1.0000   1.0000   1.0000   1.0000   1.0000
     1.0000   1.0000   1.0000   1.0000   1.0000   1.0000   1.0000   1.0000
     1.0000   1.0000   1.0000   1.0000   1.0000   1.0000   1.0000   1.0000
     1.0000   1.0000   1.0000   1.0000   1.0000   1.0000   1.0000   1.0000
     1.0000   1.0000   1.0000   1.0000   1.0000   1.0000   1.0000   1.0000
     1.0000   1.0000   1.0000   1.0000   1.0000   1.0000   1.0000   1.0000
     1.0000   1.0000   1.0000   1.0000   1.0000   1.0000   1.0000   1.0000
     1.0000   1.0000   1.0000   1.0000   1.0000   1.0000   1.0000   1.0000
     1.0000   1.0000   1.0000   1.0000   1.0000   1.0000   1.0000   1.0000
     1.0000   1.0000   1.0000   1.0000   1.0000   1.0000   1.0000   1.0000
     1.0000   1.0000   1.0000   1.0000   1.0000   1.0000   1.0000   1.0000
     1.0000   1.0000   1.0000   1.0000   1.0000   1.0000   1.0000   1.0000
     1.0000   1.0000   1.0000   1.0000   1.0000   1.0000   1.0000   1.0000
     1.0000   1.0000   1.0000   1.0000   1.0000   1.0000   1.0000   1.0000
     1.0000   1.0000   1.0000   1.0000   1.0000   1.0000   1.0000   1.0000
     1.0000   1.0000   1.0000   1.0000   1.0000   1.0000   1.0000   1.0000
     1.0000   1.0000   1.0000   1.0000   1.0000   1.0000   1.0000   1.0000
     1.0000   1.0000   1.0000   1.0000   1.0000   1.0000   1.0000   1.0000
     1.0000   1.0000   1.0000   1.0000   1.0000   1.0000   1.0000   1.0000
     1.0000   1.0000   1.0000   1.0000   1.0000   1.0000   1.0000   1.0000
     1.0000   1.0000   1.0000   1.0000   1.0000   1.0000   1.0000   1.0000
     1.0000   1.0000   1.0000   1.0000   1.0000   1.0000   1.0000   1.0000
     1.0000   1.0000   1.0000   1.0000   1.0000   1.0000   1.0000   1.0000
     1.0000   1.0000   1.0000   1.0000   1.0000   0.9999   0.9998   0.9997
     0.9996   0.9986   0.9980   0.9979   0.9973   0.9962   0.9928   0.9920
     0.9843   0.9798   0.9789   0.8371   0.8052   0.7703   0.7149   0.6027
     0.5755   0.5210   0.4643   0.2489   0.0353   0.0258   0.0230   0.0072
     0.0051   0.0037   0.0020   0.0004   0.0002   0.0000   0.0000   0.0000
     0.0000   0.0000   0.0000   0.0000   0.0000   0.0000   0.0000   0.0000
     0.0000   0.0000   0.0000   0.0000   0.0000   0.0000   0.0000   0.0000
     0.0000   0.0000   0.0000   0.0000   0.0000   0.0000   0.0000   0.0000
     0.0000   0.0000   0.0000   0.0000   0.0000   0.0000   0.0000   0.0000
     0.0000   0.0000   0.0000   0.0000   0.0000   0.0000   0.0000   0.0000
     0.0000   0.0000   0.0000   0.0000   0.0000   0.0000   0.0000   0.0000

          k = 0.3333 0.1925 0.0000 ( 88170 PWs)   bands (ev):

   -95.3636 -95.3581 -95.3526 -95.3522 -95.3519 -95.3474 -95.3459 -95.3447
   -95.3327 -95.3278 -95.3276 -95.3253 -95.3232 -95.3228 -95.3195 -95.3188
   -95.3167 -95.2188 -94.9650 -94.9588 -94.9581 -94.9251 -94.9181 -94.9161
   -94.9128 -94.9078 -94.9042 -94.9021 -94.8998 -94.8992 -94.8954 -94.8915
   -94.8912 -94.7183 -94.7158 -94.7139 -49.6664 -49.6468 -49.6417 -49.6368
   -49.6231 -49.6203 -49.6177 -49.6162 -49.6068 -49.5984 -49.5977 -49.5913
   -49.5773 -49.5658 -49.5496 -49.5485 -49.5233 -49.5208 -49.5045 -49.5020
   -49.4965 -49.4937 -49.4933 -49.4914 -49.4790 -49.4786 -49.4596 -49.4549
   -49.4513 -49.4461 -49.4382 -49.4374 -49.4366 -49.4296 -49.4236 -49.4229
   -49.4166 -49.4153 -49.4140 -49.4108 -49.4039 -49.4031 -49.3959 -49.3950
   -49.3915 -49.3847 -49.3805 -49.3731 -49.3709 -49.3613 -49.3473 -49.3237
   -49.3067 -49.3018 -49.2906 -49.2903 -49.2753 -49.2723 -49.2525 -49.2512
   -49.2474 -49.2467 -49.2433 -49.2430 -49.2036 -49.1845 -49.1765 -49.1762
   -49.1427 -49.1423 -49.1278 -49.1262 -49.1215 -49.1054 -49.0853 -49.0850
   -49.0831 -49.0753 -49.0721 -49.0583 -49.0577 -49.0350 -49.0313 -49.0093
   -48.9894 -48.9568 -48.9442 -48.9278 -48.9176 -48.9010 -48.8740 -48.8647
   -48.8626 -48.8454 -48.8433 -48.8355 -48.8344 -48.8324 -48.8297 -48.8273
   -48.8229 -48.8221 -48.8179 -48.8125 -48.8122 -48.6326 -48.6272 -48.6249
   -15.4801  -5.6177  -4.5573  -4.3233  -3.6988  -3.6980  -3.4063  -3.2939
    -3.2294  -3.1597  -3.0941  -3.0569  -3.0550  -2.8313  -2.7992  -2.7469
    -2.7401  -2.6392  -2.5036  -2.4479  -2.4093  -2.4073  -2.3719  -2.3660
    -2.3461  -2.3372  -2.2940  -2.2635  -2.1827  -2.1595  -2.1439  -2.1298
    -1.9274  -1.9235  -1.8827  -1.8686  -1.8423  -1.8390  -1.6448  -1.6388
    -1.5630  -1.5441  -1.5121  -1.4421  -1.3962  -1.3955  -1.3707  -1.3418
    -1.2067  -1.2019  -1.1449  -1.1191  -1.1028  -1.0982  -1.0823  -1.0141
    -1.0104  -0.9807  -0.9530  -0.8447  -0.7617  -0.7584  -0.7379  -0.6255
    -0.5916  -0.5634  -0.5596  -0.5243  -0.5184  -0.4988  -0.4310  -0.3063
    -0.2914  -0.2768  -0.2677  -0.2363  -0.2127  -0.2037  -0.1684  -0.1359
    -0.1343  -0.0708  -0.0691  -0.0510  -0.0377  -0.0177  -0.0099  -0.0039
     0.0018   0.0450   0.0548   0.0877   0.1167   0.1414   0.1491   0.1795
     0.2915   0.3113   0.3148   0.3361   0.3433   0.3856   0.4493   0.4526
     0.4692   0.4745   0.5062   0.5727   0.6522   0.6588   0.7141   0.7228
     0.7662   0.7814   0.8616   0.8908   0.9695   1.0387   1.0612   1.0630
     1.0866   1.0882   1.1062   1.1153   1.1362   1.1377   1.2184   1.2290
     1.2584   1.2614   1.2956   1.3442   1.4122   1.4451   1.4663   1.4992
     1.6338   1.6461   1.6680   1.6757   1.6884   1.6997   1.8532   1.9223
     1.9307   1.9477   1.9487   1.9828   1.9934   2.0272   2.0652   2.0810
     2.1413   2.1591   2.2029   2.2670   2.2799   2.2836   2.2949   2.3036
     2.3255   2.3474   2.4992   2.5389   2.5588   2.5844   2.6016   2.6021
     2.6298   2.7012   2.7190   2.7651   2.8069   2.8101   2.8204   2.8273
     2.9299   2.9499   2.9566   3.0076   3.0155   3.0441   3.0539   3.0729
     3.0986   3.1368   3.2196   3.2664   3.2857   3.2923   3.3069   3.3087
     3.4784   3.4873   3.5263   3.8888   3.9024   3.9705   3.9748   3.9895
     4.2664   4.2961   4.4490   5.1656   5.2198   5.2995   5.3218   5.3824
     5.9649   5.9682   5.9918   5.9954   6.7125   6.7364   7.1882   7.3456
     7.4474   7.4543   7.9032   7.9282   8.3872   8.4026   8.6970   8.7170
     8.7381   8.9036   9.2583   9.3271   9.3457   9.6194   9.6240   9.7082
     9.7203   9.7302   9.9999  10.0848  10.3140  10.3622  10.4044  10.4400
    10.4595  10.4920  10.5546  10.6765  10.9359  11.2862  11.3426  11.3541

     occupation numbers 
     1.0000   1.0000   1.0000   1.0000   1.0000   1.0000   1.0000   1.0000
     1.0000   1.0000   1.0000   1.0000   1.0000   1.0000   1.0000   1.0000
     1.0000   1.0000   1.0000   1.0000   1.0000   1.0000   1.0000   1.0000
     1.0000   1.0000   1.0000   1.0000   1.0000   1.0000   1.0000   1.0000
     1.0000   1.0000   1.0000   1.0000   1.0000   1.0000   1.0000   1.0000
     1.0000   1.0000   1.0000   1.0000   1.0000   1.0000   1.0000   1.0000
     1.0000   1.0000   1.0000   1.0000   1.0000   1.0000   1.0000   1.0000
     1.0000   1.0000   1.0000   1.0000   1.0000   1.0000   1.0000   1.0000
     1.0000   1.0000   1.0000   1.0000   1.0000   1.0000   1.0000   1.0000
     1.0000   1.0000   1.0000   1.0000   1.0000   1.0000   1.0000   1.0000
     1.0000   1.0000   1.0000   1.0000   1.0000   1.0000   1.0000   1.0000
     1.0000   1.0000   1.0000   1.0000   1.0000   1.0000   1.0000   1.0000
     1.0000   1.0000   1.0000   1.0000   1.0000   1.0000   1.0000   1.0000
     1.0000   1.0000   1.0000   1.0000   1.0000   1.0000   1.0000   1.0000
     1.0000   1.0000   1.0000   1.0000   1.0000   1.0000   1.0000   1.0000
     1.0000   1.0000   1.0000   1.0000   1.0000   1.0000   1.0000   1.0000
     1.0000   1.0000   1.0000   1.0000   1.0000   1.0000   1.0000   1.0000
     1.0000   1.0000   1.0000   1.0000   1.0000   1.0000   1.0000   1.0000
     1.0000   1.0000   1.0000   1.0000   1.0000   1.0000   1.0000   1.0000
     1.0000   1.0000   1.0000   1.0000   1.0000   1.0000   1.0000   1.0000
     1.0000   1.0000   1.0000   1.0000   1.0000   1.0000   1.0000   1.0000
     1.0000   1.0000   1.0000   1.0000   1.0000   1.0000   1.0000   1.0000
     1.0000   1.0000   1.0000   1.0000   1.0000   1.0000   1.0000   1.0000
     1.0000   1.0000   1.0000   1.0000   1.0000   1.0000   1.0000   1.0000
     1.0000   1.0000   1.0000   1.0000   1.0000   1.0000   1.0000   1.0000
     1.0000   1.0000   1.0000   1.0000   1.0000   1.0000   1.0000   1.0000
     1.0000   1.0000   1.0000   1.0000   1.0000   1.0000   1.0000   1.0000
     1.0000   1.0000   1.0000   1.0000   1.0000   1.0000   1.0000   1.0000
     1.0000   1.0000   1.0000   1.0000   1.0000   1.0000   1.0000   1.0000
     1.0000   1.0000   1.0000   1.0000   1.0000   1.0000   1.0000   1.0000
     1.0000   1.0000   1.0000   1.0000   1.0000   1.0000   1.0000   1.0000
     1.0000   1.0000   1.0000   1.0000   1.0000   1.0000   1.0000   1.0000
     1.0000   1.0000   1.0000   1.0000   1.0000   1.0000   1.0000   1.0000
     1.0000   1.0000   1.0000   1.0000   1.0000   1.0000   1.0000   1.0000
     1.0000   1.0000   1.0000   1.0000   1.0000   1.0000   1.0000   1.0000
     1.0000   1.0000   1.0000   1.0000   1.0000   1.0000   1.0000   1.0000
     1.0000   1.0000   1.0000   1.0000   1.0000   1.0000   1.0000   1.0000
     1.0000   1.0000   1.0000   1.0000   1.0000   1.0000   1.0000   1.0000
     1.0000   1.0000   1.0000   1.0000   1.0000   1.0000   1.0000   1.0000
     0.9999   0.9997   0.9995   0.9988   0.9971   0.9970   0.9963   0.9957
     0.9676   0.9524   0.9459   0.8632   0.8436   0.7527   0.7144   0.6312
     0.5058   0.3226   0.0833   0.0345   0.0237   0.0208   0.0156   0.0151
     0.0005   0.0004   0.0002   0.0000   0.0000   0.0000   0.0000   0.0000
     0.0000   0.0000   0.0000   0.0000   0.0000   0.0000   0.0000   0.0000
     0.0000   0.0000   0.0000   0.0000   0.0000   0.0000   0.0000   0.0000
     0.0000   0.0000   0.0000   0.0000   0.0000   0.0000   0.0000   0.0000
     0.0000   0.0000   0.0000   0.0000   0.0000   0.0000   0.0000   0.0000
     0.0000   0.0000   0.0000   0.0000   0.0000   0.0000   0.0000   0.0000
     0.0000   0.0000   0.0000   0.0000   0.0000   0.0000   0.0000   0.0000

          k = 0.3333-0.7698 0.0000 ( 88140 PWs)   bands (ev):

   -95.3629 -95.3588 -95.3532 -95.3520 -95.3517 -95.3475 -95.3457 -95.3446
   -95.3327 -95.3278 -95.3277 -95.3252 -95.3235 -95.3228 -95.3190 -95.3184
   -95.3172 -95.2188 -94.9649 -94.9589 -94.9581 -94.9251 -94.9181 -94.9161
   -94.9116 -94.9089 -94.9054 -94.9011 -94.8996 -94.8991 -94.8952 -94.8917
   -94.8910 -94.7183 -94.7158 -94.7139 -49.6704 -49.6586 -49.6514 -49.6416
   -49.6316 -49.6252 -49.6183 -49.6101 -49.6036 -49.5979 -49.5958 -49.5918
   -49.5820 -49.5694 -49.5659 -49.5172 -49.5108 -49.5077 -49.5042 -49.4977
   -49.4948 -49.4886 -49.4831 -49.4757 -49.4701 -49.4668 -49.4609 -49.4558
   -49.4507 -49.4463 -49.4423 -49.4374 -49.4335 -49.4317 -49.4293 -49.4262
   -49.4224 -49.4162 -49.4124 -49.4109 -49.4062 -49.4020 -49.3971 -49.3947
   -49.3921 -49.3913 -49.3885 -49.3831 -49.3708 -49.3644 -49.3510 -49.3266
   -49.3110 -49.3050 -49.2965 -49.2888 -49.2826 -49.2781 -49.2668 -49.2604
   -49.2533 -49.2395 -49.2360 -49.2295 -49.2069 -49.2015 -49.1626 -49.1349
   -49.1340 -49.1265 -49.1216 -49.1189 -49.1066 -49.1009 -49.0982 -49.0929
   -49.0877 -49.0801 -49.0792 -49.0733 -49.0585 -49.0421 -49.0280 -49.0159
   -48.9812 -48.9577 -48.9425 -48.9323 -48.9218 -48.9051 -48.8735 -48.8650
   -48.8628 -48.8450 -48.8415 -48.8373 -48.8344 -48.8326 -48.8321 -48.8254
   -48.8227 -48.8219 -48.8176 -48.8130 -48.8121 -48.6327 -48.6272 -48.6249
   -15.4801  -5.3263  -4.7873  -4.2901  -4.0467  -3.5712  -3.2196  -3.1684
    -3.1574  -3.0516  -3.0126  -2.9540  -2.9014  -2.8389  -2.8263  -2.7099
    -2.6358  -2.6292  -2.5627  -2.5240  -2.4898  -2.4777  -2.4560  -2.4218
    -2.3662  -2.3298  -2.2687  -2.2541  -2.1936  -2.1518  -2.1002  -2.0367
    -2.0168  -1.9959  -1.9462  -1.9291  -1.8287  -1.7873  -1.7088  -1.6621
    -1.5269  -1.4698  -1.4515  -1.3845  -1.3663  -1.3566  -1.3409  -1.2618
    -1.2460  -1.2046  -1.1666  -1.1108  -1.0823  -1.0495  -1.0179  -1.0139
    -0.9973  -0.9647  -0.9454  -0.9176  -0.8693  -0.8425  -0.8015  -0.7561
    -0.6976  -0.6738  -0.6690  -0.6187  -0.5904  -0.4882  -0.4519  -0.4307
    -0.3773  -0.3618  -0.3548  -0.3272  -0.2944  -0.2789  -0.2435  -0.2165
    -0.1830  -0.1676  -0.0973  -0.0751  -0.0579  -0.0340  -0.0288   0.0076
     0.0853   0.1094   0.1303   0.1412   0.1600   0.2169   0.2260   0.2497
     0.2714   0.2807   0.2956   0.3102   0.3320   0.3680   0.3781   0.3949
     0.4143   0.4432   0.4815   0.5092   0.5330   0.5703   0.6261   0.6564
     0.6810   0.7689   0.7867   0.8215   0.9191   0.9666   0.9931   1.0214
     1.0522   1.0769   1.0978   1.1347   1.1574   1.1640   1.2249   1.2520
     1.2654   1.2860   1.3113   1.3496   1.3864   1.3952   1.4552   1.4975
     1.5354   1.6546   1.6785   1.6932   1.7225   1.7729   1.8093   1.8187
     1.8330   1.8588   1.8866   1.8992   1.9365   2.0042   2.0346   2.0642
     2.0771   2.0878   2.1085   2.1315   2.1458   2.2628   2.2932   2.3542
     2.4187   2.4380   2.5211   2.5520   2.5698   2.6284   2.6365   2.6640
     2.7523   2.7941   2.8263   2.8644   2.8795   2.8908   2.8938   2.9046
     2.9798   3.0059   3.0085   3.0479   3.0556   3.0800   3.1294   3.1410
     3.2066   3.2138   3.2960   3.3066   3.3409   3.3644   3.3846   3.3943
     3.4450   3.4697   3.5177   4.1182   4.3752   4.3989   4.4547   4.5211
     4.8102   4.9567   5.0317   5.3296   5.3803   5.4071   5.4507   5.5484
     5.8072   5.9370   6.0053   6.2513   6.5463   6.6169   6.6718   6.8129
     6.9707   7.2874   7.4619   7.7137   7.7649   7.7802   8.5246   8.7799
     8.7998   8.8615   9.0402   9.1080   9.2860   9.3740   9.5172   9.5906
     9.6547   9.9013   9.9108  10.0154  10.1576  10.2377  10.2640  10.5003
    10.6155  10.7474  10.8675  10.9881  11.0411  11.1173  11.1568  11.2023

     occupation numbers 
     1.0000   1.0000   1.0000   1.0000   1.0000   1.0000   1.0000   1.0000
     1.0000   1.0000   1.0000   1.0000   1.0000   1.0000   1.0000   1.0000
     1.0000   1.0000   1.0000   1.0000   1.0000   1.0000   1.0000   1.0000
     1.0000   1.0000   1.0000   1.0000   1.0000   1.0000   1.0000   1.0000
     1.0000   1.0000   1.0000   1.0000   1.0000   1.0000   1.0000   1.0000
     1.0000   1.0000   1.0000   1.0000   1.0000   1.0000   1.0000   1.0000
     1.0000   1.0000   1.0000   1.0000   1.0000   1.0000   1.0000   1.0000
     1.0000   1.0000   1.0000   1.0000   1.0000   1.0000   1.0000   1.0000
     1.0000   1.0000   1.0000   1.0000   1.0000   1.0000   1.0000   1.0000
     1.0000   1.0000   1.0000   1.0000   1.0000   1.0000   1.0000   1.0000
     1.0000   1.0000   1.0000   1.0000   1.0000   1.0000   1.0000   1.0000
     1.0000   1.0000   1.0000   1.0000   1.0000   1.0000   1.0000   1.0000
     1.0000   1.0000   1.0000   1.0000   1.0000   1.0000   1.0000   1.0000
     1.0000   1.0000   1.0000   1.0000   1.0000   1.0000   1.0000   1.0000
     1.0000   1.0000   1.0000   1.0000   1.0000   1.0000   1.0000   1.0000
     1.0000   1.0000   1.0000   1.0000   1.0000   1.0000   1.0000   1.0000
     1.0000   1.0000   1.0000   1.0000   1.0000   1.0000   1.0000   1.0000
     1.0000   1.0000   1.0000   1.0000   1.0000   1.0000   1.0000   1.0000
     1.0000   1.0000   1.0000   1.0000   1.0000   1.0000   1.0000   1.0000
     1.0000   1.0000   1.0000   1.0000   1.0000   1.0000   1.0000   1.0000
     1.0000   1.0000   1.0000   1.0000   1.0000   1.0000   1.0000   1.0000
     1.0000   1.0000   1.0000   1.0000   1.0000   1.0000   1.0000   1.0000
     1.0000   1.0000   1.0000   1.0000   1.0000   1.0000   1.0000   1.0000
     1.0000   1.0000   1.0000   1.0000   1.0000   1.0000   1.0000   1.0000
     1.0000   1.0000   1.0000   1.0000   1.0000   1.0000   1.0000   1.0000
     1.0000   1.0000   1.0000   1.0000   1.0000   1.0000   1.0000   1.0000
     1.0000   1.0000   1.0000   1.0000   1.0000   1.0000   1.0000   1.0000
     1.0000   1.0000   1.0000   1.0000   1.0000   1.0000   1.0000   1.0000
     1.0000   1.0000   1.0000   1.0000   1.0000   1.0000   1.0000   1.0000
     1.0000   1.0000   1.0000   1.0000   1.0000   1.0000   1.0000   1.0000
     1.0000   1.0000   1.0000   1.0000   1.0000   1.0000   1.0000   1.0000
     1.0000   1.0000   1.0000   1.0000   1.0000   1.0000   1.0000   1.0000
     1.0000   1.0000   1.0000   1.0000   1.0000   1.0000   1.0000   1.0000
     1.0000   1.0000   1.0000   1.0000   1.0000   1.0000   1.0000   1.0000
     1.0000   1.0000   1.0000   1.0000   1.0000   1.0000   1.0000   1.0000
     1.0000   1.0000   1.0000   1.0000   1.0000   1.0000   1.0000   1.0000
     1.0000   1.0000   1.0000   1.0000   1.0000   1.0000   1.0000   1.0000
     1.0000   1.0000   1.0000   1.0000   1.0000   1.0000   1.0000   1.0000
     1.0000   1.0000   1.0000   1.0000   1.0000   0.9999   0.9999   0.9998
     0.9990   0.9978   0.9958   0.9910   0.9879   0.9849   0.9840   0.9802
     0.9167   0.8671   0.8612   0.7383   0.7074   0.5971   0.3557   0.3045
     0.1056   0.0927   0.0194   0.0157   0.0080   0.0050   0.0033   0.0028
     0.0010   0.0006   0.0002   0.0000   0.0000   0.0000   0.0000   0.0000
     0.0000   0.0000   0.0000   0.0000   0.0000   0.0000   0.0000   0.0000
     0.0000   0.0000   0.0000   0.0000   0.0000   0.0000   0.0000   0.0000
     0.0000   0.0000   0.0000   0.0000   0.0000   0.0000   0.0000   0.0000
     0.0000   0.0000   0.0000   0.0000   0.0000   0.0000   0.0000   0.0000
     0.0000   0.0000   0.0000   0.0000   0.0000   0.0000   0.0000   0.0000
     0.0000   0.0000   0.0000   0.0000   0.0000   0.0000   0.0000   0.0000

          k = 0.3333-0.5774 0.0000 ( 88062 PWs)   bands (ev):

   -95.3625 -95.3592 -95.3536 -95.3519 -95.3514 -95.3475 -95.3456 -95.3446
   -95.3327 -95.3278 -95.3277 -95.3252 -95.3237 -95.3228 -95.3185 -95.3182
   -95.3177 -95.2188 -94.9648 -94.9589 -94.9582 -94.9251 -94.9181 -94.9161
   -94.9104 -94.9099 -94.9062 -94.8999 -94.8998 -94.8996 -94.8952 -94.8918
   -94.8909 -94.7183 -94.7158 -94.7139 -49.6693 -49.6629 -49.6611 -49.6394
   -49.6387 -49.6326 -49.6137 -49.6058 -49.5977 -49.5967 -49.5945 -49.5928
   -49.5826 -49.5770 -49.5709 -49.5128 -49.5113 -49.5103 -49.4943 -49.4889
   -49.4851 -49.4772 -49.4744 -49.4728 -49.4690 -49.4655 -49.4587 -49.4532
   -49.4526 -49.4469 -49.4417 -49.4409 -49.4387 -49.4323 -49.4261 -49.4258
   -49.4239 -49.4180 -49.4166 -49.4098 -49.4092 -49.4073 -49.3993 -49.3985
   -49.3968 -49.3905 -49.3856 -49.3834 -49.3703 -49.3682 -49.3560 -49.3210
   -49.3181 -49.3030 -49.3020 -49.2884 -49.2873 -49.2748 -49.2733 -49.2720
   -49.2543 -49.2237 -49.2217 -49.2211 -49.2209 -49.2195 -49.1490 -49.1419
   -49.1167 -49.1063 -49.1059 -49.1046 -49.1044 -49.0971 -49.0953 -49.0950
   -49.0941 -49.0934 -49.0915 -49.0912 -49.0721 -49.0290 -49.0270 -49.0268
   -48.9741 -48.9549 -48.9535 -48.9305 -48.9189 -48.9106 -48.8732 -48.8651
   -48.8630 -48.8448 -48.8393 -48.8389 -48.8344 -48.8339 -48.8325 -48.8233
   -48.8231 -48.8224 -48.8174 -48.8133 -48.8120 -48.6327 -48.6272 -48.6248
   -15.4801  -4.8953  -4.8819  -4.8187  -3.6697  -3.6552  -3.5553  -3.0279
    -3.0085  -3.0049  -2.8847  -2.8826  -2.8561  -2.7336  -2.7030  -2.6612
    -2.5847  -2.5631  -2.5538  -2.5443  -2.5434  -2.5249  -2.5140  -2.4963
    -2.4146  -2.3861  -2.3654  -2.3239  -2.1566  -2.1492  -2.1306  -2.0734
    -2.0665  -2.0445  -2.0150  -1.9747  -1.9693  -1.6008  -1.5951  -1.5603
    -1.5455  -1.4924  -1.4831  -1.4800  -1.4542  -1.4482  -1.1237  -1.1203
    -1.1087  -1.1064  -1.0918  -1.0823  -1.0762  -1.0285  -1.0200  -1.0137
    -1.0108  -0.9821  -0.9424  -0.9160  -0.8869  -0.8851  -0.8508  -0.8300
    -0.8095  -0.8078  -0.6351  -0.5966  -0.5725  -0.5487  -0.5321  -0.4999
    -0.4034  -0.3951  -0.3928  -0.3833  -0.3708  -0.2809  -0.1889  -0.1790
    -0.1562  -0.1340  -0.1210  -0.0661  -0.0634  -0.0561  -0.0341  -0.0308
    -0.0208  -0.0111   0.0098   0.0934   0.1060   0.1553   0.1680   0.1717
     0.3104   0.3366   0.3530   0.3568   0.3605   0.3763   0.3885   0.3925
     0.3940   0.4275   0.4373   0.4619   0.5340   0.5469   0.5770   0.5782
     0.5926   0.6043   0.9466   0.9644   0.9720   0.9889   1.0024   1.0203
     1.0221   1.0318   1.0456   1.0811   1.0989   1.1038   1.1075   1.2547
     1.2674   1.2798   1.3088   1.3375   1.3395   1.3718   1.4634   1.4676
     1.5802   1.5901   1.5988   1.7703   1.7797   1.7842   1.8327   1.8491
     1.8708   1.8791   1.9035   1.9065   1.9303   1.9374   1.9387   2.0204
     2.0510   2.0766   2.1844   2.2050   2.2463   2.2727   2.2757   2.2861
     2.2961   2.3123   2.3217   2.6949   2.7080   2.7129   2.7221   2.7365
     2.7489   2.8331   2.8430   2.8452   2.9086   2.9371   2.9396   3.0113
     3.0147   3.0155   3.0917   3.0944   3.1073   3.1103   3.1256   3.1300
     3.2127   3.2197   3.2278   3.2912   3.2935   3.3060   3.3334   3.3444
     3.3654   4.1572   4.1588   4.1708   4.4243   4.4363   4.4483   4.8677
     4.8740   4.9160   5.4349   5.4423   5.4527   5.4666   5.4826   5.5029
     6.2381   6.2443   6.2487   6.6332   6.6511   6.6600   6.7346   6.7544
     6.7857   6.8310   6.8494   6.8639   7.4482   7.4782   7.4802   8.8045
     8.8073   8.8362   8.9799   9.0325   9.0551   9.3760   9.4876   9.4894
     9.7361   9.7641   9.7938  10.3443  10.4150  10.4868  10.5003  10.5213
    10.5442  10.9807  11.0119  11.0355  11.1142  11.1301  11.1304  11.2647

     occupation numbers 
     1.0000   1.0000   1.0000   1.0000   1.0000   1.0000   1.0000   1.0000
     1.0000   1.0000   1.0000   1.0000   1.0000   1.0000   1.0000   1.0000
     1.0000   1.0000   1.0000   1.0000   1.0000   1.0000   1.0000   1.0000
     1.0000   1.0000   1.0000   1.0000   1.0000   1.0000   1.0000   1.0000
     1.0000   1.0000   1.0000   1.0000   1.0000   1.0000   1.0000   1.0000
     1.0000   1.0000   1.0000   1.0000   1.0000   1.0000   1.0000   1.0000
     1.0000   1.0000   1.0000   1.0000   1.0000   1.0000   1.0000   1.0000
     1.0000   1.0000   1.0000   1.0000   1.0000   1.0000   1.0000   1.0000
     1.0000   1.0000   1.0000   1.0000   1.0000   1.0000   1.0000   1.0000
     1.0000   1.0000   1.0000   1.0000   1.0000   1.0000   1.0000   1.0000
     1.0000   1.0000   1.0000   1.0000   1.0000   1.0000   1.0000   1.0000
     1.0000   1.0000   1.0000   1.0000   1.0000   1.0000   1.0000   1.0000
     1.0000   1.0000   1.0000   1.0000   1.0000   1.0000   1.0000   1.0000
     1.0000   1.0000   1.0000   1.0000   1.0000   1.0000   1.0000   1.0000
     1.0000   1.0000   1.0000   1.0000   1.0000   1.0000   1.0000   1.0000
     1.0000   1.0000   1.0000   1.0000   1.0000   1.0000   1.0000   1.0000
     1.0000   1.0000   1.0000   1.0000   1.0000   1.0000   1.0000   1.0000
     1.0000   1.0000   1.0000   1.0000   1.0000   1.0000   1.0000   1.0000
     1.0000   1.0000   1.0000   1.0000   1.0000   1.0000   1.0000   1.0000
     1.0000   1.0000   1.0000   1.0000   1.0000   1.0000   1.0000   1.0000
     1.0000   1.0000   1.0000   1.0000   1.0000   1.0000   1.0000   1.0000
     1.0000   1.0000   1.0000   1.0000   1.0000   1.0000   1.0000   1.0000
     1.0000   1.0000   1.0000   1.0000   1.0000   1.0000   1.0000   1.0000
     1.0000   1.0000   1.0000   1.0000   1.0000   1.0000   1.0000   1.0000
     1.0000   1.0000   1.0000   1.0000   1.0000   1.0000   1.0000   1.0000
     1.0000   1.0000   1.0000   1.0000   1.0000   1.0000   1.0000   1.0000
     1.0000   1.0000   1.0000   1.0000   1.0000   1.0000   1.0000   1.0000
     1.0000   1.0000   1.0000   1.0000   1.0000   1.0000   1.0000   1.0000
     1.0000   1.0000   1.0000   1.0000   1.0000   1.0000   1.0000   1.0000
     1.0000   1.0000   1.0000   1.0000   1.0000   1.0000   1.0000   1.0000
     1.0000   1.0000   1.0000   1.0000   1.0000   1.0000   1.0000   1.0000
     1.0000   1.0000   1.0000   1.0000   1.0000   1.0000   1.0000   1.0000
     1.0000   1.0000   1.0000   1.0000   1.0000   1.0000   1.0000   1.0000
     1.0000   1.0000   1.0000   1.0000   1.0000   1.0000   1.0000   1.0000
     1.0000   1.0000   1.0000   1.0000   1.0000   1.0000   1.0000   1.0000
     1.0000   1.0000   1.0000   1.0000   1.0000   1.0000   1.0000   1.0000
     1.0000   1.0000   1.0000   1.0000   1.0000   1.0000   1.0000   1.0000
     1.0000   1.0000   1.0000   1.0000   1.0000   1.0000   1.0000   1.0000
     1.0000   1.0000   1.0000   0.9997   0.9996   0.9996   0.9995   0.9993
     0.9991   0.9952   0.9941   0.9939   0.9786   0.9628   0.9609   0.8542
     0.8456   0.8436   0.5398   0.5266   0.4623   0.4471   0.3733   0.3531
     0.0946   0.0832   0.0716   0.0213   0.0203   0.0159   0.0092   0.0074
     0.0049   0.0000   0.0000   0.0000   0.0000   0.0000   0.0000   0.0000
     0.0000   0.0000   0.0000   0.0000   0.0000   0.0000   0.0000   0.0000
     0.0000   0.0000   0.0000   0.0000   0.0000   0.0000   0.0000   0.0000
     0.0000   0.0000   0.0000   0.0000   0.0000   0.0000   0.0000   0.0000
     0.0000   0.0000   0.0000   0.0000   0.0000   0.0000   0.0000   0.0000
     0.0000   0.0000   0.0000   0.0000   0.0000   0.0000   0.0000   0.0000
     0.0000   0.0000   0.0000   0.0000   0.0000   0.0000   0.0000   0.0000

          k = 0.3333-0.3849 0.0000 ( 88140 PWs)   bands (ev):

   -95.3629 -95.3589 -95.3532 -95.3520 -95.3516 -95.3475 -95.3457 -95.3447
   -95.3327 -95.3278 -95.3277 -95.3252 -95.3235 -95.3228 -95.3190 -95.3184
   -95.3173 -95.2188 -94.9649 -94.9589 -94.9581 -94.9251 -94.9181 -94.9161
   -94.9116 -94.9089 -94.9054 -94.9012 -94.8996 -94.8991 -94.8952 -94.8917
   -94.8910 -94.7183 -94.7158 -94.7139 -49.6705 -49.6586 -49.6514 -49.6416
   -49.6316 -49.6252 -49.6183 -49.6101 -49.6036 -49.5979 -49.5958 -49.5919
   -49.5820 -49.5693 -49.5659 -49.5172 -49.5108 -49.5077 -49.5042 -49.4977
   -49.4948 -49.4886 -49.4831 -49.4757 -49.4701 -49.4668 -49.4609 -49.4558
   -49.4507 -49.4463 -49.4424 -49.4374 -49.4334 -49.4317 -49.4293 -49.4262
   -49.4224 -49.4162 -49.4124 -49.4109 -49.4063 -49.4020 -49.3971 -49.3947
   -49.3921 -49.3913 -49.3884 -49.3831 -49.3708 -49.3644 -49.3510 -49.3266
   -49.3109 -49.3050 -49.2965 -49.2888 -49.2826 -49.2781 -49.2668 -49.2604
   -49.2533 -49.2395 -49.2360 -49.2295 -49.2069 -49.2015 -49.1626 -49.1349
   -49.1340 -49.1265 -49.1216 -49.1189 -49.1066 -49.1009 -49.0982 -49.0929
   -49.0877 -49.0802 -49.0792 -49.0733 -49.0585 -49.0421 -49.0280 -49.0159
   -48.9811 -48.9576 -48.9425 -48.9324 -48.9219 -48.9050 -48.8735 -48.8649
   -48.8629 -48.8450 -48.8415 -48.8373 -48.8344 -48.8326 -48.8321 -48.8254
   -48.8227 -48.8219 -48.8176 -48.8130 -48.8121 -48.6327 -48.6272 -48.6249
   -15.4801  -5.3263  -4.7873  -4.2901  -4.0467  -3.5712  -3.2196  -3.1684
    -3.1574  -3.0516  -3.0126  -2.9540  -2.9014  -2.8389  -2.8264  -2.7099
    -2.6358  -2.6292  -2.5627  -2.5239  -2.4898  -2.4777  -2.4560  -2.4218
    -2.3662  -2.3298  -2.2687  -2.2541  -2.1936  -2.1517  -2.1002  -2.0367
    -2.0168  -1.9959  -1.9462  -1.9291  -1.8287  -1.7873  -1.7088  -1.6621
    -1.5269  -1.4698  -1.4515  -1.3845  -1.3663  -1.3566  -1.3408  -1.2618
    -1.2461  -1.2046  -1.1666  -1.1108  -1.0823  -1.0495  -1.0179  -1.0139
    -0.9974  -0.9647  -0.9454  -0.9177  -0.8693  -0.8426  -0.8016  -0.7561
    -0.6976  -0.6739  -0.6690  -0.6186  -0.5904  -0.4882  -0.4520  -0.4307
    -0.3772  -0.3617  -0.3548  -0.3272  -0.2944  -0.2789  -0.2435  -0.2165
    -0.1830  -0.1676  -0.0973  -0.0751  -0.0579  -0.0340  -0.0289   0.0075
     0.0854   0.1094   0.1303   0.1412   0.1600   0.2169   0.2260   0.2497
     0.2714   0.2807   0.2957   0.3102   0.3320   0.3681   0.3781   0.3949
     0.4142   0.4432   0.4815   0.5092   0.5330   0.5703   0.6261   0.6563
     0.6810   0.7689   0.7867   0.8215   0.9191   0.9666   0.9931   1.0214
     1.0521   1.0769   1.0979   1.1347   1.1574   1.1640   1.2249   1.2519
     1.2654   1.2860   1.3113   1.3496   1.3864   1.3952   1.4552   1.4975
     1.5354   1.6546   1.6785   1.6932   1.7226   1.7729   1.8093   1.8187
     1.8330   1.8588   1.8866   1.8992   1.9365   2.0042   2.0345   2.0642
     2.0771   2.0878   2.1085   2.1315   2.1458   2.2628   2.2932   2.3541
     2.4187   2.4380   2.5211   2.5520   2.5698   2.6284   2.6364   2.6640
     2.7523   2.7941   2.8263   2.8644   2.8796   2.8908   2.8938   2.9046
     2.9798   3.0059   3.0085   3.0479   3.0556   3.0800   3.1294   3.1410
     3.2066   3.2137   3.2960   3.3066   3.3409   3.3644   3.3845   3.3943
     3.4450   3.4697   3.5176   4.1182   4.3752   4.3989   4.4548   4.5211
     4.8102   4.9567   5.0317   5.3296   5.3803   5.4072   5.4506   5.5483
     5.8071   5.9369   6.0054   6.2513   6.5463   6.6168   6.6718   6.8128
     6.9708   7.2874   7.4619   7.7138   7.7649   7.7802   8.5246   8.7799
     8.7999   8.8615   9.0403   9.1080   9.2860   9.3741   9.5175   9.5905
     9.6549   9.9011   9.9107  10.0152  10.1575  10.2377  10.2640  10.5005
    10.6155  10.7474  10.8670  10.9878  11.0413  11.1174  11.1569  11.2025

     occupation numbers 
     1.0000   1.0000   1.0000   1.0000   1.0000   1.0000   1.0000   1.0000
     1.0000   1.0000   1.0000   1.0000   1.0000   1.0000   1.0000   1.0000
     1.0000   1.0000   1.0000   1.0000   1.0000   1.0000   1.0000   1.0000
     1.0000   1.0000   1.0000   1.0000   1.0000   1.0000   1.0000   1.0000
     1.0000   1.0000   1.0000   1.0000   1.0000   1.0000   1.0000   1.0000
     1.0000   1.0000   1.0000   1.0000   1.0000   1.0000   1.0000   1.0000
     1.0000   1.0000   1.0000   1.0000   1.0000   1.0000   1.0000   1.0000
     1.0000   1.0000   1.0000   1.0000   1.0000   1.0000   1.0000   1.0000
     1.0000   1.0000   1.0000   1.0000   1.0000   1.0000   1.0000   1.0000
     1.0000   1.0000   1.0000   1.0000   1.0000   1.0000   1.0000   1.0000
     1.0000   1.0000   1.0000   1.0000   1.0000   1.0000   1.0000   1.0000
     1.0000   1.0000   1.0000   1.0000   1.0000   1.0000   1.0000   1.0000
     1.0000   1.0000   1.0000   1.0000   1.0000   1.0000   1.0000   1.0000
     1.0000   1.0000   1.0000   1.0000   1.0000   1.0000   1.0000   1.0000
     1.0000   1.0000   1.0000   1.0000   1.0000   1.0000   1.0000   1.0000
     1.0000   1.0000   1.0000   1.0000   1.0000   1.0000   1.0000   1.0000
     1.0000   1.0000   1.0000   1.0000   1.0000   1.0000   1.0000   1.0000
     1.0000   1.0000   1.0000   1.0000   1.0000   1.0000   1.0000   1.0000
     1.0000   1.0000   1.0000   1.0000   1.0000   1.0000   1.0000   1.0000
     1.0000   1.0000   1.0000   1.0000   1.0000   1.0000   1.0000   1.0000
     1.0000   1.0000   1.0000   1.0000   1.0000   1.0000   1.0000   1.0000
     1.0000   1.0000   1.0000   1.0000   1.0000   1.0000   1.0000   1.0000
     1.0000   1.0000   1.0000   1.0000   1.0000   1.0000   1.0000   1.0000
     1.0000   1.0000   1.0000   1.0000   1.0000   1.0000   1.0000   1.0000
     1.0000   1.0000   1.0000   1.0000   1.0000   1.0000   1.0000   1.0000
     1.0000   1.0000   1.0000   1.0000   1.0000   1.0000   1.0000   1.0000
     1.0000   1.0000   1.0000   1.0000   1.0000   1.0000   1.0000   1.0000
     1.0000   1.0000   1.0000   1.0000   1.0000   1.0000   1.0000   1.0000
     1.0000   1.0000   1.0000   1.0000   1.0000   1.0000   1.0000   1.0000
     1.0000   1.0000   1.0000   1.0000   1.0000   1.0000   1.0000   1.0000
     1.0000   1.0000   1.0000   1.0000   1.0000   1.0000   1.0000   1.0000
     1.0000   1.0000   1.0000   1.0000   1.0000   1.0000   1.0000   1.0000
     1.0000   1.0000   1.0000   1.0000   1.0000   1.0000   1.0000   1.0000
     1.0000   1.0000   1.0000   1.0000   1.0000   1.0000   1.0000   1.0000
     1.0000   1.0000   1.0000   1.0000   1.0000   1.0000   1.0000   1.0000
     1.0000   1.0000   1.0000   1.0000   1.0000   1.0000   1.0000   1.0000
     1.0000   1.0000   1.0000   1.0000   1.0000   1.0000   1.0000   1.0000
     1.0000   1.0000   1.0000   1.0000   1.0000   1.0000   1.0000   1.0000
     1.0000   1.0000   1.0000   1.0000   1.0000   0.9999   0.9999   0.9998
     0.9990   0.9978   0.9958   0.9910   0.9879   0.9849   0.9840   0.9802
     0.9167   0.8671   0.8612   0.7383   0.7074   0.5972   0.3556   0.3044
     0.1055   0.0928   0.0194   0.0157   0.0080   0.0050   0.0033   0.0028
     0.0010   0.0006   0.0002   0.0000   0.0000   0.0000   0.0000   0.0000
     0.0000   0.0000   0.0000   0.0000   0.0000   0.0000   0.0000   0.0000
     0.0000   0.0000   0.0000   0.0000   0.0000   0.0000   0.0000   0.0000
     0.0000   0.0000   0.0000   0.0000   0.0000   0.0000   0.0000   0.0000
     0.0000   0.0000   0.0000   0.0000   0.0000   0.0000   0.0000   0.0000
     0.0000   0.0000   0.0000   0.0000   0.0000   0.0000   0.0000   0.0000
     0.0000   0.0000   0.0000   0.0000   0.0000   0.0000   0.0000   0.0000

          k =-0.5000 0.2887 0.0000 ( 88178 PWs)   bands (ev):

   -95.3629 -95.3589 -95.3527 -95.3522 -95.3518 -95.3475 -95.3458 -95.3446
   -95.3327 -95.3278 -95.3277 -95.3252 -95.3233 -95.3230 -95.3193 -95.3179
   -95.3175 -95.2188 -94.9649 -94.9589 -94.9581 -94.9251 -94.9181 -94.9161
   -94.9114 -94.9094 -94.9044 -94.9023 -94.8994 -94.8989 -94.8952 -94.8916
   -94.8912 -94.7184 -94.7158 -94.7139 -49.6746 -49.6532 -49.6462 -49.6413
   -49.6279 -49.6236 -49.6218 -49.6203 -49.6041 -49.6019 -49.6006 -49.5976
   -49.5759 -49.5657 -49.5396 -49.5390 -49.5066 -49.5057 -49.4994 -49.4986
   -49.4955 -49.4887 -49.4871 -49.4817 -49.4773 -49.4677 -49.4635 -49.4536
   -49.4484 -49.4431 -49.4428 -49.4371 -49.4357 -49.4269 -49.4261 -49.4227
   -49.4179 -49.4165 -49.4128 -49.4100 -49.4051 -49.4022 -49.4003 -49.3981
   -49.3933 -49.3888 -49.3870 -49.3835 -49.3767 -49.3651 -49.3448 -49.3326
   -49.3085 -49.3074 -49.2938 -49.2912 -49.2826 -49.2732 -49.2542 -49.2538
   -49.2516 -49.2505 -49.2487 -49.2482 -49.1951 -49.1688 -49.1684 -49.1645
   -49.1337 -49.1266 -49.1132 -49.1129 -49.1103 -49.1098 -49.1088 -49.0821
   -49.0757 -49.0749 -49.0744 -49.0734 -49.0604 -49.0602 -49.0206 -49.0177
   -48.9835 -48.9534 -48.9395 -48.9320 -48.9299 -48.9025 -48.8735 -48.8651
   -48.8627 -48.8450 -48.8412 -48.8384 -48.8345 -48.8324 -48.8300 -48.8277
   -48.8222 -48.8215 -48.8176 -48.8128 -48.8123 -48.6327 -48.6271 -48.6249
   -15.4801  -5.1661  -5.1179  -3.9177  -3.8569  -3.7094  -3.6964  -3.2903
    -3.1283  -2.8537  -2.8235  -2.7885  -2.7769  -2.7598  -2.7474  -2.7386
    -2.7173  -2.6998  -2.6801  -2.6306  -2.5899  -2.5723  -2.5411  -2.5355
    -2.4366  -2.3492  -2.2126  -2.2102  -2.1744  -2.1719  -1.9495  -1.9452
    -1.9219  -1.8922  -1.8677  -1.8580  -1.7921  -1.7866  -1.6530  -1.6434
    -1.5709  -1.5591  -1.5547  -1.4773  -1.4712  -1.3436  -1.3425  -1.3078
    -1.2824  -1.2193  -1.1870  -1.0839  -1.0812  -1.0785  -1.0636  -1.0140
    -1.0084  -0.9585  -0.9491  -0.9224  -0.9180  -0.8142  -0.8004  -0.7414
    -0.7007  -0.6769  -0.6320  -0.6145  -0.4999  -0.4646  -0.4603  -0.4529
    -0.4178  -0.4080  -0.4030  -0.3938  -0.3552  -0.1837  -0.1625  -0.1410
    -0.1393  -0.1352  -0.1346  -0.1033  -0.0907  -0.0870  -0.0536  -0.0380
     0.0341   0.0354   0.0799   0.0849   0.0982   0.1293   0.1912   0.2501
     0.3040   0.3254   0.3358   0.3426   0.3528   0.3595   0.3755   0.4059
     0.4463   0.4678   0.5875   0.6040   0.6093   0.7007   0.7846   0.8365
     0.8892   0.9076   0.9293   0.9360   0.9652   1.0050   1.0207   1.0327
     1.0485   1.0543   1.0566   1.0795   1.0932   1.1226   1.1375   1.1712
     1.2196   1.2215   1.2455   1.2498   1.3030   1.3567   1.3874   1.4047
     1.4364   1.4664   1.6075   1.6274   1.7636   1.8132   1.8298   1.8350
     1.8366   1.8666   1.9637   1.9920   2.0662   2.0752   2.0873   2.0932
     2.1045   2.1235   2.1930   2.2052   2.2269   2.2272   2.2462   2.3298
     2.3499   2.3998   2.4369   2.4818   2.5670   2.6151   2.6157   2.6248
     2.7146   2.7312   2.8055   2.8066   2.8181   2.8243   2.8734   2.8769
     2.8994   2.9114   2.9222   2.9701   3.0926   3.1009   3.1040   3.1200
     3.1262   3.1327   3.1881   3.3553   3.3813   3.3868   3.3960   3.3991
     3.6028   3.6404   3.9011   3.9151   4.0981   4.5637   4.6105   4.9640
     4.9675   4.9701   4.9755   5.4395   5.4497   5.4618   5.4797   5.5008
     5.7890   5.9573   5.9617   6.0848   6.3348   6.3584   6.5140   6.5367
     6.5509   6.5940   8.4232   8.4239   8.4564   8.4813   8.6635   8.6930
     8.8123   8.9643   9.0038   9.0194   9.0480   9.0738   9.2052   9.2965
     9.5013   9.9362   9.9423  10.0064  10.0571  10.2141  10.3224  10.3724
    10.4600  10.7835  10.8955  10.9024  10.9622  11.0294  11.0602  11.0645

     occupation numbers 
     1.0000   1.0000   1.0000   1.0000   1.0000   1.0000   1.0000   1.0000
     1.0000   1.0000   1.0000   1.0000   1.0000   1.0000   1.0000   1.0000
     1.0000   1.0000   1.0000   1.0000   1.0000   1.0000   1.0000   1.0000
     1.0000   1.0000   1.0000   1.0000   1.0000   1.0000   1.0000   1.0000
     1.0000   1.0000   1.0000   1.0000   1.0000   1.0000   1.0000   1.0000
     1.0000   1.0000   1.0000   1.0000   1.0000   1.0000   1.0000   1.0000
     1.0000   1.0000   1.0000   1.0000   1.0000   1.0000   1.0000   1.0000
     1.0000   1.0000   1.0000   1.0000   1.0000   1.0000   1.0000   1.0000
     1.0000   1.0000   1.0000   1.0000   1.0000   1.0000   1.0000   1.0000
     1.0000   1.0000   1.0000   1.0000   1.0000   1.0000   1.0000   1.0000
     1.0000   1.0000   1.0000   1.0000   1.0000   1.0000   1.0000   1.0000
     1.0000   1.0000   1.0000   1.0000   1.0000   1.0000   1.0000   1.0000
     1.0000   1.0000   1.0000   1.0000   1.0000   1.0000   1.0000   1.0000
     1.0000   1.0000   1.0000   1.0000   1.0000   1.0000   1.0000   1.0000
     1.0000   1.0000   1.0000   1.0000   1.0000   1.0000   1.0000   1.0000
     1.0000   1.0000   1.0000   1.0000   1.0000   1.0000   1.0000   1.0000
     1.0000   1.0000   1.0000   1.0000   1.0000   1.0000   1.0000   1.0000
     1.0000   1.0000   1.0000   1.0000   1.0000   1.0000   1.0000   1.0000
     1.0000   1.0000   1.0000   1.0000   1.0000   1.0000   1.0000   1.0000
     1.0000   1.0000   1.0000   1.0000   1.0000   1.0000   1.0000   1.0000
     1.0000   1.0000   1.0000   1.0000   1.0000   1.0000   1.0000   1.0000
     1.0000   1.0000   1.0000   1.0000   1.0000   1.0000   1.0000   1.0000
     1.0000   1.0000   1.0000   1.0000   1.0000   1.0000   1.0000   1.0000
     1.0000   1.0000   1.0000   1.0000   1.0000   1.0000   1.0000   1.0000
     1.0000   1.0000   1.0000   1.0000   1.0000   1.0000   1.0000   1.0000
     1.0000   1.0000   1.0000   1.0000   1.0000   1.0000   1.0000   1.0000
     1.0000   1.0000   1.0000   1.0000   1.0000   1.0000   1.0000   1.0000
     1.0000   1.0000   1.0000   1.0000   1.0000   1.0000   1.0000   1.0000
     1.0000   1.0000   1.0000   1.0000   1.0000   1.0000   1.0000   1.0000
     1.0000   1.0000   1.0000   1.0000   1.0000   1.0000   1.0000   1.0000
     1.0000   1.0000   1.0000   1.0000   1.0000   1.0000   1.0000   1.0000
     1.0000   1.0000   1.0000   1.0000   1.0000   1.0000   1.0000   1.0000
     1.0000   1.0000   1.0000   1.0000   1.0000   1.0000   1.0000   1.0000
     1.0000   1.0000   1.0000   1.0000   1.0000   1.0000   1.0000   1.0000
     1.0000   1.0000   1.0000   1.0000   1.0000   1.0000   1.0000   1.0000
     1.0000   1.0000   1.0000   1.0000   1.0000   1.0000   1.0000   1.0000
     1.0000   1.0000   1.0000   1.0000   1.0000   1.0000   1.0000   1.0000
     1.0000   1.0000   1.0000   1.0000   1.0000   1.0000   1.0000   1.0000
     1.0000   1.0000   1.0000   1.0000   1.0000   0.9999   0.9999   0.9999
     0.9995   0.9994   0.9972   0.9972   0.9964   0.9960   0.9893   0.9885
     0.9821   0.9774   0.9721   0.9304   0.5357   0.4939   0.4785   0.3999
     0.3706   0.3407   0.1458   0.0060   0.0036   0.0032   0.0027   0.0025
     0.0000   0.0000   0.0000   0.0000   0.0000   0.0000   0.0000   0.0000
     0.0000   0.0000   0.0000   0.0000   0.0000   0.0000   0.0000   0.0000
     0.0000   0.0000   0.0000   0.0000   0.0000   0.0000   0.0000   0.0000
     0.0000   0.0000   0.0000   0.0000   0.0000   0.0000   0.0000   0.0000
     0.0000   0.0000   0.0000   0.0000   0.0000   0.0000   0.0000   0.0000
     0.0000   0.0000   0.0000   0.0000   0.0000   0.0000   0.0000   0.0000
     0.0000   0.0000   0.0000   0.0000   0.0000   0.0000   0.0000   0.0000

          k =-0.5000 0.4811 0.0000 ( 88140 PWs)   bands (ev):

   -95.3629 -95.3588 -95.3532 -95.3519 -95.3517 -95.3475 -95.3458 -95.3446
   -95.3327 -95.3278 -95.3277 -95.3252 -95.3235 -95.3228 -95.3191 -95.3183
   -95.3173 -95.2188 -94.9649 -94.9589 -94.9581 -94.9251 -94.9181 -94.9161
   -94.9116 -94.9089 -94.9054 -94.9011 -94.8997 -94.8991 -94.8952 -94.8917
   -94.8911 -94.7183 -94.7158 -94.7139 -49.6704 -49.6576 -49.6522 -49.6417
   -49.6315 -49.6253 -49.6182 -49.6100 -49.6037 -49.5980 -49.5956 -49.5919
   -49.5823 -49.5696 -49.5659 -49.5181 -49.5109 -49.5074 -49.5038 -49.4972
   -49.4945 -49.4888 -49.4831 -49.4759 -49.4703 -49.4672 -49.4608 -49.4560
   -49.4504 -49.4462 -49.4420 -49.4372 -49.4335 -49.4317 -49.4292 -49.4262
   -49.4222 -49.4166 -49.4122 -49.4108 -49.4065 -49.4015 -49.3975 -49.3949
   -49.3920 -49.3911 -49.3883 -49.3828 -49.3711 -49.3647 -49.3510 -49.3264
   -49.3112 -49.3049 -49.2965 -49.2889 -49.2826 -49.2781 -49.2665 -49.2606
   -49.2533 -49.2395 -49.2357 -49.2297 -49.2072 -49.2015 -49.1624 -49.1348
   -49.1339 -49.1268 -49.1212 -49.1187 -49.1067 -49.1010 -49.0979 -49.0931
   -49.0879 -49.0801 -49.0792 -49.0734 -49.0583 -49.0421 -49.0279 -49.0161
   -48.9810 -48.9573 -48.9428 -48.9327 -48.9216 -48.9050 -48.8735 -48.8651
   -48.8627 -48.8450 -48.8415 -48.8372 -48.8345 -48.8325 -48.8321 -48.8254
   -48.8228 -48.8218 -48.8176 -48.8130 -48.8121 -48.6327 -48.6271 -48.6249
   -15.4801  -5.3264  -4.7872  -4.2903  -4.0468  -3.5711  -3.2195  -3.1680
    -3.1572  -3.0517  -3.0139  -2.9542  -2.9017  -2.8383  -2.8255  -2.7092
    -2.6365  -2.6295  -2.5627  -2.5245  -2.4912  -2.4777  -2.4557  -2.4217
    -2.3658  -2.3281  -2.2686  -2.2539  -2.1939  -2.1519  -2.0996  -2.0376
    -2.0170  -1.9958  -1.9467  -1.9300  -1.8285  -1.7860  -1.7087  -1.6622
    -1.5268  -1.4697  -1.4516  -1.3840  -1.3661  -1.3561  -1.3406  -1.2613
    -1.2462  -1.2047  -1.1666  -1.1114  -1.0823  -1.0489  -1.0175  -1.0139
    -0.9976  -0.9656  -0.9450  -0.9177  -0.8694  -0.8420  -0.8011  -0.7545
    -0.6970  -0.6735  -0.6681  -0.6193  -0.5888  -0.4876  -0.4534  -0.4314
    -0.3773  -0.3618  -0.3549  -0.3278  -0.2958  -0.2787  -0.2427  -0.2172
    -0.1844  -0.1679  -0.0974  -0.0750  -0.0566  -0.0343  -0.0287   0.0077
     0.0852   0.1080   0.1290   0.1407   0.1599   0.2170   0.2261   0.2480
     0.2717   0.2798   0.2958   0.3101   0.3317   0.3690   0.3799   0.3963
     0.4151   0.4441   0.4808   0.5091   0.5322   0.5707   0.6256   0.6562
     0.6809   0.7681   0.7866   0.8213   0.9178   0.9666   0.9929   1.0207
     1.0528   1.0775   1.0980   1.1337   1.1568   1.1639   1.2266   1.2529
     1.2654   1.2863   1.3109   1.3495   1.3861   1.3960   1.4551   1.4972
     1.5350   1.6548   1.6774   1.6931   1.7228   1.7717   1.8092   1.8183
     1.8310   1.8601   1.8874   1.8994   1.9357   2.0049   2.0352   2.0639
     2.0780   2.0883   2.1093   2.1320   2.1461   2.2622   2.2931   2.3559
     2.4179   2.4375   2.5210   2.5511   2.5689   2.6291   2.6365   2.6646
     2.7527   2.7935   2.8261   2.8654   2.8789   2.8911   2.8939   2.9055
     2.9777   3.0049   3.0087   3.0478   3.0560   3.0811   3.1282   3.1397
     3.2066   3.2158   3.2935   3.3048   3.3409   3.3643   3.3869   3.3965
     3.4452   3.4710   3.5177   4.1181   4.3743   4.3982   4.4546   4.5210
     4.8096   4.9578   5.0319   5.3313   5.3808   5.4071   5.4512   5.5489
     5.8070   5.9373   6.0042   6.2523   6.5450   6.6172   6.6713   6.8124
     6.9717   7.2858   7.4636   7.7113   7.7649   7.7814   8.5237   8.7779
     8.7988   8.8631   9.0404   9.1080   9.2855   9.3733   9.5174   9.5920
     9.6551   9.9026   9.9116  10.0212  10.1575  10.2404  10.2590  10.5003
    10.6178  10.7475  10.8673  10.9860  11.0401  11.1172  11.1569  11.2025

     occupation numbers 
     1.0000   1.0000   1.0000   1.0000   1.0000   1.0000   1.0000   1.0000
     1.0000   1.0000   1.0000   1.0000   1.0000   1.0000   1.0000   1.0000
     1.0000   1.0000   1.0000   1.0000   1.0000   1.0000   1.0000   1.0000
     1.0000   1.0000   1.0000   1.0000   1.0000   1.0000   1.0000   1.0000
     1.0000   1.0000   1.0000   1.0000   1.0000   1.0000   1.0000   1.0000
     1.0000   1.0000   1.0000   1.0000   1.0000   1.0000   1.0000   1.0000
     1.0000   1.0000   1.0000   1.0000   1.0000   1.0000   1.0000   1.0000
     1.0000   1.0000   1.0000   1.0000   1.0000   1.0000   1.0000   1.0000
     1.0000   1.0000   1.0000   1.0000   1.0000   1.0000   1.0000   1.0000
     1.0000   1.0000   1.0000   1.0000   1.0000   1.0000   1.0000   1.0000
     1.0000   1.0000   1.0000   1.0000   1.0000   1.0000   1.0000   1.0000
     1.0000   1.0000   1.0000   1.0000   1.0000   1.0000   1.0000   1.0000
     1.0000   1.0000   1.0000   1.0000   1.0000   1.0000   1.0000   1.0000
     1.0000   1.0000   1.0000   1.0000   1.0000   1.0000   1.0000   1.0000
     1.0000   1.0000   1.0000   1.0000   1.0000   1.0000   1.0000   1.0000
     1.0000   1.0000   1.0000   1.0000   1.0000   1.0000   1.0000   1.0000
     1.0000   1.0000   1.0000   1.0000   1.0000   1.0000   1.0000   1.0000
     1.0000   1.0000   1.0000   1.0000   1.0000   1.0000   1.0000   1.0000
     1.0000   1.0000   1.0000   1.0000   1.0000   1.0000   1.0000   1.0000
     1.0000   1.0000   1.0000   1.0000   1.0000   1.0000   1.0000   1.0000
     1.0000   1.0000   1.0000   1.0000   1.0000   1.0000   1.0000   1.0000
     1.0000   1.0000   1.0000   1.0000   1.0000   1.0000   1.0000   1.0000
     1.0000   1.0000   1.0000   1.0000   1.0000   1.0000   1.0000   1.0000
     1.0000   1.0000   1.0000   1.0000   1.0000   1.0000   1.0000   1.0000
     1.0000   1.0000   1.0000   1.0000   1.0000   1.0000   1.0000   1.0000
     1.0000   1.0000   1.0000   1.0000   1.0000   1.0000   1.0000   1.0000
     1.0000   1.0000   1.0000   1.0000   1.0000   1.0000   1.0000   1.0000
     1.0000   1.0000   1.0000   1.0000   1.0000   1.0000   1.0000   1.0000
     1.0000   1.0000   1.0000   1.0000   1.0000   1.0000   1.0000   1.0000
     1.0000   1.0000   1.0000   1.0000   1.0000   1.0000   1.0000   1.0000
     1.0000   1.0000   1.0000   1.0000   1.0000   1.0000   1.0000   1.0000
     1.0000   1.0000   1.0000   1.0000   1.0000   1.0000   1.0000   1.0000
     1.0000   1.0000   1.0000   1.0000   1.0000   1.0000   1.0000   1.0000
     1.0000   1.0000   1.0000   1.0000   1.0000   1.0000   1.0000   1.0000
     1.0000   1.0000   1.0000   1.0000   1.0000   1.0000   1.0000   1.0000
     1.0000   1.0000   1.0000   1.0000   1.0000   1.0000   1.0000   1.0000
     1.0000   1.0000   1.0000   1.0000   1.0000   1.0000   1.0000   1.0000
     1.0000   1.0000   1.0000   1.0000   1.0000   1.0000   1.0000   1.0000
     1.0000   1.0000   1.0000   1.0000   1.0000   0.9999   0.9999   0.9998
     0.9990   0.9978   0.9958   0.9909   0.9881   0.9848   0.9839   0.9799
     0.9199   0.8695   0.8607   0.7386   0.7055   0.5920   0.3612   0.3103
     0.1055   0.0894   0.0203   0.0163   0.0080   0.0050   0.0032   0.0026
     0.0010   0.0006   0.0002   0.0000   0.0000   0.0000   0.0000   0.0000
     0.0000   0.0000   0.0000   0.0000   0.0000   0.0000   0.0000   0.0000
     0.0000   0.0000   0.0000   0.0000   0.0000   0.0000   0.0000   0.0000
     0.0000   0.0000   0.0000   0.0000   0.0000   0.0000   0.0000   0.0000
     0.0000   0.0000   0.0000   0.0000   0.0000   0.0000   0.0000   0.0000
     0.0000   0.0000   0.0000   0.0000   0.0000   0.0000   0.0000   0.0000
     0.0000   0.0000   0.0000   0.0000   0.0000   0.0000   0.0000   0.0000

          k =-0.5000 0.6736 0.0000 ( 88140 PWs)   bands (ev):

   -95.3629 -95.3588 -95.3532 -95.3519 -95.3517 -95.3475 -95.3458 -95.3445
   -95.3327 -95.3278 -95.3277 -95.3252 -95.3236 -95.3228 -95.3191 -95.3183
   -95.3173 -95.2188 -94.9649 -94.9589 -94.9581 -94.9251 -94.9181 -94.9161
   -94.9116 -94.9089 -94.9054 -94.9011 -94.8997 -94.8991 -94.8952 -94.8917
   -94.8911 -94.7183 -94.7158 -94.7139 -49.6703 -49.6576 -49.6522 -49.6417
   -49.6315 -49.6253 -49.6182 -49.6100 -49.6037 -49.5980 -49.5957 -49.5919
   -49.5823 -49.5696 -49.5659 -49.5181 -49.5109 -49.5074 -49.5039 -49.4972
   -49.4945 -49.4888 -49.4831 -49.4759 -49.4703 -49.4672 -49.4608 -49.4560
   -49.4505 -49.4462 -49.4420 -49.4372 -49.4335 -49.4317 -49.4292 -49.4262
   -49.4223 -49.4166 -49.4122 -49.4108 -49.4065 -49.4015 -49.3975 -49.3949
   -49.3920 -49.3911 -49.3883 -49.3828 -49.3711 -49.3647 -49.3511 -49.3264
   -49.3112 -49.3048 -49.2965 -49.2889 -49.2826 -49.2781 -49.2665 -49.2606
   -49.2533 -49.2395 -49.2357 -49.2297 -49.2072 -49.2015 -49.1624 -49.1348
   -49.1339 -49.1268 -49.1212 -49.1187 -49.1067 -49.1010 -49.0979 -49.0931
   -49.0879 -49.0801 -49.0792 -49.0734 -49.0583 -49.0421 -49.0279 -49.0161
   -48.9811 -48.9573 -48.9429 -48.9327 -48.9216 -48.9050 -48.8735 -48.8651
   -48.8627 -48.8450 -48.8415 -48.8372 -48.8345 -48.8325 -48.8321 -48.8254
   -48.8228 -48.8218 -48.8175 -48.8130 -48.8121 -48.6327 -48.6271 -48.6249
   -15.4801  -5.3264  -4.7872  -4.2903  -4.0468  -3.5711  -3.2196  -3.1680
    -3.1572  -3.0517  -3.0138  -2.9542  -2.9017  -2.8383  -2.8255  -2.7092
    -2.6365  -2.6295  -2.5627  -2.5245  -2.4912  -2.4777  -2.4558  -2.4217
    -2.3658  -2.3281  -2.2686  -2.2539  -2.1939  -2.1519  -2.0996  -2.0375
    -2.0170  -1.9957  -1.9467  -1.9299  -1.8285  -1.7861  -1.7087  -1.6622
    -1.5268  -1.4697  -1.4516  -1.3840  -1.3661  -1.3561  -1.3406  -1.2613
    -1.2461  -1.2047  -1.1666  -1.1114  -1.0823  -1.0489  -1.0175  -1.0139
    -0.9975  -0.9656  -0.9450  -0.9176  -0.8694  -0.8420  -0.8011  -0.7545
    -0.6970  -0.6735  -0.6682  -0.6193  -0.5888  -0.4877  -0.4534  -0.4314
    -0.3774  -0.3619  -0.3550  -0.3278  -0.2958  -0.2787  -0.2427  -0.2171
    -0.1844  -0.1679  -0.0974  -0.0750  -0.0566  -0.0343  -0.0286   0.0077
     0.0852   0.1080   0.1290   0.1407   0.1599   0.2170   0.2261   0.2481
     0.2717   0.2798   0.2958   0.3101   0.3317   0.3689   0.3799   0.3963
     0.4152   0.4441   0.4808   0.5091   0.5322   0.5707   0.6256   0.6562
     0.6809   0.7681   0.7866   0.8213   0.9179   0.9666   0.9929   1.0207
     1.0529   1.0774   1.0980   1.1337   1.1568   1.1639   1.2265   1.2529
     1.2654   1.2863   1.3110   1.3495   1.3861   1.3959   1.4551   1.4972
     1.5350   1.6548   1.6774   1.6931   1.7228   1.7718   1.8092   1.8183
     1.8311   1.8601   1.8873   1.8994   1.9357   2.0049   2.0352   2.0639
     2.0780   2.0883   2.1093   2.1319   2.1461   2.2622   2.2931   2.3559
     2.4179   2.4375   2.5210   2.5511   2.5689   2.6291   2.6365   2.6646
     2.7527   2.7935   2.8261   2.8654   2.8789   2.8910   2.8939   2.9054
     2.9777   3.0049   3.0087   3.0478   3.0560   3.0811   3.1282   3.1397
     3.2066   3.2157   3.2936   3.3049   3.3409   3.3643   3.3869   3.3966
     3.4452   3.4710   3.5177   4.1181   4.3743   4.3983   4.4546   4.5211
     4.8096   4.9577   5.0319   5.3313   5.3808   5.4070   5.4513   5.5489
     5.8070   5.9373   6.0042   6.2523   6.5450   6.6173   6.6713   6.8124
     6.9716   7.2858   7.4635   7.7113   7.7650   7.7814   8.5237   8.7779
     8.7987   8.8631   9.0404   9.1081   9.2856   9.3733   9.5171   9.5920
     9.6550   9.9028   9.9117  10.0212  10.1576  10.2403  10.2591  10.5001
    10.6178  10.7475  10.8676  10.9860  11.0402  11.1171  11.1569  11.2023

     occupation numbers 
     1.0000   1.0000   1.0000   1.0000   1.0000   1.0000   1.0000   1.0000
     1.0000   1.0000   1.0000   1.0000   1.0000   1.0000   1.0000   1.0000
     1.0000   1.0000   1.0000   1.0000   1.0000   1.0000   1.0000   1.0000
     1.0000   1.0000   1.0000   1.0000   1.0000   1.0000   1.0000   1.0000
     1.0000   1.0000   1.0000   1.0000   1.0000   1.0000   1.0000   1.0000
     1.0000   1.0000   1.0000   1.0000   1.0000   1.0000   1.0000   1.0000
     1.0000   1.0000   1.0000   1.0000   1.0000   1.0000   1.0000   1.0000
     1.0000   1.0000   1.0000   1.0000   1.0000   1.0000   1.0000   1.0000
     1.0000   1.0000   1.0000   1.0000   1.0000   1.0000   1.0000   1.0000
     1.0000   1.0000   1.0000   1.0000   1.0000   1.0000   1.0000   1.0000
     1.0000   1.0000   1.0000   1.0000   1.0000   1.0000   1.0000   1.0000
     1.0000   1.0000   1.0000   1.0000   1.0000   1.0000   1.0000   1.0000
     1.0000   1.0000   1.0000   1.0000   1.0000   1.0000   1.0000   1.0000
     1.0000   1.0000   1.0000   1.0000   1.0000   1.0000   1.0000   1.0000
     1.0000   1.0000   1.0000   1.0000   1.0000   1.0000   1.0000   1.0000
     1.0000   1.0000   1.0000   1.0000   1.0000   1.0000   1.0000   1.0000
     1.0000   1.0000   1.0000   1.0000   1.0000   1.0000   1.0000   1.0000
     1.0000   1.0000   1.0000   1.0000   1.0000   1.0000   1.0000   1.0000
     1.0000   1.0000   1.0000   1.0000   1.0000   1.0000   1.0000   1.0000
     1.0000   1.0000   1.0000   1.0000   1.0000   1.0000   1.0000   1.0000
     1.0000   1.0000   1.0000   1.0000   1.0000   1.0000   1.0000   1.0000
     1.0000   1.0000   1.0000   1.0000   1.0000   1.0000   1.0000   1.0000
     1.0000   1.0000   1.0000   1.0000   1.0000   1.0000   1.0000   1.0000
     1.0000   1.0000   1.0000   1.0000   1.0000   1.0000   1.0000   1.0000
     1.0000   1.0000   1.0000   1.0000   1.0000   1.0000   1.0000   1.0000
     1.0000   1.0000   1.0000   1.0000   1.0000   1.0000   1.0000   1.0000
     1.0000   1.0000   1.0000   1.0000   1.0000   1.0000   1.0000   1.0000
     1.0000   1.0000   1.0000   1.0000   1.0000   1.0000   1.0000   1.0000
     1.0000   1.0000   1.0000   1.0000   1.0000   1.0000   1.0000   1.0000
     1.0000   1.0000   1.0000   1.0000   1.0000   1.0000   1.0000   1.0000
     1.0000   1.0000   1.0000   1.0000   1.0000   1.0000   1.0000   1.0000
     1.0000   1.0000   1.0000   1.0000   1.0000   1.0000   1.0000   1.0000
     1.0000   1.0000   1.0000   1.0000   1.0000   1.0000   1.0000   1.0000
     1.0000   1.0000   1.0000   1.0000   1.0000   1.0000   1.0000   1.0000
     1.0000   1.0000   1.0000   1.0000   1.0000   1.0000   1.0000   1.0000
     1.0000   1.0000   1.0000   1.0000   1.0000   1.0000   1.0000   1.0000
     1.0000   1.0000   1.0000   1.0000   1.0000   1.0000   1.0000   1.0000
     1.0000   1.0000   1.0000   1.0000   1.0000   1.0000   1.0000   1.0000
     1.0000   1.0000   1.0000   1.0000   1.0000   0.9999   0.9999   0.9998
     0.9990   0.9978   0.9958   0.9909   0.9881   0.9848   0.9839   0.9799
     0.9198   0.8694   0.8607   0.7386   0.7055   0.5921   0.3611   0.3102
     0.1055   0.0894   0.0203   0.0163   0.0080   0.0050   0.0032   0.0026
     0.0010   0.0006   0.0002   0.0000   0.0000   0.0000   0.0000   0.0000
     0.0000   0.0000   0.0000   0.0000   0.0000   0.0000   0.0000   0.0000
     0.0000   0.0000   0.0000   0.0000   0.0000   0.0000   0.0000   0.0000
     0.0000   0.0000   0.0000   0.0000   0.0000   0.0000   0.0000   0.0000
     0.0000   0.0000   0.0000   0.0000   0.0000   0.0000   0.0000   0.0000
     0.0000   0.0000   0.0000   0.0000   0.0000   0.0000   0.0000   0.0000
     0.0000   0.0000   0.0000   0.0000   0.0000   0.0000   0.0000   0.0000

          k =-0.5000-0.2887 0.0000 ( 88178 PWs)   bands (ev):

   -95.3629 -95.3589 -95.3527 -95.3523 -95.3518 -95.3475 -95.3458 -95.3445
   -95.3327 -95.3278 -95.3277 -95.3252 -95.3234 -95.3230 -95.3193 -95.3180
   -95.3174 -95.2188 -94.9649 -94.9589 -94.9581 -94.9251 -94.9181 -94.9161
   -94.9114 -94.9095 -94.9044 -94.9023 -94.8994 -94.8989 -94.8952 -94.8915
   -94.8912 -94.7184 -94.7158 -94.7139 -49.6745 -49.6532 -49.6462 -49.6413
   -49.6280 -49.6237 -49.6218 -49.6202 -49.6041 -49.6019 -49.6007 -49.5975
   -49.5759 -49.5657 -49.5396 -49.5390 -49.5066 -49.5057 -49.4994 -49.4986
   -49.4955 -49.4886 -49.4871 -49.4817 -49.4773 -49.4676 -49.4635 -49.4535
   -49.4484 -49.4431 -49.4428 -49.4371 -49.4358 -49.4269 -49.4262 -49.4227
   -49.4179 -49.4166 -49.4128 -49.4100 -49.4050 -49.4022 -49.4004 -49.3981
   -49.3933 -49.3888 -49.3870 -49.3836 -49.3767 -49.3651 -49.3449 -49.3326
   -49.3085 -49.3074 -49.2938 -49.2912 -49.2826 -49.2732 -49.2542 -49.2538
   -49.2516 -49.2505 -49.2487 -49.2482 -49.1952 -49.1688 -49.1684 -49.1645
   -49.1337 -49.1266 -49.1131 -49.1129 -49.1103 -49.1098 -49.1088 -49.0821
   -49.0757 -49.0749 -49.0744 -49.0734 -49.0604 -49.0602 -49.0206 -49.0177
   -48.9836 -48.9533 -48.9395 -48.9319 -48.9298 -48.9026 -48.8735 -48.8652
   -48.8626 -48.8450 -48.8412 -48.8384 -48.8345 -48.8324 -48.8300 -48.8277
   -48.8222 -48.8215 -48.8175 -48.8128 -48.8123 -48.6327 -48.6271 -48.6249
   -15.4801  -5.1661  -5.1179  -3.9177  -3.8569  -3.7094  -3.6964  -3.2903
    -3.1283  -2.8537  -2.8235  -2.7885  -2.7769  -2.7598  -2.7474  -2.7386
    -2.7173  -2.6998  -2.6801  -2.6306  -2.5899  -2.5723  -2.5411  -2.5355
    -2.4366  -2.3492  -2.2125  -2.2101  -2.1744  -2.1719  -1.9495  -1.9452
    -1.9219  -1.8922  -1.8676  -1.8580  -1.7921  -1.7866  -1.6530  -1.6434
    -1.5708  -1.5591  -1.5547  -1.4773  -1.4712  -1.3436  -1.3425  -1.3078
    -1.2823  -1.2193  -1.1869  -1.0829  -1.0823  -1.0785  -1.0635  -1.0139
    -1.0085  -0.9585  -0.9491  -0.9223  -0.9180  -0.8142  -0.8004  -0.7414
    -0.7007  -0.6769  -0.6320  -0.6146  -0.4998  -0.4647  -0.4603  -0.4530
    -0.4179  -0.4080  -0.4030  -0.3938  -0.3552  -0.1837  -0.1625  -0.1409
    -0.1393  -0.1352  -0.1346  -0.1033  -0.0907  -0.0870  -0.0536  -0.0381
     0.0341   0.0355   0.0798   0.0850   0.0982   0.1294   0.1911   0.2501
     0.3040   0.3253   0.3357   0.3426   0.3528   0.3596   0.3754   0.4059
     0.4464   0.4679   0.5875   0.6039   0.6092   0.7007   0.7847   0.8365
     0.8891   0.9076   0.9293   0.9360   0.9652   1.0050   1.0207   1.0328
     1.0486   1.0543   1.0566   1.0795   1.0933   1.1226   1.1375   1.1712
     1.2196   1.2215   1.2455   1.2497   1.3030   1.3566   1.3874   1.4047
     1.4363   1.4663   1.6075   1.6274   1.7637   1.8131   1.8298   1.8351
     1.8366   1.8666   1.9636   1.9920   2.0662   2.0752   2.0873   2.0932
     2.1046   2.1235   2.1930   2.2052   2.2270   2.2272   2.2462   2.3298
     2.3499   2.3998   2.4368   2.4818   2.5670   2.6151   2.6156   2.6248
     2.7146   2.7312   2.8055   2.8066   2.8181   2.8242   2.8735   2.8768
     2.8993   2.9113   2.9222   2.9701   3.0926   3.1009   3.1040   3.1201
     3.1262   3.1328   3.1881   3.3553   3.3813   3.3869   3.3960   3.3991
     3.6028   3.6404   3.9011   3.9152   4.0981   4.5636   4.6105   4.9640
     4.9675   4.9701   4.9755   5.4394   5.4497   5.4618   5.4797   5.5008
     5.7891   5.9573   5.9618   6.0848   6.3346   6.3585   6.5140   6.5367
     6.5509   6.5940   8.4231   8.4238   8.4565   8.4815   8.6637   8.6931
     8.8121   8.9642   9.0038   9.0194   9.0480   9.0737   9.2058   9.2955
     9.5011   9.9363   9.9422  10.0064  10.0571  10.2143  10.3220  10.3735
    10.4595  10.7835  10.8953  10.9025  10.9620  11.0297  11.0602  11.0646

     occupation numbers 
     1.0000   1.0000   1.0000   1.0000   1.0000   1.0000   1.0000   1.0000
     1.0000   1.0000   1.0000   1.0000   1.0000   1.0000   1.0000   1.0000
     1.0000   1.0000   1.0000   1.0000   1.0000   1.0000   1.0000   1.0000
     1.0000   1.0000   1.0000   1.0000   1.0000   1.0000   1.0000   1.0000
     1.0000   1.0000   1.0000   1.0000   1.0000   1.0000   1.0000   1.0000
     1.0000   1.0000   1.0000   1.0000   1.0000   1.0000   1.0000   1.0000
     1.0000   1.0000   1.0000   1.0000   1.0000   1.0000   1.0000   1.0000
     1.0000   1.0000   1.0000   1.0000   1.0000   1.0000   1.0000   1.0000
     1.0000   1.0000   1.0000   1.0000   1.0000   1.0000   1.0000   1.0000
     1.0000   1.0000   1.0000   1.0000   1.0000   1.0000   1.0000   1.0000
     1.0000   1.0000   1.0000   1.0000   1.0000   1.0000   1.0000   1.0000
     1.0000   1.0000   1.0000   1.0000   1.0000   1.0000   1.0000   1.0000
     1.0000   1.0000   1.0000   1.0000   1.0000   1.0000   1.0000   1.0000
     1.0000   1.0000   1.0000   1.0000   1.0000   1.0000   1.0000   1.0000
     1.0000   1.0000   1.0000   1.0000   1.0000   1.0000   1.0000   1.0000
     1.0000   1.0000   1.0000   1.0000   1.0000   1.0000   1.0000   1.0000
     1.0000   1.0000   1.0000   1.0000   1.0000   1.0000   1.0000   1.0000
     1.0000   1.0000   1.0000   1.0000   1.0000   1.0000   1.0000   1.0000
     1.0000   1.0000   1.0000   1.0000   1.0000   1.0000   1.0000   1.0000
     1.0000   1.0000   1.0000   1.0000   1.0000   1.0000   1.0000   1.0000
     1.0000   1.0000   1.0000   1.0000   1.0000   1.0000   1.0000   1.0000
     1.0000   1.0000   1.0000   1.0000   1.0000   1.0000   1.0000   1.0000
     1.0000   1.0000   1.0000   1.0000   1.0000   1.0000   1.0000   1.0000
     1.0000   1.0000   1.0000   1.0000   1.0000   1.0000   1.0000   1.0000
     1.0000   1.0000   1.0000   1.0000   1.0000   1.0000   1.0000   1.0000
     1.0000   1.0000   1.0000   1.0000   1.0000   1.0000   1.0000   1.0000
     1.0000   1.0000   1.0000   1.0000   1.0000   1.0000   1.0000   1.0000
     1.0000   1.0000   1.0000   1.0000   1.0000   1.0000   1.0000   1.0000
     1.0000   1.0000   1.0000   1.0000   1.0000   1.0000   1.0000   1.0000
     1.0000   1.0000   1.0000   1.0000   1.0000   1.0000   1.0000   1.0000
     1.0000   1.0000   1.0000   1.0000   1.0000   1.0000   1.0000   1.0000
     1.0000   1.0000   1.0000   1.0000   1.0000   1.0000   1.0000   1.0000
     1.0000   1.0000   1.0000   1.0000   1.0000   1.0000   1.0000   1.0000
     1.0000   1.0000   1.0000   1.0000   1.0000   1.0000   1.0000   1.0000
     1.0000   1.0000   1.0000   1.0000   1.0000   1.0000   1.0000   1.0000
     1.0000   1.0000   1.0000   1.0000   1.0000   1.0000   1.0000   1.0000
     1.0000   1.0000   1.0000   1.0000   1.0000   1.0000   1.0000   1.0000
     1.0000   1.0000   1.0000   1.0000   1.0000   1.0000   1.0000   1.0000
     1.0000   1.0000   1.0000   1.0000   1.0000   0.9999   0.9999   0.9999
     0.9995   0.9994   0.9972   0.9972   0.9964   0.9960   0.9893   0.9886
     0.9821   0.9774   0.9721   0.9304   0.5356   0.4939   0.4785   0.3997
     0.3706   0.3405   0.1457   0.0060   0.0036   0.0032   0.0027   0.0025
     0.0000   0.0000   0.0000   0.0000   0.0000   0.0000   0.0000   0.0000
     0.0000   0.0000   0.0000   0.0000   0.0000   0.0000   0.0000   0.0000
     0.0000   0.0000   0.0000   0.0000   0.0000   0.0000   0.0000   0.0000
     0.0000   0.0000   0.0000   0.0000   0.0000   0.0000   0.0000   0.0000
     0.0000   0.0000   0.0000   0.0000   0.0000   0.0000   0.0000   0.0000
     0.0000   0.0000   0.0000   0.0000   0.0000   0.0000   0.0000   0.0000
     0.0000   0.0000   0.0000   0.0000   0.0000   0.0000   0.0000   0.0000

 ------ SPIN DOWN ----------


          k = 0.0000 0.0000 0.0000 ( 88097 PWs)   bands (ev):

   -95.3649 -95.3563 -95.3524 -95.3523 -95.3519 -95.3468 -95.3460 -95.3456
   -95.3327 -95.3275 -95.3272 -95.3256 -95.3221 -95.3220 -95.3204 -95.3203
   -95.3158 -95.2187 -94.9652 -94.9586 -94.9580 -94.9253 -94.9181 -94.9162
   -94.9146 -94.9037 -94.9035 -94.9033 -94.9000 -94.8999 -94.8965 -94.8913
   -94.8910 -94.7179 -94.7156 -94.7137 -49.6339 -49.6206 -49.6116 -49.6101
   -49.6046 -49.6032 -49.6021 -49.5975 -49.5973 -49.5907 -49.5898 -49.5898
   -49.5836 -49.5819 -49.5771 -49.5765 -49.5605 -49.5603 -49.5579 -49.5236
   -49.5232 -49.5150 -49.5074 -49.5068 -49.4879 -49.4877 -49.4868 -49.4456
   -49.4454 -49.4424 -49.4330 -49.4291 -49.4290 -49.4283 -49.4232 -49.4137
   -49.4133 -49.4115 -49.4104 -49.4103 -49.4095 -49.4069 -49.4066 -49.3802
   -49.3794 -49.3763 -49.3654 -49.3623 -49.3613 -49.3481 -49.3471 -49.3021
   -49.3014 -49.2907 -49.2750 -49.2749 -49.2582 -49.2469 -49.2463 -49.2408
   -49.2318 -49.2195 -49.2174 -49.2173 -49.2158 -49.2157 -49.2155 -49.2082
   -49.2069 -49.1996 -49.1995 -49.1342 -49.1329 -49.0966 -49.0757 -49.0749
   -49.0580 -49.0577 -49.0574 -49.0549 -49.0549 -49.0532 -49.0080 -49.0007
   -49.0004 -48.9518 -48.9517 -48.9213 -48.8964 -48.8962 -48.8754 -48.8634
   -48.8626 -48.8473 -48.8453 -48.8344 -48.8325 -48.8288 -48.8285 -48.8283
   -48.8238 -48.8237 -48.8204 -48.8120 -48.8117 -48.6319 -48.6268 -48.6244
   -11.9346  -6.0261  -4.7228  -3.6363  -3.5848  -3.5469  -3.5457  -3.5383
    -3.5259  -3.5259  -3.4864  -2.9758  -2.9748  -2.9720  -2.9435  -2.9429
    -2.9012  -2.4929  -2.4922  -2.4831  -2.4524  -2.4523  -2.4237  -2.2569
    -2.2568  -2.2367  -2.2239  -2.2012  -2.2011  -2.0428  -2.0425  -2.0267
    -1.9990  -1.9908  -1.9906  -1.9701  -1.9698  -1.9624  -1.9088  -1.9071
    -1.8586  -1.3829  -1.3822  -1.3325  -1.3325  -1.3061  -1.3060  -1.2971
    -1.2171  -1.2163  -1.1991  -1.1370  -1.1368  -1.0018  -1.0011  -0.5420
    -0.5408  -0.5302  -0.5079  -0.5070  -0.4897  -0.4402  -0.3392  -0.3391
    -0.3305  -0.3242  -0.3132  -0.3129  -0.3017  -0.2908  -0.2908  -0.2742
    -0.2621  -0.2604  -0.2281  -0.1864  -0.1853  -0.0980  -0.0964  -0.0681
    -0.0557  -0.0546  -0.0523   0.1204   0.1218   0.1347   0.1722   0.1732
     0.1911   0.2162   0.2171   0.2974   0.2975   0.3108   0.3119   0.3182
     0.3185   0.3649   0.3650   0.3659   0.3743   0.5048   0.5069   0.5085
     0.5768   0.5856   0.5878   0.6011   1.0503   1.0510   1.0776   1.0876
     1.0890   1.0978   1.1226   1.1239   1.1550   1.1624   1.1823   1.1831
     1.2434   1.2450   1.2775   1.2778   1.3404   1.3493   1.3494   1.4781
     1.5491   1.5495   1.5819   1.5862   1.6271   1.6346   1.8440   1.8697
     1.8707   1.8837   1.8845   1.9116   1.9765   1.9765   2.0686   2.0693
     2.0868   2.1015   2.1071   2.1075   2.1223   2.2790   2.2910   2.2923
     2.3120   2.3187   2.3189   2.3245   2.3252   2.3256   2.3562   2.3565
     2.3573   2.4191   2.4668   2.4668   2.5034   2.5041   2.5310   2.5369
     2.5376   2.5600   2.6100   2.6112   2.6334   2.6335   2.6586   2.6816
     2.6816   2.7141   2.7276   2.7278   2.7520   2.7764   2.7765   2.8394
     2.8398   2.8423   2.8457   2.8574   2.8588   2.8712   3.0730   3.0773
     3.1649   3.1802   3.1806   3.1969   3.1975   3.1985   3.2605   3.3389
     3.9020   3.9622   3.9631   4.0004   4.0139   4.0149   4.0241   6.2838
     6.2889   6.2908   6.3321   6.3344   6.3440   7.8101   7.8114   7.8580
     7.8678   7.8681   7.8845   8.5706   8.5708   8.7855   9.1158   9.1179
     9.1421   9.1833   9.1864   9.2331   9.6759   9.7255   9.7257   9.7490
     9.8089  10.2381  10.4278  10.4289  10.6812  10.9819  10.9842  11.0313
    11.0325  11.0380  11.1374  11.5086  11.5305  11.5322  11.5713  11.8624

     occupation numbers 
     1.0000   1.0000   1.0000   1.0000   1.0000   1.0000   1.0000   1.0000
     1.0000   1.0000   1.0000   1.0000   1.0000   1.0000   1.0000   1.0000
     1.0000   1.0000   1.0000   1.0000   1.0000   1.0000   1.0000   1.0000
     1.0000   1.0000   1.0000   1.0000   1.0000   1.0000   1.0000   1.0000
     1.0000   1.0000   1.0000   1.0000   1.0000   1.0000   1.0000   1.0000
     1.0000   1.0000   1.0000   1.0000   1.0000   1.0000   1.0000   1.0000
     1.0000   1.0000   1.0000   1.0000   1.0000   1.0000   1.0000   1.0000
     1.0000   1.0000   1.0000   1.0000   1.0000   1.0000   1.0000   1.0000
     1.0000   1.0000   1.0000   1.0000   1.0000   1.0000   1.0000   1.0000
     1.0000   1.0000   1.0000   1.0000   1.0000   1.0000   1.0000   1.0000
     1.0000   1.0000   1.0000   1.0000   1.0000   1.0000   1.0000   1.0000
     1.0000   1.0000   1.0000   1.0000   1.0000   1.0000   1.0000   1.0000
     1.0000   1.0000   1.0000   1.0000   1.0000   1.0000   1.0000   1.0000
     1.0000   1.0000   1.0000   1.0000   1.0000   1.0000   1.0000   1.0000
     1.0000   1.0000   1.0000   1.0000   1.0000   1.0000   1.0000   1.0000
     1.0000   1.0000   1.0000   1.0000   1.0000   1.0000   1.0000   1.0000
     1.0000   1.0000   1.0000   1.0000   1.0000   1.0000   1.0000   1.0000
     1.0000   1.0000   1.0000   1.0000   1.0000   1.0000   1.0000   1.0000
     1.0000   1.0000   1.0000   1.0000   1.0000   1.0000   1.0000   1.0000
     1.0000   1.0000   1.0000   1.0000   1.0000   1.0000   1.0000   1.0000
     1.0000   1.0000   1.0000   1.0000   1.0000   1.0000   1.0000   1.0000
     1.0000   1.0000   1.0000   1.0000   1.0000   1.0000   1.0000   1.0000
     1.0000   1.0000   1.0000   1.0000   1.0000   1.0000   1.0000   1.0000
     1.0000   1.0000   1.0000   1.0000   1.0000   1.0000   1.0000   1.0000
     1.0000   1.0000   1.0000   1.0000   1.0000   1.0000   1.0000   1.0000
     1.0000   1.0000   1.0000   1.0000   1.0000   1.0000   1.0000   1.0000
     1.0000   1.0000   1.0000   1.0000   1.0000   1.0000   1.0000   1.0000
     1.0000   1.0000   1.0000   1.0000   1.0000   1.0000   1.0000   1.0000
     1.0000   1.0000   1.0000   1.0000   1.0000   1.0000   1.0000   1.0000
     1.0000   1.0000   1.0000   1.0000   1.0000   1.0000   1.0000   1.0000
     1.0000   1.0000   1.0000   1.0000   1.0000   1.0000   1.0000   1.0000
     1.0000   1.0000   1.0000   1.0000   1.0000   1.0000   1.0000   1.0000
     1.0000   1.0000   1.0000   1.0000   1.0000   1.0000   1.0000   1.0000
     1.0000   1.0000   1.0000   1.0000   1.0000   1.0000   1.0000   1.0000
     1.0000   1.0000   1.0000   1.0000   1.0000   1.0000   1.0000   1.0000
     1.0000   1.0000   1.0000   1.0000   1.0000   1.0000   1.0000   1.0000
     1.0000   1.0000   1.0000   1.0000   1.0000   1.0000   1.0000   1.0000
     1.0000   1.0000   1.0000   1.0000   1.0000   1.0000   1.0000   1.0000
     1.0000   1.0000   1.0000   1.0000   1.0000   1.0000   1.0000   1.0000
     1.0000   1.0000   0.9999   0.9999   0.9999   0.9999   0.9999   0.9998
     0.9998   0.9996   0.9994   0.9994   0.9990   0.9984   0.9984   0.9945
     0.9945   0.9942   0.9938   0.9922   0.9920   0.9898   0.6307   0.6103
     0.2134   0.1666   0.1656   0.1253   0.1239   0.1218   0.0386   0.0083
     0.0000   0.0000   0.0000   0.0000   0.0000   0.0000   0.0000   0.0000
     0.0000   0.0000   0.0000   0.0000   0.0000   0.0000   0.0000   0.0000
     0.0000   0.0000   0.0000   0.0000   0.0000   0.0000   0.0000   0.0000
     0.0000   0.0000   0.0000   0.0000   0.0000   0.0000   0.0000   0.0000
     0.0000   0.0000   0.0000   0.0000   0.0000   0.0000   0.0000   0.0000
     0.0000   0.0000   0.0000   0.0000   0.0000   0.0000   0.0000   0.0000

          k = 0.0000 0.1925 0.0000 ( 88230 PWs)   bands (ev):

   -95.3645 -95.3569 -95.3525 -95.3523 -95.3518 -95.3471 -95.3457 -95.3455
   -95.3327 -95.3276 -95.3273 -95.3255 -95.3225 -95.3223 -95.3200 -95.3198
   -95.3160 -95.2187 -94.9652 -94.9586 -94.9581 -94.9252 -94.9181 -94.9162
   -94.9141 -94.9055 -94.9037 -94.9022 -94.9002 -94.8996 -94.8960 -94.8914
   -94.8911 -94.7180 -94.7156 -94.7137 -49.6460 -49.6328 -49.6281 -49.6233
   -49.6141 -49.6103 -49.6083 -49.6052 -49.6032 -49.5896 -49.5878 -49.5866
   -49.5813 -49.5715 -49.5665 -49.5662 -49.5537 -49.5468 -49.5351 -49.5115
   -49.5111 -49.5102 -49.5046 -49.5000 -49.4854 -49.4848 -49.4782 -49.4496
   -49.4492 -49.4393 -49.4364 -49.4363 -49.4297 -49.4285 -49.4267 -49.4165
   -49.4148 -49.4133 -49.4118 -49.4108 -49.4052 -49.4032 -49.4009 -49.3857
   -49.3845 -49.3793 -49.3675 -49.3672 -49.3593 -49.3546 -49.3481 -49.3088
   -49.3028 -49.2916 -49.2844 -49.2815 -49.2700 -49.2527 -49.2483 -49.2456
   -49.2353 -49.2349 -49.2281 -49.2279 -49.2212 -49.2181 -49.1950 -49.1948
   -49.1750 -49.1742 -49.1706 -49.1321 -49.1280 -49.0994 -49.0794 -49.0749
   -49.0671 -49.0665 -49.0648 -49.0546 -49.0541 -49.0437 -49.0097 -49.0027
   -49.0019 -48.9540 -48.9496 -48.9229 -48.9021 -48.8979 -48.8749 -48.8634
   -48.8630 -48.8466 -48.8449 -48.8343 -48.8327 -48.8316 -48.8290 -48.8269
   -48.8241 -48.8231 -48.8193 -48.8122 -48.8118 -48.6320 -48.6268 -48.6243
   -11.9346  -5.9217  -4.6204  -3.9689  -3.6534  -3.6508  -3.5303  -3.4388
    -3.3494  -3.3369  -3.3261  -3.0631  -3.0111  -2.9279  -2.9106  -2.8901
    -2.8652  -2.5253  -2.4440  -2.4421  -2.4348  -2.4062  -2.3826  -2.3603
    -2.2949  -2.2848  -2.1932  -2.1768  -2.1605  -2.0897  -2.0858  -2.0716
    -2.0566  -2.0421  -2.0200  -1.9976  -1.8526  -1.8333  -1.7858  -1.7657
    -1.7308  -1.4667  -1.4634  -1.4363  -1.3921  -1.3793  -1.3390  -1.3264
    -1.1954  -1.1753  -1.1169  -1.0952  -1.0659  -1.0092  -0.9853  -0.7391
    -0.6363  -0.6350  -0.6077  -0.6074  -0.5857  -0.5040  -0.5031  -0.4846
    -0.4560  -0.4531  -0.4340  -0.3883  -0.3540  -0.3261  -0.3036  -0.2876
    -0.2247  -0.1988  -0.1855  -0.1366  -0.1303  -0.1291  -0.0853  -0.0174
    -0.0099   0.0135   0.0497   0.1080   0.1174   0.1223   0.1387   0.1565
     0.1742   0.1758   0.1998   0.2424   0.2471   0.2819   0.3054   0.3174
     0.3415   0.3596   0.4277   0.4386   0.4750   0.4881   0.5095   0.5592
     0.5620   0.5671   0.5716   0.5839   0.6423   0.6492   0.6786   0.7176
     0.8159   0.8535   1.0554   1.1029   1.1217   1.1242   1.1433   1.1445
     1.1955   1.1956   1.2789   1.3106   1.4343   1.4951   1.5269   1.5540
     1.5549   1.5622   1.5742   1.5858   1.5922   1.5968   1.7018   1.7067
     1.7642   1.7697   1.8329   1.8581   1.9796   1.9836   1.9875   2.0128
     2.0371   2.0731   2.0876   2.1249   2.1285   2.1375   2.2084   2.2125
     2.2359   2.2385   2.2578   2.2601   2.2817   2.3427   2.3639   2.4017
     2.4105   2.5034   2.5349   2.5373   2.5747   2.5926   2.6318   2.6358
     2.6889   2.6942   2.7040   2.7196   2.7261   2.7337   2.7558   2.7693
     2.7865   2.8017   2.8082   2.8704   2.8811   3.0424   3.0552   3.0580
     3.0750   3.0930   3.0937   3.1158   3.1400   3.1460   3.1524   3.1601
     3.1709   3.1726   3.2589   3.2689   3.2985   3.2996   3.3389   3.3702
     3.5861   3.8790   3.8928   4.4125   4.4282   4.4614   4.5496   5.7329
     6.0854   6.0903   6.7344   6.7364   6.9347   6.9348   6.9786   7.9298
     7.9464   7.9947   8.0091   8.3226   8.6931   8.6940   8.8573   8.8611
     8.8903   9.1122   9.1389   9.4099   9.5357   9.5493   9.7708   9.8231
     9.8631  10.2921  10.3193  10.4002  10.6658  10.6793  10.7322  10.7455
    10.7701  10.9843  11.0231  11.0827  11.0904  11.2506  11.3684  11.4604

     occupation numbers 
     1.0000   1.0000   1.0000   1.0000   1.0000   1.0000   1.0000   1.0000
     1.0000   1.0000   1.0000   1.0000   1.0000   1.0000   1.0000   1.0000
     1.0000   1.0000   1.0000   1.0000   1.0000   1.0000   1.0000   1.0000
     1.0000   1.0000   1.0000   1.0000   1.0000   1.0000   1.0000   1.0000
     1.0000   1.0000   1.0000   1.0000   1.0000   1.0000   1.0000   1.0000
     1.0000   1.0000   1.0000   1.0000   1.0000   1.0000   1.0000   1.0000
     1.0000   1.0000   1.0000   1.0000   1.0000   1.0000   1.0000   1.0000
     1.0000   1.0000   1.0000   1.0000   1.0000   1.0000   1.0000   1.0000
     1.0000   1.0000   1.0000   1.0000   1.0000   1.0000   1.0000   1.0000
     1.0000   1.0000   1.0000   1.0000   1.0000   1.0000   1.0000   1.0000
     1.0000   1.0000   1.0000   1.0000   1.0000   1.0000   1.0000   1.0000
     1.0000   1.0000   1.0000   1.0000   1.0000   1.0000   1.0000   1.0000
     1.0000   1.0000   1.0000   1.0000   1.0000   1.0000   1.0000   1.0000
     1.0000   1.0000   1.0000   1.0000   1.0000   1.0000   1.0000   1.0000
     1.0000   1.0000   1.0000   1.0000   1.0000   1.0000   1.0000   1.0000
     1.0000   1.0000   1.0000   1.0000   1.0000   1.0000   1.0000   1.0000
     1.0000   1.0000   1.0000   1.0000   1.0000   1.0000   1.0000   1.0000
     1.0000   1.0000   1.0000   1.0000   1.0000   1.0000   1.0000   1.0000
     1.0000   1.0000   1.0000   1.0000   1.0000   1.0000   1.0000   1.0000
     1.0000   1.0000   1.0000   1.0000   1.0000   1.0000   1.0000   1.0000
     1.0000   1.0000   1.0000   1.0000   1.0000   1.0000   1.0000   1.0000
     1.0000   1.0000   1.0000   1.0000   1.0000   1.0000   1.0000   1.0000
     1.0000   1.0000   1.0000   1.0000   1.0000   1.0000   1.0000   1.0000
     1.0000   1.0000   1.0000   1.0000   1.0000   1.0000   1.0000   1.0000
     1.0000   1.0000   1.0000   1.0000   1.0000   1.0000   1.0000   1.0000
     1.0000   1.0000   1.0000   1.0000   1.0000   1.0000   1.0000   1.0000
     1.0000   1.0000   1.0000   1.0000   1.0000   1.0000   1.0000   1.0000
     1.0000   1.0000   1.0000   1.0000   1.0000   1.0000   1.0000   1.0000
     1.0000   1.0000   1.0000   1.0000   1.0000   1.0000   1.0000   1.0000
     1.0000   1.0000   1.0000   1.0000   1.0000   1.0000   1.0000   1.0000
     1.0000   1.0000   1.0000   1.0000   1.0000   1.0000   1.0000   1.0000
     1.0000   1.0000   1.0000   1.0000   1.0000   1.0000   1.0000   1.0000
     1.0000   1.0000   1.0000   1.0000   1.0000   1.0000   1.0000   1.0000
     1.0000   1.0000   1.0000   1.0000   1.0000   1.0000   1.0000   1.0000
     1.0000   1.0000   1.0000   1.0000   1.0000   1.0000   1.0000   1.0000
     1.0000   1.0000   1.0000   1.0000   1.0000   1.0000   1.0000   1.0000
     1.0000   1.0000   1.0000   1.0000   1.0000   1.0000   1.0000   1.0000
     1.0000   1.0000   1.0000   1.0000   1.0000   1.0000   1.0000   1.0000
     1.0000   1.0000   1.0000   1.0000   1.0000   1.0000   0.9999   0.9999
     0.9997   0.9997   0.9996   0.9995   0.9994   0.9993   0.9990   0.9987
     0.9981   0.9974   0.9971   0.9899   0.9875   0.7587   0.7091   0.6971
     0.6212   0.5338   0.5302   0.4204   0.3090   0.2840   0.2586   0.2302
     0.1940   0.1887   0.0398   0.0328   0.0184   0.0180   0.0083   0.0045
     0.0001   0.0000   0.0000   0.0000   0.0000   0.0000   0.0000   0.0000
     0.0000   0.0000   0.0000   0.0000   0.0000   0.0000   0.0000   0.0000
     0.0000   0.0000   0.0000   0.0000   0.0000   0.0000   0.0000   0.0000
     0.0000   0.0000   0.0000   0.0000   0.0000   0.0000   0.0000   0.0000
     0.0000   0.0000   0.0000   0.0000   0.0000   0.0000   0.0000   0.0000
     0.0000   0.0000   0.0000   0.0000   0.0000   0.0000   0.0000   0.0000

          k = 0.0000 0.3849 0.0000 ( 88170 PWs)   bands (ev):

   -95.3635 -95.3582 -95.3526 -95.3524 -95.3516 -95.3474 -95.3454 -95.3451
   -95.3326 -95.3277 -95.3274 -95.3254 -95.3230 -95.3227 -95.3195 -95.3187
   -95.3166 -95.2187 -94.9650 -94.9586 -94.9583 -94.9252 -94.9181 -94.9162
   -94.9128 -94.9078 -94.9041 -94.9022 -94.8998 -94.8991 -94.8954 -94.8916
   -94.8911 -94.7180 -94.7156 -94.7136 -49.6677 -49.6469 -49.6413 -49.6360
   -49.6225 -49.6208 -49.6175 -49.6166 -49.6068 -49.5982 -49.5976 -49.5914
   -49.5768 -49.5653 -49.5489 -49.5479 -49.5233 -49.5203 -49.5044 -49.5013
   -49.4968 -49.4935 -49.4934 -49.4916 -49.4790 -49.4786 -49.4603 -49.4553
   -49.4520 -49.4462 -49.4384 -49.4366 -49.4364 -49.4299 -49.4234 -49.4234
   -49.4165 -49.4154 -49.4141 -49.4109 -49.4038 -49.4036 -49.3956 -49.3951
   -49.3904 -49.3837 -49.3809 -49.3739 -49.3717 -49.3603 -49.3463 -49.3241
   -49.3060 -49.3021 -49.2905 -49.2905 -49.2755 -49.2721 -49.2518 -49.2512
   -49.2473 -49.2467 -49.2431 -49.2430 -49.2036 -49.1848 -49.1763 -49.1761
   -49.1427 -49.1423 -49.1287 -49.1257 -49.1217 -49.1059 -49.0854 -49.0851
   -49.0833 -49.0743 -49.0719 -49.0585 -49.0579 -49.0352 -49.0311 -49.0091
   -48.9894 -48.9566 -48.9442 -48.9270 -48.9171 -48.9010 -48.8740 -48.8640
   -48.8633 -48.8454 -48.8433 -48.8355 -48.8343 -48.8327 -48.8296 -48.8274
   -48.8230 -48.8219 -48.8180 -48.8127 -48.8121 -48.6320 -48.6268 -48.6243
   -11.9346  -5.6176  -4.5568  -4.3232  -3.6994  -3.6984  -3.4061  -3.2923
    -3.2293  -3.1592  -3.0944  -3.0572  -3.0564  -2.8307  -2.7983  -2.7459
    -2.7398  -2.6394  -2.5027  -2.4478  -2.4091  -2.4080  -2.3715  -2.3661
    -2.3466  -2.3373  -2.2933  -2.2625  -2.1835  -2.1597  -2.1441  -2.1304
    -1.9273  -1.9241  -1.8828  -1.8689  -1.8425  -1.8393  -1.6457  -1.6399
    -1.5630  -1.5442  -1.5126  -1.4440  -1.3957  -1.3952  -1.3698  -1.3415
    -1.2067  -1.2015  -1.1447  -1.1191  -1.1033  -1.0985  -1.0102  -0.9811
    -0.9541  -0.8449  -0.7644  -0.7608  -0.7408  -0.6259  -0.5914  -0.5611
    -0.5582  -0.5243  -0.5179  -0.4980  -0.4338  -0.3023  -0.2875  -0.2756
    -0.2663  -0.2368  -0.2115  -0.2033  -0.1694  -0.1378  -0.1358  -0.0701
    -0.0699  -0.0518  -0.0371  -0.0183  -0.0091  -0.0044   0.0021   0.0453
     0.0548   0.0871   0.1167   0.1399   0.1507   0.1782   0.2935   0.3119
     0.3152   0.3369   0.3448   0.3859   0.4499   0.4540   0.4696   0.4761
     0.5074   0.5729   0.6526   0.6587   0.7133   0.7225   0.7663   0.7803
     0.8622   0.8924   1.0394   1.0606   1.0612   1.0869   1.0887   1.1063
     1.1157   1.1361   1.1364   1.2195   1.2309   1.2608   1.2613   1.2951
     1.3446   1.4085   1.4460   1.4691   1.4994   1.6341   1.6471   1.6691
     1.6751   1.6884   1.6986   1.8489   1.9218   1.9290   1.9450   1.9477
     1.9845   1.9847   2.0278   2.0562   2.0802   2.1123   2.1411   2.1595
     2.2033   2.2667   2.2799   2.2836   2.2960   2.3038   2.3257   2.3470
     2.4992   2.5398   2.5597   2.5872   2.6026   2.6038   2.6303   2.7016
     2.7193   2.7649   2.8075   2.8103   2.8208   2.8281   2.9299   2.9521
     2.9587   3.0085   3.0159   3.0438   3.0542   3.0714   3.0959   3.1347
     3.2161   3.2641   3.2665   3.2851   3.2907   3.3053   3.3061   3.3406
     3.4784   3.4887   3.5265   3.8878   3.9002   3.9728   3.9753   3.9901
     4.2663   4.2965   4.4464   5.1688   5.2195   5.3007   5.3232   5.3855
     5.9646   5.9680   5.9909   5.9950   6.7126   6.7368   7.1862   7.3539
     7.4485   7.4543   7.9050   7.9290   8.3875   8.4014   8.7063   8.7222
     8.7428   9.0751   9.2598   9.3257   9.3452   9.6197   9.6247   9.7225
     9.7277   9.8467  10.0282  10.0922  10.3135  10.3614  10.4280  10.4427
    10.5122  10.5680  10.6117  10.7561  10.9673  11.2961  11.3466  11.3724

     occupation numbers 
     1.0000   1.0000   1.0000   1.0000   1.0000   1.0000   1.0000   1.0000
     1.0000   1.0000   1.0000   1.0000   1.0000   1.0000   1.0000   1.0000
     1.0000   1.0000   1.0000   1.0000   1.0000   1.0000   1.0000   1.0000
     1.0000   1.0000   1.0000   1.0000   1.0000   1.0000   1.0000   1.0000
     1.0000   1.0000   1.0000   1.0000   1.0000   1.0000   1.0000   1.0000
     1.0000   1.0000   1.0000   1.0000   1.0000   1.0000   1.0000   1.0000
     1.0000   1.0000   1.0000   1.0000   1.0000   1.0000   1.0000   1.0000
     1.0000   1.0000   1.0000   1.0000   1.0000   1.0000   1.0000   1.0000
     1.0000   1.0000   1.0000   1.0000   1.0000   1.0000   1.0000   1.0000
     1.0000   1.0000   1.0000   1.0000   1.0000   1.0000   1.0000   1.0000
     1.0000   1.0000   1.0000   1.0000   1.0000   1.0000   1.0000   1.0000
     1.0000   1.0000   1.0000   1.0000   1.0000   1.0000   1.0000   1.0000
     1.0000   1.0000   1.0000   1.0000   1.0000   1.0000   1.0000   1.0000
     1.0000   1.0000   1.0000   1.0000   1.0000   1.0000   1.0000   1.0000
     1.0000   1.0000   1.0000   1.0000   1.0000   1.0000   1.0000   1.0000
     1.0000   1.0000   1.0000   1.0000   1.0000   1.0000   1.0000   1.0000
     1.0000   1.0000   1.0000   1.0000   1.0000   1.0000   1.0000   1.0000
     1.0000   1.0000   1.0000   1.0000   1.0000   1.0000   1.0000   1.0000
     1.0000   1.0000   1.0000   1.0000   1.0000   1.0000   1.0000   1.0000
     1.0000   1.0000   1.0000   1.0000   1.0000   1.0000   1.0000   1.0000
     1.0000   1.0000   1.0000   1.0000   1.0000   1.0000   1.0000   1.0000
     1.0000   1.0000   1.0000   1.0000   1.0000   1.0000   1.0000   1.0000
     1.0000   1.0000   1.0000   1.0000   1.0000   1.0000   1.0000   1.0000
     1.0000   1.0000   1.0000   1.0000   1.0000   1.0000   1.0000   1.0000
     1.0000   1.0000   1.0000   1.0000   1.0000   1.0000   1.0000   1.0000
     1.0000   1.0000   1.0000   1.0000   1.0000   1.0000   1.0000   1.0000
     1.0000   1.0000   1.0000   1.0000   1.0000   1.0000   1.0000   1.0000
     1.0000   1.0000   1.0000   1.0000   1.0000   1.0000   1.0000   1.0000
     1.0000   1.0000   1.0000   1.0000   1.0000   1.0000   1.0000   1.0000
     1.0000   1.0000   1.0000   1.0000   1.0000   1.0000   1.0000   1.0000
     1.0000   1.0000   1.0000   1.0000   1.0000   1.0000   1.0000   1.0000
     1.0000   1.0000   1.0000   1.0000   1.0000   1.0000   1.0000   1.0000
     1.0000   1.0000   1.0000   1.0000   1.0000   1.0000   1.0000   1.0000
     1.0000   1.0000   1.0000   1.0000   1.0000   1.0000   1.0000   1.0000
     1.0000   1.0000   1.0000   1.0000   1.0000   1.0000   1.0000   1.0000
     1.0000   1.0000   1.0000   1.0000   1.0000   1.0000   1.0000   1.0000
     1.0000   1.0000   1.0000   1.0000   1.0000   1.0000   1.0000   1.0000
     1.0000   1.0000   1.0000   1.0000   1.0000   1.0000   1.0000   1.0000
     1.0000   1.0000   1.0000   1.0000   1.0000   1.0000   0.9999   0.9997
     0.9995   0.9988   0.9971   0.9969   0.9962   0.9956   0.9676   0.9504
     0.9438   0.8610   0.8425   0.7536   0.7131   0.6379   0.5190   0.3318
     0.0889   0.0360   0.0344   0.0240   0.0215   0.0161   0.0159   0.0080
     0.0005   0.0004   0.0002   0.0000   0.0000   0.0000   0.0000   0.0000
     0.0000   0.0000   0.0000   0.0000   0.0000   0.0000   0.0000   0.0000
     0.0000   0.0000   0.0000   0.0000   0.0000   0.0000   0.0000   0.0000
     0.0000   0.0000   0.0000   0.0000   0.0000   0.0000   0.0000   0.0000
     0.0000   0.0000   0.0000   0.0000   0.0000   0.0000   0.0000   0.0000
     0.0000   0.0000   0.0000   0.0000   0.0000   0.0000   0.0000   0.0000
     0.0000   0.0000   0.0000   0.0000   0.0000   0.0000   0.0000   0.0000

          k = 0.0000-0.5774 0.0000 ( 88178 PWs)   bands (ev):

   -95.3628 -95.3590 -95.3527 -95.3525 -95.3515 -95.3475 -95.3453 -95.3450
   -95.3327 -95.3278 -95.3275 -95.3253 -95.3232 -95.3228 -95.3193 -95.3179
   -95.3173 -95.2187 -94.9649 -94.9586 -94.9584 -94.9252 -94.9181 -94.9162
   -94.9114 -94.9096 -94.9043 -94.9023 -94.8995 -94.8988 -94.8952 -94.8918
   -94.8911 -94.7180 -94.7156 -94.7136 -49.6759 -49.6533 -49.6458 -49.6405
   -49.6273 -49.6240 -49.6218 -49.6207 -49.6042 -49.6016 -49.6001 -49.5982
   -49.5754 -49.5653 -49.5387 -49.5381 -49.5059 -49.5049 -49.4986 -49.4985
   -49.4956 -49.4889 -49.4868 -49.4821 -49.4776 -49.4683 -49.4638 -49.4543
   -49.4492 -49.4439 -49.4423 -49.4374 -49.4358 -49.4268 -49.4266 -49.4227
   -49.4174 -49.4166 -49.4126 -49.4103 -49.4051 -49.4030 -49.3995 -49.3983
   -49.3936 -49.3877 -49.3876 -49.3825 -49.3778 -49.3643 -49.3439 -49.3330
   -49.3079 -49.3077 -49.2939 -49.2912 -49.2829 -49.2730 -49.2537 -49.2535
   -49.2515 -49.2505 -49.2486 -49.2482 -49.1950 -49.1686 -49.1682 -49.1647
   -49.1334 -49.1277 -49.1132 -49.1130 -49.1102 -49.1100 -49.1094 -49.0820
   -49.0758 -49.0742 -49.0738 -49.0737 -49.0606 -49.0604 -49.0203 -49.0176
   -48.9838 -48.9532 -48.9402 -48.9304 -48.9292 -48.9027 -48.8735 -48.8645
   -48.8633 -48.8450 -48.8411 -48.8385 -48.8343 -48.8328 -48.8298 -48.8278
   -48.8224 -48.8214 -48.8176 -48.8130 -48.8122 -48.6321 -48.6268 -48.6242
   -11.9346  -5.1656  -5.1179  -3.9175  -3.8569  -3.7093  -3.6973  -3.2886
    -3.1285  -2.8527  -2.8234  -2.7883  -2.7759  -2.7588  -2.7481  -2.7395
    -2.7181  -2.6998  -2.6800  -2.6304  -2.5884  -2.5724  -2.5405  -2.5346
    -2.4366  -2.3491  -2.2130  -2.2110  -2.1749  -2.1722  -1.9505  -1.9468
    -1.9227  -1.8934  -1.8678  -1.8590  -1.7923  -1.7879  -1.6534  -1.6435
    -1.5709  -1.5585  -1.5546  -1.4756  -1.4692  -1.3433  -1.3419  -1.3077
    -1.2821  -1.2194  -1.1877  -1.0818  -1.0815  -1.0667  -1.0094  -0.9597
    -0.9510  -0.9239  -0.9198  -0.8143  -0.8010  -0.7411  -0.7001  -0.6760
    -0.6318  -0.6141  -0.5031  -0.4623  -0.4584  -0.4507  -0.4151  -0.4072
    -0.4021  -0.3935  -0.3547  -0.1846  -0.1628  -0.1415  -0.1390  -0.1360
    -0.1348  -0.1041  -0.0900  -0.0875  -0.0526  -0.0351   0.0327   0.0355
     0.0799   0.0839   0.0960   0.1274   0.1931   0.2513   0.3051   0.3268
     0.3375   0.3445   0.3549   0.3593   0.3785   0.4085   0.4417   0.4641
     0.5870   0.6070   0.6129   0.7014   0.7842   0.8370   0.8895   0.9086
     0.9281   0.9369   1.0045   1.0219   1.0318   1.0469   1.0511   1.0566
     1.0778   1.0901   1.1232   1.1375   1.1706   1.2218   1.2237   1.2466
     1.2511   1.3048   1.3574   1.3875   1.4064   1.4315   1.4665   1.6089
     1.6294   1.7598   1.8063   1.8291   1.8356   1.8358   1.8639   1.9659
     1.9929   2.0621   2.0744   2.0861   2.0905   2.0975   2.1110   2.1226
     2.1929   2.2055   2.2277   2.2278   2.2450   2.3296   2.3491   2.4022
     2.4377   2.4848   2.5677   2.6160   2.6163   2.6257   2.7151   2.7310
     2.8058   2.8071   2.8186   2.8248   2.8745   2.8792   2.9016   2.9139
     2.9218   2.9698   3.0913   3.1016   3.1027   3.1201   3.1248   3.1314
     3.1864   3.2607   3.3387   3.3556   3.3802   3.3852   3.3945   3.3979
     3.6028   3.6407   3.9000   3.9130   4.1011   4.5665   4.6135   4.9648
     4.9673   4.9703   4.9754   5.4393   5.4496   5.4619   5.4799   5.5005
     5.7815   5.9558   5.9612   6.0841   6.3395   6.3654   6.5150   6.5377
     6.5523   6.5943   8.4242   8.4263   8.4593   8.4821   8.6722   8.6972
     8.8167   8.9656   9.0026   9.0188   9.0472   9.0726   9.4051   9.4191
     9.5097   9.9360   9.9417  10.0060  10.0568  10.2736  10.3618  10.5084
    10.5118  10.7879  10.9105  10.9237  10.9611  11.0283  11.0614  11.0619

     occupation numbers 
     1.0000   1.0000   1.0000   1.0000   1.0000   1.0000   1.0000   1.0000
     1.0000   1.0000   1.0000   1.0000   1.0000   1.0000   1.0000   1.0000
     1.0000   1.0000   1.0000   1.0000   1.0000   1.0000   1.0000   1.0000
     1.0000   1.0000   1.0000   1.0000   1.0000   1.0000   1.0000   1.0000
     1.0000   1.0000   1.0000   1.0000   1.0000   1.0000   1.0000   1.0000
     1.0000   1.0000   1.0000   1.0000   1.0000   1.0000   1.0000   1.0000
     1.0000   1.0000   1.0000   1.0000   1.0000   1.0000   1.0000   1.0000
     1.0000   1.0000   1.0000   1.0000   1.0000   1.0000   1.0000   1.0000
     1.0000   1.0000   1.0000   1.0000   1.0000   1.0000   1.0000   1.0000
     1.0000   1.0000   1.0000   1.0000   1.0000   1.0000   1.0000   1.0000
     1.0000   1.0000   1.0000   1.0000   1.0000   1.0000   1.0000   1.0000
     1.0000   1.0000   1.0000   1.0000   1.0000   1.0000   1.0000   1.0000
     1.0000   1.0000   1.0000   1.0000   1.0000   1.0000   1.0000   1.0000
     1.0000   1.0000   1.0000   1.0000   1.0000   1.0000   1.0000   1.0000
     1.0000   1.0000   1.0000   1.0000   1.0000   1.0000   1.0000   1.0000
     1.0000   1.0000   1.0000   1.0000   1.0000   1.0000   1.0000   1.0000
     1.0000   1.0000   1.0000   1.0000   1.0000   1.0000   1.0000   1.0000
     1.0000   1.0000   1.0000   1.0000   1.0000   1.0000   1.0000   1.0000
     1.0000   1.0000   1.0000   1.0000   1.0000   1.0000   1.0000   1.0000
     1.0000   1.0000   1.0000   1.0000   1.0000   1.0000   1.0000   1.0000
     1.0000   1.0000   1.0000   1.0000   1.0000   1.0000   1.0000   1.0000
     1.0000   1.0000   1.0000   1.0000   1.0000   1.0000   1.0000   1.0000
     1.0000   1.0000   1.0000   1.0000   1.0000   1.0000   1.0000   1.0000
     1.0000   1.0000   1.0000   1.0000   1.0000   1.0000   1.0000   1.0000
     1.0000   1.0000   1.0000   1.0000   1.0000   1.0000   1.0000   1.0000
     1.0000   1.0000   1.0000   1.0000   1.0000   1.0000   1.0000   1.0000
     1.0000   1.0000   1.0000   1.0000   1.0000   1.0000   1.0000   1.0000
     1.0000   1.0000   1.0000   1.0000   1.0000   1.0000   1.0000   1.0000
     1.0000   1.0000   1.0000   1.0000   1.0000   1.0000   1.0000   1.0000
     1.0000   1.0000   1.0000   1.0000   1.0000   1.0000   1.0000   1.0000
     1.0000   1.0000   1.0000   1.0000   1.0000   1.0000   1.0000   1.0000
     1.0000   1.0000   1.0000   1.0000   1.0000   1.0000   1.0000   1.0000
     1.0000   1.0000   1.0000   1.0000   1.0000   1.0000   1.0000   1.0000
     1.0000   1.0000   1.0000   1.0000   1.0000   1.0000   1.0000   1.0000
     1.0000   1.0000   1.0000   1.0000   1.0000   1.0000   1.0000   1.0000
     1.0000   1.0000   1.0000   1.0000   1.0000   1.0000   1.0000   1.0000
     1.0000   1.0000   1.0000   1.0000   1.0000   1.0000   1.0000   1.0000
     1.0000   1.0000   1.0000   1.0000   1.0000   1.0000   1.0000   1.0000
     1.0000   1.0000   1.0000   0.9999   0.9999   0.9999   0.9995   0.9994
     0.9972   0.9971   0.9964   0.9959   0.9891   0.9880   0.9813   0.9763
     0.9723   0.9307   0.5418   0.4907   0.4852   0.3996   0.3773   0.3469
     0.1500   0.0384   0.0083   0.0059   0.0037   0.0033   0.0027   0.0026
     0.0000   0.0000   0.0000   0.0000   0.0000   0.0000   0.0000   0.0000
     0.0000   0.0000   0.0000   0.0000   0.0000   0.0000   0.0000   0.0000
     0.0000   0.0000   0.0000   0.0000   0.0000   0.0000   0.0000   0.0000
     0.0000   0.0000   0.0000   0.0000   0.0000   0.0000   0.0000   0.0000
     0.0000   0.0000   0.0000   0.0000   0.0000   0.0000   0.0000   0.0000
     0.0000   0.0000   0.0000   0.0000   0.0000   0.0000   0.0000   0.0000
     0.0000   0.0000   0.0000   0.0000   0.0000   0.0000   0.0000   0.0000

          k = 0.1667-0.0962 0.0000 ( 88230 PWs)   bands (ev):

   -95.3645 -95.3569 -95.3525 -95.3522 -95.3519 -95.3470 -95.3460 -95.3452
   -95.3327 -95.3276 -95.3274 -95.3255 -95.3225 -95.3223 -95.3200 -95.3198
   -95.3160 -95.2187 -94.9652 -94.9586 -94.9580 -94.9252 -94.9181 -94.9162
   -94.9141 -94.9054 -94.9039 -94.9021 -94.9002 -94.8997 -94.8960 -94.8914
   -94.8911 -94.7180 -94.7156 -94.7137 -49.6451 -49.6325 -49.6283 -49.6242
   -49.6142 -49.6104 -49.6078 -49.6054 -49.6030 -49.5899 -49.5881 -49.5863
   -49.5816 -49.5717 -49.5667 -49.5660 -49.5533 -49.5472 -49.5350 -49.5115
   -49.5112 -49.5100 -49.5051 -49.4998 -49.4855 -49.4849 -49.4777 -49.4494
   -49.4491 -49.4391 -49.4365 -49.4362 -49.4302 -49.4283 -49.4269 -49.4160
   -49.4147 -49.4132 -49.4117 -49.4107 -49.4056 -49.4028 -49.4015 -49.3854
   -49.3845 -49.3798 -49.3672 -49.3664 -49.3603 -49.3539 -49.3488 -49.3082
   -49.3033 -49.2915 -49.2841 -49.2814 -49.2702 -49.2524 -49.2489 -49.2456
   -49.2354 -49.2349 -49.2281 -49.2279 -49.2211 -49.2178 -49.1952 -49.1949
   -49.1749 -49.1741 -49.1704 -49.1313 -49.1288 -49.0992 -49.0789 -49.0756
   -49.0671 -49.0664 -49.0650 -49.0545 -49.0539 -49.0439 -49.0095 -49.0029
   -49.0019 -48.9539 -48.9496 -48.9230 -48.9023 -48.8977 -48.8749 -48.8638
   -48.8627 -48.8466 -48.8449 -48.8344 -48.8325 -48.8316 -48.8291 -48.8268
   -48.8241 -48.8232 -48.8193 -48.8122 -48.8118 -48.6320 -48.6267 -48.6244
   -11.9346  -5.9218  -4.6204  -3.9699  -3.6526  -3.6503  -3.5303  -3.4388
    -3.3500  -3.3363  -3.3260  -3.0625  -3.0107  -2.9286  -2.9109  -2.8905
    -2.8655  -2.5248  -2.4449  -2.4419  -2.4347  -2.4066  -2.3822  -2.3601
    -2.2947  -2.2843  -2.1936  -2.1781  -2.1603  -2.0895  -2.0853  -2.0721
    -2.0561  -2.0433  -2.0194  -1.9970  -1.8528  -1.8331  -1.7847  -1.7666
    -1.7300  -1.4667  -1.4632  -1.4363  -1.3920  -1.3792  -1.3387  -1.3268
    -1.1951  -1.1750  -1.1171  -1.0955  -1.0658  -1.0089  -0.9857  -0.7375
    -0.6364  -0.6339  -0.6068  -0.6053  -0.5851  -0.5073  -0.5031  -0.4837
    -0.4577  -0.4533  -0.4346  -0.3877  -0.3537  -0.3257  -0.3029  -0.2855
    -0.2249  -0.2012  -0.1877  -0.1388  -0.1319  -0.1284  -0.0860  -0.0152
    -0.0067   0.0149   0.0474   0.1079   0.1180   0.1218   0.1379   0.1570
     0.1752   0.1762   0.1999   0.2424   0.2457   0.2808   0.3048   0.3188
     0.3440   0.3594   0.4265   0.4372   0.4752   0.4880   0.5092   0.5590
     0.5608   0.5670   0.5715   0.5832   0.6424   0.6493   0.6784   0.7176
     0.8171   0.8552   1.0560   1.1035   1.1219   1.1242   1.1418   1.1445
     1.1944   1.1958   1.2784   1.3105   1.4334   1.4936   1.5264   1.5540
     1.5572   1.5626   1.5708   1.5853   1.5914   1.5966   1.7023   1.7086
     1.7633   1.7696   1.8329   1.8581   1.9790   1.9841   1.9871   2.0133
     2.0382   2.0733   2.0878   2.1253   2.1288   2.1374   2.2082   2.2117
     2.2360   2.2386   2.2581   2.2603   2.2823   2.3421   2.3639   2.4021
     2.4112   2.5037   2.5351   2.5367   2.5743   2.5911   2.6318   2.6355
     2.6887   2.6923   2.7044   2.7197   2.7261   2.7342   2.7551   2.7691
     2.7867   2.8021   2.8088   2.8688   2.8793   3.0431   3.0559   3.0583
     3.0776   3.0923   3.0928   3.1164   3.1411   3.1464   3.1522   3.1612
     3.1716   3.1741   3.2592   3.2695   3.2977   3.2999   3.3383   3.3700
     3.5841   3.8808   3.8953   4.4119   4.4283   4.4604   4.5485   5.7308
     6.0875   6.0915   6.7344   6.7375   6.9344   6.9347   6.9770   7.9296
     7.9464   7.9939   8.0102   8.3183   8.6920   8.6953   8.8574   8.8631
     8.8930   9.1126   9.1393   9.4067   9.5376   9.5524   9.7706   9.8230
     9.8631  10.2921  10.3187  10.4012  10.6652  10.6784  10.7305  10.7458
    10.7696  10.9830  11.0229  11.0810  11.0894  11.2482  11.3691  11.4598

     occupation numbers 
     1.0000   1.0000   1.0000   1.0000   1.0000   1.0000   1.0000   1.0000
     1.0000   1.0000   1.0000   1.0000   1.0000   1.0000   1.0000   1.0000
     1.0000   1.0000   1.0000   1.0000   1.0000   1.0000   1.0000   1.0000
     1.0000   1.0000   1.0000   1.0000   1.0000   1.0000   1.0000   1.0000
     1.0000   1.0000   1.0000   1.0000   1.0000   1.0000   1.0000   1.0000
     1.0000   1.0000   1.0000   1.0000   1.0000   1.0000   1.0000   1.0000
     1.0000   1.0000   1.0000   1.0000   1.0000   1.0000   1.0000   1.0000
     1.0000   1.0000   1.0000   1.0000   1.0000   1.0000   1.0000   1.0000
     1.0000   1.0000   1.0000   1.0000   1.0000   1.0000   1.0000   1.0000
     1.0000   1.0000   1.0000   1.0000   1.0000   1.0000   1.0000   1.0000
     1.0000   1.0000   1.0000   1.0000   1.0000   1.0000   1.0000   1.0000
     1.0000   1.0000   1.0000   1.0000   1.0000   1.0000   1.0000   1.0000
     1.0000   1.0000   1.0000   1.0000   1.0000   1.0000   1.0000   1.0000
     1.0000   1.0000   1.0000   1.0000   1.0000   1.0000   1.0000   1.0000
     1.0000   1.0000   1.0000   1.0000   1.0000   1.0000   1.0000   1.0000
     1.0000   1.0000   1.0000   1.0000   1.0000   1.0000   1.0000   1.0000
     1.0000   1.0000   1.0000   1.0000   1.0000   1.0000   1.0000   1.0000
     1.0000   1.0000   1.0000   1.0000   1.0000   1.0000   1.0000   1.0000
     1.0000   1.0000   1.0000   1.0000   1.0000   1.0000   1.0000   1.0000
     1.0000   1.0000   1.0000   1.0000   1.0000   1.0000   1.0000   1.0000
     1.0000   1.0000   1.0000   1.0000   1.0000   1.0000   1.0000   1.0000
     1.0000   1.0000   1.0000   1.0000   1.0000   1.0000   1.0000   1.0000
     1.0000   1.0000   1.0000   1.0000   1.0000   1.0000   1.0000   1.0000
     1.0000   1.0000   1.0000   1.0000   1.0000   1.0000   1.0000   1.0000
     1.0000   1.0000   1.0000   1.0000   1.0000   1.0000   1.0000   1.0000
     1.0000   1.0000   1.0000   1.0000   1.0000   1.0000   1.0000   1.0000
     1.0000   1.0000   1.0000   1.0000   1.0000   1.0000   1.0000   1.0000
     1.0000   1.0000   1.0000   1.0000   1.0000   1.0000   1.0000   1.0000
     1.0000   1.0000   1.0000   1.0000   1.0000   1.0000   1.0000   1.0000
     1.0000   1.0000   1.0000   1.0000   1.0000   1.0000   1.0000   1.0000
     1.0000   1.0000   1.0000   1.0000   1.0000   1.0000   1.0000   1.0000
     1.0000   1.0000   1.0000   1.0000   1.0000   1.0000   1.0000   1.0000
     1.0000   1.0000   1.0000   1.0000   1.0000   1.0000   1.0000   1.0000
     1.0000   1.0000   1.0000   1.0000   1.0000   1.0000   1.0000   1.0000
     1.0000   1.0000   1.0000   1.0000   1.0000   1.0000   1.0000   1.0000
     1.0000   1.0000   1.0000   1.0000   1.0000   1.0000   1.0000   1.0000
     1.0000   1.0000   1.0000   1.0000   1.0000   1.0000   1.0000   1.0000
     1.0000   1.0000   1.0000   1.0000   1.0000   1.0000   1.0000   1.0000
     1.0000   1.0000   1.0000   1.0000   1.0000   1.0000   0.9999   0.9999
     0.9997   0.9997   0.9996   0.9995   0.9994   0.9993   0.9990   0.9987
     0.9981   0.9974   0.9970   0.9902   0.9880   0.7562   0.7059   0.6960
     0.6088   0.5370   0.5347   0.4176   0.3040   0.2822   0.2593   0.2264
     0.1919   0.1842   0.0395   0.0324   0.0187   0.0179   0.0084   0.0045
     0.0001   0.0000   0.0000   0.0000   0.0000   0.0000   0.0000   0.0000
     0.0000   0.0000   0.0000   0.0000   0.0000   0.0000   0.0000   0.0000
     0.0000   0.0000   0.0000   0.0000   0.0000   0.0000   0.0000   0.0000
     0.0000   0.0000   0.0000   0.0000   0.0000   0.0000   0.0000   0.0000
     0.0000   0.0000   0.0000   0.0000   0.0000   0.0000   0.0000   0.0000
     0.0000   0.0000   0.0000   0.0000   0.0000   0.0000   0.0000   0.0000

          k = 0.1667 0.0962 0.0000 ( 88230 PWs)   bands (ev):

   -95.3646 -95.3569 -95.3524 -95.3522 -95.3519 -95.3470 -95.3460 -95.3452
   -95.3327 -95.3276 -95.3274 -95.3255 -95.3225 -95.3223 -95.3200 -95.3198
   -95.3160 -95.2187 -94.9652 -94.9587 -94.9580 -94.9252 -94.9181 -94.9162
   -94.9141 -94.9054 -94.9039 -94.9021 -94.9002 -94.8997 -94.8960 -94.8914
   -94.8911 -94.7180 -94.7156 -94.7137 -49.6450 -49.6326 -49.6283 -49.6242
   -49.6142 -49.6104 -49.6078 -49.6054 -49.6030 -49.5899 -49.5881 -49.5863
   -49.5816 -49.5717 -49.5667 -49.5660 -49.5533 -49.5472 -49.5350 -49.5115
   -49.5112 -49.5100 -49.5051 -49.4998 -49.4855 -49.4849 -49.4777 -49.4494
   -49.4491 -49.4391 -49.4365 -49.4362 -49.4302 -49.4282 -49.4270 -49.4160
   -49.4147 -49.4133 -49.4117 -49.4107 -49.4056 -49.4027 -49.4016 -49.3854
   -49.3845 -49.3798 -49.3672 -49.3664 -49.3604 -49.3539 -49.3488 -49.3082
   -49.3034 -49.2915 -49.2841 -49.2814 -49.2702 -49.2524 -49.2489 -49.2456
   -49.2354 -49.2349 -49.2281 -49.2279 -49.2211 -49.2178 -49.1952 -49.1949
   -49.1749 -49.1741 -49.1704 -49.1313 -49.1289 -49.0992 -49.0789 -49.0756
   -49.0672 -49.0664 -49.0650 -49.0545 -49.0539 -49.0439 -49.0094 -49.0029
   -49.0019 -48.9539 -48.9496 -48.9230 -48.9022 -48.8977 -48.8749 -48.8638
   -48.8626 -48.8466 -48.8449 -48.8344 -48.8325 -48.8316 -48.8291 -48.8268
   -48.8241 -48.8232 -48.8192 -48.8122 -48.8118 -48.6320 -48.6267 -48.6244
   -11.9346  -5.9218  -4.6204  -3.9700  -3.6525  -3.6503  -3.5303  -3.4388
    -3.3500  -3.3363  -3.3260  -3.0625  -3.0107  -2.9287  -2.9109  -2.8906
    -2.8655  -2.5247  -2.4449  -2.4419  -2.4347  -2.4066  -2.3822  -2.3601
    -2.2947  -2.2842  -2.1936  -2.1781  -2.1603  -2.0895  -2.0853  -2.0721
    -2.0561  -2.0433  -2.0194  -1.9970  -1.8528  -1.8331  -1.7847  -1.7667
    -1.7299  -1.4667  -1.4632  -1.4363  -1.3920  -1.3792  -1.3388  -1.3268
    -1.1951  -1.1750  -1.1171  -1.0955  -1.0658  -1.0089  -0.9857  -0.7375
    -0.6364  -0.6338  -0.6068  -0.6053  -0.5850  -0.5073  -0.5031  -0.4836
    -0.4577  -0.4534  -0.4346  -0.3876  -0.3537  -0.3257  -0.3029  -0.2855
    -0.2249  -0.2012  -0.1877  -0.1388  -0.1320  -0.1284  -0.0860  -0.0151
    -0.0066   0.0150   0.0473   0.1078   0.1180   0.1218   0.1378   0.1570
     0.1752   0.1761   0.1999   0.2424   0.2457   0.2807   0.3048   0.3188
     0.3441   0.3593   0.4265   0.4372   0.4752   0.4880   0.5092   0.5590
     0.5608   0.5670   0.5715   0.5832   0.6424   0.6493   0.6784   0.7177
     0.8171   0.8552   1.0560   1.1035   1.1219   1.1242   1.1418   1.1444
     1.1944   1.1958   1.2784   1.3105   1.4334   1.4936   1.5264   1.5540
     1.5573   1.5626   1.5707   1.5853   1.5914   1.5965   1.7024   1.7086
     1.7633   1.7696   1.8329   1.8581   1.9790   1.9841   1.9871   2.0133
     2.0382   2.0733   2.0878   2.1252   2.1288   2.1374   2.2082   2.2116
     2.2360   2.2386   2.2582   2.2603   2.2824   2.3421   2.3640   2.4021
     2.4113   2.5037   2.5351   2.5366   2.5743   2.5911   2.6318   2.6355
     2.6887   2.6922   2.7044   2.7197   2.7261   2.7342   2.7551   2.7691
     2.7867   2.8021   2.8088   2.8688   2.8793   3.0431   3.0560   3.0583
     3.0776   3.0923   3.0927   3.1163   3.1412   3.1464   3.1523   3.1611
     3.1716   3.1743   3.2591   3.2707   3.2970   3.3001   3.3360   3.3714
     3.5843   3.8807   3.8953   4.4118   4.4283   4.4604   4.5484   5.7307
     6.0875   6.0915   6.7345   6.7374   6.9344   6.9347   6.9770   7.9296
     7.9464   7.9939   8.0102   8.3182   8.6920   8.6952   8.8580   8.8626
     8.8930   9.1125   9.1394   9.4066   9.5375   9.5526   9.7706   9.8230
     9.8631  10.2921  10.3191  10.4006  10.6654  10.6781  10.7284  10.7466
    10.7711  10.9828  11.0230  11.0810  11.0893  11.2482  11.3708  11.4587

     occupation numbers 
     1.0000   1.0000   1.0000   1.0000   1.0000   1.0000   1.0000   1.0000
     1.0000   1.0000   1.0000   1.0000   1.0000   1.0000   1.0000   1.0000
     1.0000   1.0000   1.0000   1.0000   1.0000   1.0000   1.0000   1.0000
     1.0000   1.0000   1.0000   1.0000   1.0000   1.0000   1.0000   1.0000
     1.0000   1.0000   1.0000   1.0000   1.0000   1.0000   1.0000   1.0000
     1.0000   1.0000   1.0000   1.0000   1.0000   1.0000   1.0000   1.0000
     1.0000   1.0000   1.0000   1.0000   1.0000   1.0000   1.0000   1.0000
     1.0000   1.0000   1.0000   1.0000   1.0000   1.0000   1.0000   1.0000
     1.0000   1.0000   1.0000   1.0000   1.0000   1.0000   1.0000   1.0000
     1.0000   1.0000   1.0000   1.0000   1.0000   1.0000   1.0000   1.0000
     1.0000   1.0000   1.0000   1.0000   1.0000   1.0000   1.0000   1.0000
     1.0000   1.0000   1.0000   1.0000   1.0000   1.0000   1.0000   1.0000
     1.0000   1.0000   1.0000   1.0000   1.0000   1.0000   1.0000   1.0000
     1.0000   1.0000   1.0000   1.0000   1.0000   1.0000   1.0000   1.0000
     1.0000   1.0000   1.0000   1.0000   1.0000   1.0000   1.0000   1.0000
     1.0000   1.0000   1.0000   1.0000   1.0000   1.0000   1.0000   1.0000
     1.0000   1.0000   1.0000   1.0000   1.0000   1.0000   1.0000   1.0000
     1.0000   1.0000   1.0000   1.0000   1.0000   1.0000   1.0000   1.0000
     1.0000   1.0000   1.0000   1.0000   1.0000   1.0000   1.0000   1.0000
     1.0000   1.0000   1.0000   1.0000   1.0000   1.0000   1.0000   1.0000
     1.0000   1.0000   1.0000   1.0000   1.0000   1.0000   1.0000   1.0000
     1.0000   1.0000   1.0000   1.0000   1.0000   1.0000   1.0000   1.0000
     1.0000   1.0000   1.0000   1.0000   1.0000   1.0000   1.0000   1.0000
     1.0000   1.0000   1.0000   1.0000   1.0000   1.0000   1.0000   1.0000
     1.0000   1.0000   1.0000   1.0000   1.0000   1.0000   1.0000   1.0000
     1.0000   1.0000   1.0000   1.0000   1.0000   1.0000   1.0000   1.0000
     1.0000   1.0000   1.0000   1.0000   1.0000   1.0000   1.0000   1.0000
     1.0000   1.0000   1.0000   1.0000   1.0000   1.0000   1.0000   1.0000
     1.0000   1.0000   1.0000   1.0000   1.0000   1.0000   1.0000   1.0000
     1.0000   1.0000   1.0000   1.0000   1.0000   1.0000   1.0000   1.0000
     1.0000   1.0000   1.0000   1.0000   1.0000   1.0000   1.0000   1.0000
     1.0000   1.0000   1.0000   1.0000   1.0000   1.0000   1.0000   1.0000
     1.0000   1.0000   1.0000   1.0000   1.0000   1.0000   1.0000   1.0000
     1.0000   1.0000   1.0000   1.0000   1.0000   1.0000   1.0000   1.0000
     1.0000   1.0000   1.0000   1.0000   1.0000   1.0000   1.0000   1.0000
     1.0000   1.0000   1.0000   1.0000   1.0000   1.0000   1.0000   1.0000
     1.0000   1.0000   1.0000   1.0000   1.0000   1.0000   1.0000   1.0000
     1.0000   1.0000   1.0000   1.0000   1.0000   1.0000   1.0000   1.0000
     1.0000   1.0000   1.0000   1.0000   1.0000   1.0000   0.9999   0.9999
     0.9997   0.9997   0.9996   0.9995   0.9994   0.9993   0.9990   0.9987
     0.9981   0.9974   0.9970   0.9902   0.9880   0.7561   0.7058   0.6960
     0.6086   0.5370   0.5349   0.4176   0.3038   0.2822   0.2591   0.2265
     0.1918   0.1837   0.0396   0.0317   0.0190   0.0178   0.0088   0.0043
     0.0001   0.0000   0.0000   0.0000   0.0000   0.0000   0.0000   0.0000
     0.0000   0.0000   0.0000   0.0000   0.0000   0.0000   0.0000   0.0000
     0.0000   0.0000   0.0000   0.0000   0.0000   0.0000   0.0000   0.0000
     0.0000   0.0000   0.0000   0.0000   0.0000   0.0000   0.0000   0.0000
     0.0000   0.0000   0.0000   0.0000   0.0000   0.0000   0.0000   0.0000
     0.0000   0.0000   0.0000   0.0000   0.0000   0.0000   0.0000   0.0000

          k = 0.1667 0.2887 0.0000 ( 88188 PWs)   bands (ev):

   -95.3638 -95.3577 -95.3528 -95.3522 -95.3517 -95.3473 -95.3457 -95.3450
   -95.3326 -95.3277 -95.3274 -95.3253 -95.3230 -95.3226 -95.3194 -95.3192
   -95.3164 -95.2187 -94.9650 -94.9587 -94.9581 -94.9252 -94.9181 -94.9162
   -94.9132 -94.9070 -94.9046 -94.9014 -94.9002 -94.8993 -94.8955 -94.8916
   -94.8911 -94.7180 -94.7155 -94.7136 -49.6581 -49.6519 -49.6397 -49.6309
   -49.6263 -49.6191 -49.6112 -49.6084 -49.6024 -49.5948 -49.5919 -49.5875
   -49.5844 -49.5754 -49.5651 -49.5360 -49.5311 -49.5253 -49.5114 -49.5074
   -49.5035 -49.4991 -49.4966 -49.4904 -49.4814 -49.4712 -49.4659 -49.4542
   -49.4493 -49.4441 -49.4417 -49.4387 -49.4368 -49.4301 -49.4266 -49.4222
   -49.4179 -49.4150 -49.4110 -49.4077 -49.4034 -49.3994 -49.3976 -49.3926
   -49.3899 -49.3851 -49.3804 -49.3703 -49.3633 -49.3581 -49.3507 -49.3184
   -49.3062 -49.2974 -49.2926 -49.2846 -49.2790 -49.2647 -49.2626 -49.2498
   -49.2461 -49.2423 -49.2343 -49.2170 -49.2162 -49.2137 -49.1895 -49.1546
   -49.1499 -49.1484 -49.1467 -49.1302 -49.1234 -49.1034 -49.0840 -49.0758
   -49.0747 -49.0746 -49.0736 -49.0713 -49.0415 -49.0407 -49.0266 -49.0073
   -48.9921 -48.9575 -48.9450 -48.9265 -48.9114 -48.9009 -48.8742 -48.8641
   -48.8630 -48.8457 -48.8439 -48.8345 -48.8340 -48.8326 -48.8307 -48.8258
   -48.8239 -48.8223 -48.8182 -48.8126 -48.8120 -48.6320 -48.6267 -48.6243
   -11.9346  -5.7173  -4.4233  -4.2034  -4.1583  -3.3307  -3.2796  -3.2544
    -3.2397  -3.2372  -3.2235  -3.1634  -3.0887  -2.9922  -2.9771  -2.7007
    -2.6832  -2.5524  -2.5409  -2.4045  -2.3924  -2.3709  -2.3612  -2.3540
    -2.3303  -2.2782  -2.2624  -2.2299  -2.1814  -2.1713  -2.1362  -2.0780
    -2.0595  -2.0375  -1.9992  -1.9261  -1.8497  -1.7178  -1.6726  -1.6142
    -1.5949  -1.5425  -1.4934  -1.4625  -1.4475  -1.4049  -1.3642  -1.2773
    -1.2435  -1.1533  -1.1378  -1.1282  -1.0621  -1.0506  -1.0158  -0.9418
    -0.8950  -0.7325  -0.6974  -0.6694  -0.6587  -0.6476  -0.5910  -0.5648
    -0.5516  -0.5393  -0.4670  -0.4573  -0.3772  -0.3652  -0.3533  -0.3380
    -0.3304  -0.2167  -0.1924  -0.1625  -0.1481  -0.1260  -0.0815  -0.0353
    -0.0271  -0.0063   0.0036   0.0074   0.0200   0.0510   0.0583   0.0727
     0.1341   0.1383   0.2040   0.2212   0.2522   0.2730   0.2997   0.3049
     0.3475   0.3637   0.3707   0.3835   0.4052   0.4254   0.4406   0.4505
     0.5113   0.5241   0.5366   0.5679   0.6583   0.6871   0.7007   0.7160
     0.7715   0.7795   0.9375   1.0187   1.0359   1.0480   1.0957   1.1167
     1.1590   1.1859   1.2016   1.2173   1.2270   1.2441   1.3422   1.3548
     1.4418   1.5222   1.5791   1.5842   1.6230   1.6459   1.6843   1.7096
     1.7255   1.7348   1.8613   1.8997   1.9032   1.9204   1.9481   1.9573
     2.0062   2.0117   2.0409   2.0492   2.0806   2.0908   2.1113   2.1493
     2.1593   2.1732   2.1895   2.1979   2.2368   2.2826   2.3087   2.3430
     2.5011   2.5472   2.5658   2.6406   2.6659   2.6882   2.7016   2.7703
     2.7893   2.7935   2.8033   2.8208   2.8530   2.8590   2.8938   2.9064
     2.9089   3.0177   3.0297   3.0378   3.0546   3.0788   3.0852   3.0954
     3.1068   3.1554   3.2594   3.2651   3.2799   3.2866   3.3348   3.3478
     3.3616   3.3803   3.4117   3.4974   3.5156   3.7428   3.7479   3.8201
     4.1616   4.1716   4.4588   4.4828   5.0974   5.1698   5.1841   5.5181
     5.5240   5.9665   6.6313   6.6518   6.7680   6.9581   7.1300   7.3929
     7.4222   7.8342   7.9380   7.9493   8.0057   8.1473   8.9782   8.9905
     9.0101   9.0851   9.1377   9.3639   9.4138   9.5351   9.6156   9.7781
     9.8012   9.8254   9.9712  10.1322  10.1669  10.4686  10.5764  10.6054
    10.6722  10.6860  10.7354  10.8817  11.0818  11.1167  11.1909  11.2285

     occupation numbers 
     1.0000   1.0000   1.0000   1.0000   1.0000   1.0000   1.0000   1.0000
     1.0000   1.0000   1.0000   1.0000   1.0000   1.0000   1.0000   1.0000
     1.0000   1.0000   1.0000   1.0000   1.0000   1.0000   1.0000   1.0000
     1.0000   1.0000   1.0000   1.0000   1.0000   1.0000   1.0000   1.0000
     1.0000   1.0000   1.0000   1.0000   1.0000   1.0000   1.0000   1.0000
     1.0000   1.0000   1.0000   1.0000   1.0000   1.0000   1.0000   1.0000
     1.0000   1.0000   1.0000   1.0000   1.0000   1.0000   1.0000   1.0000
     1.0000   1.0000   1.0000   1.0000   1.0000   1.0000   1.0000   1.0000
     1.0000   1.0000   1.0000   1.0000   1.0000   1.0000   1.0000   1.0000
     1.0000   1.0000   1.0000   1.0000   1.0000   1.0000   1.0000   1.0000
     1.0000   1.0000   1.0000   1.0000   1.0000   1.0000   1.0000   1.0000
     1.0000   1.0000   1.0000   1.0000   1.0000   1.0000   1.0000   1.0000
     1.0000   1.0000   1.0000   1.0000   1.0000   1.0000   1.0000   1.0000
     1.0000   1.0000   1.0000   1.0000   1.0000   1.0000   1.0000   1.0000
     1.0000   1.0000   1.0000   1.0000   1.0000   1.0000   1.0000   1.0000
     1.0000   1.0000   1.0000   1.0000   1.0000   1.0000   1.0000   1.0000
     1.0000   1.0000   1.0000   1.0000   1.0000   1.0000   1.0000   1.0000
     1.0000   1.0000   1.0000   1.0000   1.0000   1.0000   1.0000   1.0000
     1.0000   1.0000   1.0000   1.0000   1.0000   1.0000   1.0000   1.0000
     1.0000   1.0000   1.0000   1.0000   1.0000   1.0000   1.0000   1.0000
     1.0000   1.0000   1.0000   1.0000   1.0000   1.0000   1.0000   1.0000
     1.0000   1.0000   1.0000   1.0000   1.0000   1.0000   1.0000   1.0000
     1.0000   1.0000   1.0000   1.0000   1.0000   1.0000   1.0000   1.0000
     1.0000   1.0000   1.0000   1.0000   1.0000   1.0000   1.0000   1.0000
     1.0000   1.0000   1.0000   1.0000   1.0000   1.0000   1.0000   1.0000
     1.0000   1.0000   1.0000   1.0000   1.0000   1.0000   1.0000   1.0000
     1.0000   1.0000   1.0000   1.0000   1.0000   1.0000   1.0000   1.0000
     1.0000   1.0000   1.0000   1.0000   1.0000   1.0000   1.0000   1.0000
     1.0000   1.0000   1.0000   1.0000   1.0000   1.0000   1.0000   1.0000
     1.0000   1.0000   1.0000   1.0000   1.0000   1.0000   1.0000   1.0000
     1.0000   1.0000   1.0000   1.0000   1.0000   1.0000   1.0000   1.0000
     1.0000   1.0000   1.0000   1.0000   1.0000   1.0000   1.0000   1.0000
     1.0000   1.0000   1.0000   1.0000   1.0000   1.0000   1.0000   1.0000
     1.0000   1.0000   1.0000   1.0000   1.0000   1.0000   1.0000   1.0000
     1.0000   1.0000   1.0000   1.0000   1.0000   1.0000   1.0000   1.0000
     1.0000   1.0000   1.0000   1.0000   1.0000   1.0000   1.0000   1.0000
     1.0000   1.0000   1.0000   1.0000   1.0000   1.0000   1.0000   1.0000
     1.0000   1.0000   1.0000   1.0000   1.0000   1.0000   1.0000   1.0000
     1.0000   1.0000   1.0000   0.9999   0.9998   0.9997   0.9997   0.9986
     0.9980   0.9978   0.9973   0.9962   0.9928   0.9920   0.9840   0.9795
     0.9785   0.8375   0.8021   0.7751   0.7116   0.6031   0.5720   0.5214
     0.4649   0.2473   0.0394   0.0353   0.0265   0.0233   0.0090   0.0069
     0.0053   0.0036   0.0019   0.0004   0.0002   0.0000   0.0000   0.0000
     0.0000   0.0000   0.0000   0.0000   0.0000   0.0000   0.0000   0.0000
     0.0000   0.0000   0.0000   0.0000   0.0000   0.0000   0.0000   0.0000
     0.0000   0.0000   0.0000   0.0000   0.0000   0.0000   0.0000   0.0000
     0.0000   0.0000   0.0000   0.0000   0.0000   0.0000   0.0000   0.0000
     0.0000   0.0000   0.0000   0.0000   0.0000   0.0000   0.0000   0.0000
     0.0000   0.0000   0.0000   0.0000   0.0000   0.0000   0.0000   0.0000

          k = 0.1667-0.6736 0.0000 ( 88140 PWs)   bands (ev):

   -95.3629 -95.3589 -95.3532 -95.3521 -95.3515 -95.3474 -95.3454 -95.3448
   -95.3326 -95.3278 -95.3275 -95.3252 -95.3234 -95.3227 -95.3190 -95.3183
   -95.3172 -95.2187 -94.9649 -94.9587 -94.9583 -94.9252 -94.9181 -94.9162
   -94.9116 -94.9090 -94.9053 -94.9011 -94.8997 -94.8990 -94.8952 -94.8918
   -94.8910 -94.7180 -94.7155 -94.7136 -49.6716 -49.6576 -49.6514 -49.6414
   -49.6316 -49.6254 -49.6180 -49.6101 -49.6035 -49.5980 -49.5957 -49.5920
   -49.5816 -49.5690 -49.5654 -49.5168 -49.5105 -49.5073 -49.5039 -49.4973
   -49.4943 -49.4888 -49.4832 -49.4760 -49.4705 -49.4675 -49.4609 -49.4560
   -49.4504 -49.4462 -49.4424 -49.4378 -49.4332 -49.4320 -49.4292 -49.4264
   -49.4224 -49.4162 -49.4123 -49.4109 -49.4062 -49.4016 -49.3974 -49.3950
   -49.3917 -49.3909 -49.3883 -49.3827 -49.3716 -49.3640 -49.3503 -49.3268
   -49.3105 -49.3052 -49.2965 -49.2888 -49.2824 -49.2783 -49.2665 -49.2604
   -49.2533 -49.2391 -49.2359 -49.2296 -49.2070 -49.2013 -49.1627 -49.1349
   -49.1337 -49.1266 -49.1220 -49.1189 -49.1071 -49.1012 -49.0981 -49.0931
   -49.0874 -49.0803 -49.0790 -49.0729 -49.0586 -49.0423 -49.0278 -49.0158
   -48.9812 -48.9573 -48.9428 -48.9316 -48.9213 -48.9051 -48.8735 -48.8646
   -48.8632 -48.8450 -48.8415 -48.8373 -48.8344 -48.8327 -48.8321 -48.8254
   -48.8228 -48.8218 -48.8176 -48.8131 -48.8121 -48.6321 -48.6267 -48.6242
   -11.9346  -5.3262  -4.7870  -4.2905  -4.0467  -3.5711  -3.2180  -3.1684
    -3.1575  -3.0520  -3.0139  -2.9539  -2.9008  -2.8381  -2.8267  -2.7100
    -2.6358  -2.6291  -2.5621  -2.5230  -2.4902  -2.4777  -2.4561  -2.4210
    -2.3659  -2.3289  -2.2690  -2.2538  -2.1943  -2.1520  -2.1003  -2.0380
    -2.0177  -1.9965  -1.9471  -1.9296  -1.8289  -1.7861  -1.7087  -1.6632
    -1.5269  -1.4699  -1.4513  -1.3836  -1.3657  -1.3560  -1.3402  -1.2617
    -1.2485  -1.2046  -1.1658  -1.1105  -1.0492  -1.0186  -0.9978  -0.9655
    -0.9459  -0.9199  -0.8705  -0.8422  -0.8032  -0.7555  -0.6967  -0.6734
    -0.6680  -0.6186  -0.5901  -0.4873  -0.4558  -0.4304  -0.3751  -0.3583
    -0.3516  -0.3267  -0.2949  -0.2791  -0.2433  -0.2175  -0.1843  -0.1680
    -0.0977  -0.0757  -0.0572  -0.0338  -0.0295   0.0063   0.0867   0.1094
     0.1293   0.1410   0.1601   0.2165   0.2260   0.2489   0.2728   0.2817
     0.2973   0.3109   0.3325   0.3699   0.3797   0.3972   0.4108   0.4442
     0.4816   0.5087   0.5327   0.5708   0.6258   0.6569   0.6812   0.7704
     0.7874   0.8217   0.9183   0.9911   1.0204   1.0503   1.0782   1.0999
     1.1349   1.1580   1.1641   1.2253   1.2514   1.2643   1.2862   1.3096
     1.3497   1.3880   1.3972   1.4530   1.4970   1.5352   1.6553   1.6765
     1.6934   1.7227   1.7711   1.8096   1.8185   1.8301   1.8584   1.8839
     1.8991   1.9336   2.0039   2.0331   2.0617   2.0717   2.0793   2.0956
     2.1262   2.1366   2.1476   2.2624   2.2952   2.3542   2.4194   2.4392
     2.5220   2.5513   2.5689   2.6291   2.6374   2.6641   2.7527   2.7941
     2.8259   2.8653   2.8806   2.8919   2.8953   2.9068   2.9783   3.0041
     3.0086   3.0472   3.0569   3.0808   3.1289   3.1404   3.2064   3.2127
     3.2631   3.2940   3.3045   3.3374   3.3413   3.3645   3.3852   3.3939
     3.4458   3.4703   3.5171   4.1184   4.3770   4.3990   4.4562   4.5198
     4.8099   4.9601   5.0318   5.3307   5.3782   5.4075   5.4510   5.5486
     5.8048   5.9372   6.0091   6.2530   6.5458   6.6161   6.6723   6.8094
     6.9780   7.2875   7.4637   7.7145   7.7681   7.7844   8.5249   8.7791
     8.8020   8.8611   9.0417   9.2788   9.2875   9.3746   9.5984   9.6590
     9.6693   9.9047  10.0122  10.0341  10.1955  10.2421  10.2600  10.5630
    10.6156  10.7629  10.9573  11.0036  11.0995  11.1246  11.1858  11.2261

     occupation numbers 
     1.0000   1.0000   1.0000   1.0000   1.0000   1.0000   1.0000   1.0000
     1.0000   1.0000   1.0000   1.0000   1.0000   1.0000   1.0000   1.0000
     1.0000   1.0000   1.0000   1.0000   1.0000   1.0000   1.0000   1.0000
     1.0000   1.0000   1.0000   1.0000   1.0000   1.0000   1.0000   1.0000
     1.0000   1.0000   1.0000   1.0000   1.0000   1.0000   1.0000   1.0000
     1.0000   1.0000   1.0000   1.0000   1.0000   1.0000   1.0000   1.0000
     1.0000   1.0000   1.0000   1.0000   1.0000   1.0000   1.0000   1.0000
     1.0000   1.0000   1.0000   1.0000   1.0000   1.0000   1.0000   1.0000
     1.0000   1.0000   1.0000   1.0000   1.0000   1.0000   1.0000   1.0000
     1.0000   1.0000   1.0000   1.0000   1.0000   1.0000   1.0000   1.0000
     1.0000   1.0000   1.0000   1.0000   1.0000   1.0000   1.0000   1.0000
     1.0000   1.0000   1.0000   1.0000   1.0000   1.0000   1.0000   1.0000
     1.0000   1.0000   1.0000   1.0000   1.0000   1.0000   1.0000   1.0000
     1.0000   1.0000   1.0000   1.0000   1.0000   1.0000   1.0000   1.0000
     1.0000   1.0000   1.0000   1.0000   1.0000   1.0000   1.0000   1.0000
     1.0000   1.0000   1.0000   1.0000   1.0000   1.0000   1.0000   1.0000
     1.0000   1.0000   1.0000   1.0000   1.0000   1.0000   1.0000   1.0000
     1.0000   1.0000   1.0000   1.0000   1.0000   1.0000   1.0000   1.0000
     1.0000   1.0000   1.0000   1.0000   1.0000   1.0000   1.0000   1.0000
     1.0000   1.0000   1.0000   1.0000   1.0000   1.0000   1.0000   1.0000
     1.0000   1.0000   1.0000   1.0000   1.0000   1.0000   1.0000   1.0000
     1.0000   1.0000   1.0000   1.0000   1.0000   1.0000   1.0000   1.0000
     1.0000   1.0000   1.0000   1.0000   1.0000   1.0000   1.0000   1.0000
     1.0000   1.0000   1.0000   1.0000   1.0000   1.0000   1.0000   1.0000
     1.0000   1.0000   1.0000   1.0000   1.0000   1.0000   1.0000   1.0000
     1.0000   1.0000   1.0000   1.0000   1.0000   1.0000   1.0000   1.0000
     1.0000   1.0000   1.0000   1.0000   1.0000   1.0000   1.0000   1.0000
     1.0000   1.0000   1.0000   1.0000   1.0000   1.0000   1.0000   1.0000
     1.0000   1.0000   1.0000   1.0000   1.0000   1.0000   1.0000   1.0000
     1.0000   1.0000   1.0000   1.0000   1.0000   1.0000   1.0000   1.0000
     1.0000   1.0000   1.0000   1.0000   1.0000   1.0000   1.0000   1.0000
     1.0000   1.0000   1.0000   1.0000   1.0000   1.0000   1.0000   1.0000
     1.0000   1.0000   1.0000   1.0000   1.0000   1.0000   1.0000   1.0000
     1.0000   1.0000   1.0000   1.0000   1.0000   1.0000   1.0000   1.0000
     1.0000   1.0000   1.0000   1.0000   1.0000   1.0000   1.0000   1.0000
     1.0000   1.0000   1.0000   1.0000   1.0000   1.0000   1.0000   1.0000
     1.0000   1.0000   1.0000   1.0000   1.0000   1.0000   1.0000   1.0000
     1.0000   1.0000   1.0000   1.0000   1.0000   1.0000   1.0000   1.0000
     1.0000   1.0000   1.0000   0.9999   0.9999   0.9998   0.9990   0.9978
     0.9958   0.9909   0.9877   0.9846   0.9835   0.9793   0.9190   0.8713
     0.8608   0.7410   0.7019   0.5936   0.3580   0.3069   0.1058   0.0946
     0.0367   0.0201   0.0164   0.0086   0.0079   0.0050   0.0033   0.0028
     0.0010   0.0006   0.0002   0.0000   0.0000   0.0000   0.0000   0.0000
     0.0000   0.0000   0.0000   0.0000   0.0000   0.0000   0.0000   0.0000
     0.0000   0.0000   0.0000   0.0000   0.0000   0.0000   0.0000   0.0000
     0.0000   0.0000   0.0000   0.0000   0.0000   0.0000   0.0000   0.0000
     0.0000   0.0000   0.0000   0.0000   0.0000   0.0000   0.0000   0.0000
     0.0000   0.0000   0.0000   0.0000   0.0000   0.0000   0.0000   0.0000
     0.0000   0.0000   0.0000   0.0000   0.0000   0.0000   0.0000   0.0000

          k = 0.1667-0.4811 0.0000 ( 88140 PWs)   bands (ev):

   -95.3629 -95.3589 -95.3532 -95.3521 -95.3515 -95.3474 -95.3454 -95.3448
   -95.3326 -95.3278 -95.3275 -95.3253 -95.3234 -95.3227 -95.3190 -95.3183
   -95.3172 -95.2187 -94.9649 -94.9587 -94.9583 -94.9252 -94.9181 -94.9162
   -94.9116 -94.9090 -94.9053 -94.9012 -94.8997 -94.8990 -94.8952 -94.8918
   -94.8910 -94.7180 -94.7155 -94.7136 -49.6716 -49.6576 -49.6514 -49.6414
   -49.6316 -49.6254 -49.6180 -49.6101 -49.6035 -49.5980 -49.5957 -49.5920
   -49.5816 -49.5690 -49.5654 -49.5168 -49.5105 -49.5072 -49.5039 -49.4973
   -49.4944 -49.4888 -49.4832 -49.4760 -49.4705 -49.4675 -49.4609 -49.4560
   -49.4504 -49.4462 -49.4424 -49.4378 -49.4332 -49.4319 -49.4292 -49.4264
   -49.4224 -49.4162 -49.4123 -49.4110 -49.4062 -49.4016 -49.3974 -49.3950
   -49.3917 -49.3909 -49.3883 -49.3827 -49.3716 -49.3640 -49.3503 -49.3268
   -49.3105 -49.3052 -49.2965 -49.2888 -49.2824 -49.2783 -49.2665 -49.2604
   -49.2533 -49.2391 -49.2359 -49.2296 -49.2070 -49.2013 -49.1627 -49.1349
   -49.1337 -49.1266 -49.1220 -49.1189 -49.1071 -49.1012 -49.0981 -49.0931
   -49.0874 -49.0803 -49.0790 -49.0729 -49.0586 -49.0423 -49.0278 -49.0158
   -48.9812 -48.9572 -48.9428 -48.9316 -48.9213 -48.9051 -48.8735 -48.8646
   -48.8632 -48.8450 -48.8415 -48.8373 -48.8344 -48.8327 -48.8321 -48.8254
   -48.8228 -48.8218 -48.8176 -48.8131 -48.8121 -48.6321 -48.6267 -48.6242
   -11.9346  -5.3262  -4.7870  -4.2905  -4.0467  -3.5711  -3.2180  -3.1684
    -3.1575  -3.0520  -3.0139  -2.9539  -2.9008  -2.8381  -2.8267  -2.7101
    -2.6357  -2.6291  -2.5621  -2.5230  -2.4901  -2.4777  -2.4561  -2.4210
    -2.3659  -2.3289  -2.2690  -2.2538  -2.1943  -2.1520  -2.1003  -2.0380
    -2.0177  -1.9965  -1.9471  -1.9296  -1.8289  -1.7861  -1.7087  -1.6631
    -1.5269  -1.4699  -1.4513  -1.3836  -1.3657  -1.3560  -1.3402  -1.2617
    -1.2485  -1.2046  -1.1658  -1.1105  -1.0492  -1.0186  -0.9978  -0.9655
    -0.9459  -0.9199  -0.8705  -0.8422  -0.8032  -0.7555  -0.6967  -0.6734
    -0.6681  -0.6186  -0.5901  -0.4873  -0.4558  -0.4304  -0.3751  -0.3583
    -0.3516  -0.3267  -0.2949  -0.2791  -0.2433  -0.2175  -0.1843  -0.1680
    -0.0977  -0.0757  -0.0572  -0.0338  -0.0295   0.0062   0.0867   0.1095
     0.1293   0.1410   0.1601   0.2165   0.2260   0.2489   0.2728   0.2817
     0.2973   0.3109   0.3325   0.3699   0.3797   0.3972   0.4108   0.4442
     0.4816   0.5087   0.5327   0.5708   0.6259   0.6568   0.6812   0.7704
     0.7874   0.8217   0.9184   0.9911   1.0204   1.0503   1.0782   1.0999
     1.1349   1.1581   1.1640   1.2253   1.2514   1.2643   1.2862   1.3096
     1.3498   1.3880   1.3972   1.4530   1.4970   1.5352   1.6553   1.6765
     1.6934   1.7227   1.7711   1.8096   1.8185   1.8301   1.8583   1.8838
     1.8991   1.9337   2.0039   2.0330   2.0618   2.0716   2.0793   2.0955
     2.1264   2.1363   2.1478   2.2624   2.2952   2.3542   2.4193   2.4393
     2.5220   2.5513   2.5689   2.6291   2.6373   2.6641   2.7527   2.7941
     2.8259   2.8653   2.8806   2.8918   2.8953   2.9068   2.9784   3.0041
     3.0086   3.0472   3.0568   3.0808   3.1290   3.1404   3.2064   3.2130
     3.2625   3.2929   3.3045   3.3385   3.3421   3.3645   3.3846   3.3939
     3.4458   3.4703   3.5170   4.1184   4.3769   4.3991   4.4562   4.5198
     4.8099   4.9601   5.0318   5.3307   5.3782   5.4074   5.4510   5.5486
     5.8048   5.9372   6.0091   6.2529   6.5458   6.6161   6.6723   6.8094
     6.9780   7.2875   7.4637   7.7146   7.7681   7.7843   8.5249   8.7791
     8.8020   8.8611   9.0417   9.2787   9.2876   9.3747   9.5985   9.6590
     9.6694   9.9046  10.0121  10.0341  10.1955  10.2420  10.2600  10.5626
    10.6156  10.7630  10.9580  11.0037  11.0996  11.1246  11.1849  11.2260

     occupation numbers 
     1.0000   1.0000   1.0000   1.0000   1.0000   1.0000   1.0000   1.0000
     1.0000   1.0000   1.0000   1.0000   1.0000   1.0000   1.0000   1.0000
     1.0000   1.0000   1.0000   1.0000   1.0000   1.0000   1.0000   1.0000
     1.0000   1.0000   1.0000   1.0000   1.0000   1.0000   1.0000   1.0000
     1.0000   1.0000   1.0000   1.0000   1.0000   1.0000   1.0000   1.0000
     1.0000   1.0000   1.0000   1.0000   1.0000   1.0000   1.0000   1.0000
     1.0000   1.0000   1.0000   1.0000   1.0000   1.0000   1.0000   1.0000
     1.0000   1.0000   1.0000   1.0000   1.0000   1.0000   1.0000   1.0000
     1.0000   1.0000   1.0000   1.0000   1.0000   1.0000   1.0000   1.0000
     1.0000   1.0000   1.0000   1.0000   1.0000   1.0000   1.0000   1.0000
     1.0000   1.0000   1.0000   1.0000   1.0000   1.0000   1.0000   1.0000
     1.0000   1.0000   1.0000   1.0000   1.0000   1.0000   1.0000   1.0000
     1.0000   1.0000   1.0000   1.0000   1.0000   1.0000   1.0000   1.0000
     1.0000   1.0000   1.0000   1.0000   1.0000   1.0000   1.0000   1.0000
     1.0000   1.0000   1.0000   1.0000   1.0000   1.0000   1.0000   1.0000
     1.0000   1.0000   1.0000   1.0000   1.0000   1.0000   1.0000   1.0000
     1.0000   1.0000   1.0000   1.0000   1.0000   1.0000   1.0000   1.0000
     1.0000   1.0000   1.0000   1.0000   1.0000   1.0000   1.0000   1.0000
     1.0000   1.0000   1.0000   1.0000   1.0000   1.0000   1.0000   1.0000
     1.0000   1.0000   1.0000   1.0000   1.0000   1.0000   1.0000   1.0000
     1.0000   1.0000   1.0000   1.0000   1.0000   1.0000   1.0000   1.0000
     1.0000   1.0000   1.0000   1.0000   1.0000   1.0000   1.0000   1.0000
     1.0000   1.0000   1.0000   1.0000   1.0000   1.0000   1.0000   1.0000
     1.0000   1.0000   1.0000   1.0000   1.0000   1.0000   1.0000   1.0000
     1.0000   1.0000   1.0000   1.0000   1.0000   1.0000   1.0000   1.0000
     1.0000   1.0000   1.0000   1.0000   1.0000   1.0000   1.0000   1.0000
     1.0000   1.0000   1.0000   1.0000   1.0000   1.0000   1.0000   1.0000
     1.0000   1.0000   1.0000   1.0000   1.0000   1.0000   1.0000   1.0000
     1.0000   1.0000   1.0000   1.0000   1.0000   1.0000   1.0000   1.0000
     1.0000   1.0000   1.0000   1.0000   1.0000   1.0000   1.0000   1.0000
     1.0000   1.0000   1.0000   1.0000   1.0000   1.0000   1.0000   1.0000
     1.0000   1.0000   1.0000   1.0000   1.0000   1.0000   1.0000   1.0000
     1.0000   1.0000   1.0000   1.0000   1.0000   1.0000   1.0000   1.0000
     1.0000   1.0000   1.0000   1.0000   1.0000   1.0000   1.0000   1.0000
     1.0000   1.0000   1.0000   1.0000   1.0000   1.0000   1.0000   1.0000
     1.0000   1.0000   1.0000   1.0000   1.0000   1.0000   1.0000   1.0000
     1.0000   1.0000   1.0000   1.0000   1.0000   1.0000   1.0000   1.0000
     1.0000   1.0000   1.0000   1.0000   1.0000   1.0000   1.0000   1.0000
     1.0000   1.0000   1.0000   0.9999   0.9999   0.9998   0.9990   0.9978
     0.9958   0.9909   0.9877   0.9846   0.9835   0.9793   0.9189   0.8712
     0.8608   0.7408   0.7021   0.5937   0.3578   0.3071   0.1058   0.0940
     0.0371   0.0206   0.0164   0.0084   0.0078   0.0050   0.0033   0.0028
     0.0010   0.0006   0.0002   0.0000   0.0000   0.0000   0.0000   0.0000
     0.0000   0.0000   0.0000   0.0000   0.0000   0.0000   0.0000   0.0000
     0.0000   0.0000   0.0000   0.0000   0.0000   0.0000   0.0000   0.0000
     0.0000   0.0000   0.0000   0.0000   0.0000   0.0000   0.0000   0.0000
     0.0000   0.0000   0.0000   0.0000   0.0000   0.0000   0.0000   0.0000
     0.0000   0.0000   0.0000   0.0000   0.0000   0.0000   0.0000   0.0000
     0.0000   0.0000   0.0000   0.0000   0.0000   0.0000   0.0000   0.0000

          k = 0.1667-0.2887 0.0000 ( 88188 PWs)   bands (ev):

   -95.3638 -95.3578 -95.3528 -95.3521 -95.3517 -95.3473 -95.3456 -95.3450
   -95.3326 -95.3277 -95.3274 -95.3254 -95.3230 -95.3226 -95.3194 -95.3192
   -95.3164 -95.2187 -94.9650 -94.9587 -94.9582 -94.9252 -94.9181 -94.9162
   -94.9132 -94.9070 -94.9046 -94.9015 -94.9002 -94.8992 -94.8956 -94.8916
   -94.8911 -94.7180 -94.7155 -94.7136 -49.6582 -49.6519 -49.6397 -49.6309
   -49.6263 -49.6191 -49.6112 -49.6085 -49.6025 -49.5948 -49.5919 -49.5875
   -49.5844 -49.5754 -49.5651 -49.5360 -49.5312 -49.5253 -49.5113 -49.5074
   -49.5035 -49.4991 -49.4966 -49.4904 -49.4814 -49.4712 -49.4659 -49.4542
   -49.4493 -49.4441 -49.4417 -49.4387 -49.4368 -49.4301 -49.4266 -49.4222
   -49.4179 -49.4150 -49.4110 -49.4077 -49.4034 -49.3994 -49.3976 -49.3926
   -49.3899 -49.3851 -49.3805 -49.3703 -49.3633 -49.3581 -49.3507 -49.3184
   -49.3062 -49.2974 -49.2926 -49.2846 -49.2790 -49.2647 -49.2626 -49.2498
   -49.2461 -49.2423 -49.2343 -49.2170 -49.2162 -49.2137 -49.1895 -49.1546
   -49.1498 -49.1484 -49.1467 -49.1302 -49.1234 -49.1034 -49.0840 -49.0758
   -49.0748 -49.0746 -49.0736 -49.0714 -49.0415 -49.0407 -49.0266 -49.0073
   -48.9921 -48.9574 -48.9451 -48.9265 -48.9114 -48.9009 -48.8742 -48.8641
   -48.8630 -48.8457 -48.8439 -48.8345 -48.8340 -48.8326 -48.8307 -48.8258
   -48.8239 -48.8222 -48.8182 -48.8126 -48.8120 -48.6320 -48.6267 -48.6243
   -11.9346  -5.7173  -4.4233  -4.2034  -4.1583  -3.3307  -3.2796  -3.2544
    -3.2397  -3.2372  -3.2235  -3.1634  -3.0887  -2.9922  -2.9771  -2.7007
    -2.6832  -2.5524  -2.5409  -2.4045  -2.3924  -2.3709  -2.3612  -2.3541
    -2.3303  -2.2782  -2.2624  -2.2299  -2.1814  -2.1714  -2.1362  -2.0780
    -2.0595  -2.0375  -1.9992  -1.9261  -1.8497  -1.7178  -1.6726  -1.6142
    -1.5950  -1.5425  -1.4934  -1.4625  -1.4475  -1.4049  -1.3642  -1.2774
    -1.2435  -1.1533  -1.1378  -1.1282  -1.0621  -1.0506  -1.0158  -0.9418
    -0.8950  -0.7325  -0.6974  -0.6694  -0.6588  -0.6476  -0.5910  -0.5648
    -0.5516  -0.5393  -0.4670  -0.4573  -0.3772  -0.3652  -0.3533  -0.3380
    -0.3304  -0.2167  -0.1924  -0.1625  -0.1481  -0.1260  -0.0815  -0.0353
    -0.0271  -0.0063   0.0036   0.0074   0.0200   0.0510   0.0584   0.0727
     0.1341   0.1383   0.2040   0.2212   0.2522   0.2729   0.2998   0.3049
     0.3475   0.3637   0.3707   0.3835   0.4052   0.4255   0.4406   0.4505
     0.5114   0.5241   0.5366   0.5679   0.6583   0.6872   0.7006   0.7159
     0.7715   0.7795   0.9375   1.0187   1.0359   1.0480   1.0957   1.1167
     1.1590   1.1859   1.2016   1.2173   1.2270   1.2442   1.3422   1.3548
     1.4418   1.5223   1.5791   1.5842   1.6230   1.6459   1.6843   1.7096
     1.7255   1.7348   1.8613   1.8997   1.9032   1.9204   1.9481   1.9573
     2.0062   2.0118   2.0409   2.0491   2.0808   2.0907   2.1113   2.1490
     2.1595   2.1731   2.1894   2.1979   2.2368   2.2826   2.3087   2.3430
     2.5011   2.5473   2.5658   2.6406   2.6659   2.6882   2.7016   2.7703
     2.7893   2.7935   2.8033   2.8207   2.8530   2.8590   2.8938   2.9064
     2.9089   3.0177   3.0298   3.0378   3.0546   3.0788   3.0852   3.0954
     3.1067   3.1554   3.2579   3.2651   3.2801   3.2872   3.3367   3.3464
     3.3616   3.3804   3.4117   3.4974   3.5155   3.7428   3.7479   3.8201
     4.1616   4.1715   4.4588   4.4828   5.0973   5.1699   5.1841   5.5179
     5.5242   5.9665   6.6313   6.6518   6.7680   6.9581   7.1300   7.3928
     7.4222   7.8341   7.9382   7.9492   8.0057   8.1473   8.9782   8.9904
     9.0101   9.0850   9.1378   9.3639   9.4138   9.5351   9.6155   9.7779
     9.8014   9.8253   9.9714  10.1349  10.1638  10.4688  10.5763  10.6055
    10.6722  10.6860  10.7355  10.8822  11.0769  11.1195  11.1923  11.2287

     occupation numbers 
     1.0000   1.0000   1.0000   1.0000   1.0000   1.0000   1.0000   1.0000
     1.0000   1.0000   1.0000   1.0000   1.0000   1.0000   1.0000   1.0000
     1.0000   1.0000   1.0000   1.0000   1.0000   1.0000   1.0000   1.0000
     1.0000   1.0000   1.0000   1.0000   1.0000   1.0000   1.0000   1.0000
     1.0000   1.0000   1.0000   1.0000   1.0000   1.0000   1.0000   1.0000
     1.0000   1.0000   1.0000   1.0000   1.0000   1.0000   1.0000   1.0000
     1.0000   1.0000   1.0000   1.0000   1.0000   1.0000   1.0000   1.0000
     1.0000   1.0000   1.0000   1.0000   1.0000   1.0000   1.0000   1.0000
     1.0000   1.0000   1.0000   1.0000   1.0000   1.0000   1.0000   1.0000
     1.0000   1.0000   1.0000   1.0000   1.0000   1.0000   1.0000   1.0000
     1.0000   1.0000   1.0000   1.0000   1.0000   1.0000   1.0000   1.0000
     1.0000   1.0000   1.0000   1.0000   1.0000   1.0000   1.0000   1.0000
     1.0000   1.0000   1.0000   1.0000   1.0000   1.0000   1.0000   1.0000
     1.0000   1.0000   1.0000   1.0000   1.0000   1.0000   1.0000   1.0000
     1.0000   1.0000   1.0000   1.0000   1.0000   1.0000   1.0000   1.0000
     1.0000   1.0000   1.0000   1.0000   1.0000   1.0000   1.0000   1.0000
     1.0000   1.0000   1.0000   1.0000   1.0000   1.0000   1.0000   1.0000
     1.0000   1.0000   1.0000   1.0000   1.0000   1.0000   1.0000   1.0000
     1.0000   1.0000   1.0000   1.0000   1.0000   1.0000   1.0000   1.0000
     1.0000   1.0000   1.0000   1.0000   1.0000   1.0000   1.0000   1.0000
     1.0000   1.0000   1.0000   1.0000   1.0000   1.0000   1.0000   1.0000
     1.0000   1.0000   1.0000   1.0000   1.0000   1.0000   1.0000   1.0000
     1.0000   1.0000   1.0000   1.0000   1.0000   1.0000   1.0000   1.0000
     1.0000   1.0000   1.0000   1.0000   1.0000   1.0000   1.0000   1.0000
     1.0000   1.0000   1.0000   1.0000   1.0000   1.0000   1.0000   1.0000
     1.0000   1.0000   1.0000   1.0000   1.0000   1.0000   1.0000   1.0000
     1.0000   1.0000   1.0000   1.0000   1.0000   1.0000   1.0000   1.0000
     1.0000   1.0000   1.0000   1.0000   1.0000   1.0000   1.0000   1.0000
     1.0000   1.0000   1.0000   1.0000   1.0000   1.0000   1.0000   1.0000
     1.0000   1.0000   1.0000   1.0000   1.0000   1.0000   1.0000   1.0000
     1.0000   1.0000   1.0000   1.0000   1.0000   1.0000   1.0000   1.0000
     1.0000   1.0000   1.0000   1.0000   1.0000   1.0000   1.0000   1.0000
     1.0000   1.0000   1.0000   1.0000   1.0000   1.0000   1.0000   1.0000
     1.0000   1.0000   1.0000   1.0000   1.0000   1.0000   1.0000   1.0000
     1.0000   1.0000   1.0000   1.0000   1.0000   1.0000   1.0000   1.0000
     1.0000   1.0000   1.0000   1.0000   1.0000   1.0000   1.0000   1.0000
     1.0000   1.0000   1.0000   1.0000   1.0000   1.0000   1.0000   1.0000
     1.0000   1.0000   1.0000   1.0000   1.0000   1.0000   1.0000   1.0000
     1.0000   1.0000   1.0000   0.9999   0.9998   0.9997   0.9997   0.9986
     0.9980   0.9978   0.9973   0.9962   0.9928   0.9920   0.9840   0.9795
     0.9785   0.8375   0.8021   0.7754   0.7113   0.6028   0.5718   0.5215
     0.4650   0.2473   0.0405   0.0353   0.0264   0.0230   0.0087   0.0071
     0.0053   0.0036   0.0019   0.0004   0.0002   0.0000   0.0000   0.0000
     0.0000   0.0000   0.0000   0.0000   0.0000   0.0000   0.0000   0.0000
     0.0000   0.0000   0.0000   0.0000   0.0000   0.0000   0.0000   0.0000
     0.0000   0.0000   0.0000   0.0000   0.0000   0.0000   0.0000   0.0000
     0.0000   0.0000   0.0000   0.0000   0.0000   0.0000   0.0000   0.0000
     0.0000   0.0000   0.0000   0.0000   0.0000   0.0000   0.0000   0.0000
     0.0000   0.0000   0.0000   0.0000   0.0000   0.0000   0.0000   0.0000

          k = 0.3333-0.1925 0.0000 ( 88170 PWs)   bands (ev):

   -95.3636 -95.3581 -95.3527 -95.3522 -95.3519 -95.3473 -95.3458 -95.3447
   -95.3326 -95.3277 -95.3275 -95.3253 -95.3231 -95.3227 -95.3194 -95.3187
   -95.3167 -95.2187 -94.9650 -94.9588 -94.9581 -94.9252 -94.9181 -94.9162
   -94.9128 -94.9078 -94.9042 -94.9021 -94.8997 -94.8991 -94.8954 -94.8915
   -94.8912 -94.7180 -94.7155 -94.7136 -49.6664 -49.6468 -49.6417 -49.6367
   -49.6230 -49.6203 -49.6176 -49.6162 -49.6067 -49.5983 -49.5976 -49.5913
   -49.5772 -49.5657 -49.5495 -49.5484 -49.5233 -49.5208 -49.5045 -49.5020
   -49.4964 -49.4936 -49.4933 -49.4913 -49.4789 -49.4786 -49.4596 -49.4548
   -49.4513 -49.4460 -49.4381 -49.4373 -49.4365 -49.4295 -49.4236 -49.4229
   -49.4165 -49.4153 -49.4139 -49.4107 -49.4039 -49.4031 -49.3958 -49.3950
   -49.3914 -49.3846 -49.3805 -49.3730 -49.3708 -49.3612 -49.3472 -49.3236
   -49.3066 -49.3017 -49.2905 -49.2903 -49.2753 -49.2723 -49.2525 -49.2513
   -49.2474 -49.2467 -49.2433 -49.2430 -49.2036 -49.1846 -49.1765 -49.1762
   -49.1427 -49.1423 -49.1278 -49.1262 -49.1215 -49.1054 -49.0853 -49.0850
   -49.0831 -49.0753 -49.0721 -49.0583 -49.0577 -49.0350 -49.0313 -49.0093
   -48.9891 -48.9566 -48.9440 -48.9276 -48.9174 -48.9007 -48.8740 -48.8646
   -48.8627 -48.8454 -48.8433 -48.8355 -48.8345 -48.8325 -48.8297 -48.8273
   -48.8229 -48.8220 -48.8179 -48.8126 -48.8122 -48.6321 -48.6266 -48.6243
   -11.9346  -5.6177  -4.5573  -4.3233  -3.6988  -3.6980  -3.4063  -3.2939
    -3.2294  -3.1596  -3.0941  -3.0569  -3.0550  -2.8312  -2.7992  -2.7468
    -2.7400  -2.6392  -2.5036  -2.4478  -2.4093  -2.4073  -2.3719  -2.3659
    -2.3461  -2.3372  -2.2939  -2.2634  -2.1827  -2.1594  -2.1439  -2.1297
    -1.9274  -1.9235  -1.8827  -1.8686  -1.8423  -1.8390  -1.6448  -1.6388
    -1.5630  -1.5441  -1.5121  -1.4421  -1.3962  -1.3955  -1.3706  -1.3417
    -1.2066  -1.2019  -1.1448  -1.1191  -1.1027  -1.0982  -1.0106  -0.9806
    -0.9530  -0.8446  -0.7617  -0.7584  -0.7379  -0.6255  -0.5916  -0.5633
    -0.5595  -0.5243  -0.5184  -0.4988  -0.4310  -0.3061  -0.2913  -0.2767
    -0.2676  -0.2363  -0.2126  -0.2037  -0.1683  -0.1359  -0.1343  -0.0707
    -0.0690  -0.0510  -0.0376  -0.0176  -0.0098  -0.0038   0.0018   0.0451
     0.0549   0.0878   0.1167   0.1415   0.1492   0.1795   0.2916   0.3113
     0.3148   0.3362   0.3433   0.3858   0.4493   0.4527   0.4693   0.4746
     0.5065   0.5728   0.6523   0.6588   0.7142   0.7228   0.7669   0.7814
     0.8617   0.8924   1.0387   1.0612   1.0630   1.0864   1.0883   1.1062
     1.1153   1.1362   1.1377   1.2185   1.2290   1.2585   1.2612   1.2936
     1.3443   1.4122   1.4452   1.4664   1.4986   1.6338   1.6460   1.6680
     1.6746   1.6884   1.6977   1.8510   1.9224   1.9306   1.9464   1.9485
     1.9829   1.9857   2.0272   2.0567   2.0809   2.1126   2.1413   2.1600
     2.2029   2.2671   2.2801   2.2836   2.2953   2.3043   2.3255   2.3476
     2.4991   2.5399   2.5588   2.5861   2.6017   2.6028   2.6298   2.7013
     2.7191   2.7651   2.8069   2.8101   2.8204   2.8276   2.9300   2.9499
     2.9568   3.0077   3.0155   3.0440   3.0539   3.0729   3.0986   3.1368
     3.2155   3.2629   3.2669   3.2862   3.2922   3.3071   3.3084   3.3410
     3.4784   3.4874   3.5264   3.8899   3.9028   3.9721   3.9749   3.9900
     4.2665   4.2961   4.4490   5.1669   5.2202   5.2998   5.3228   5.3839
     5.9652   5.9683   5.9927   5.9961   6.7126   6.7366   7.1885   7.3507
     7.4480   7.4549   7.9035   7.9285   8.3873   8.4026   8.7079   8.7185
     8.7451   9.0752   9.2590   9.3272   9.3458   9.6206   9.6264   9.7208
     9.7276   9.8473  10.0283  10.0870  10.3156  10.3625  10.4289  10.4433
    10.5122  10.5660  10.6113  10.7567  10.9675  11.2954  11.3472  11.3709

     occupation numbers 
     1.0000   1.0000   1.0000   1.0000   1.0000   1.0000   1.0000   1.0000
     1.0000   1.0000   1.0000   1.0000   1.0000   1.0000   1.0000   1.0000
     1.0000   1.0000   1.0000   1.0000   1.0000   1.0000   1.0000   1.0000
     1.0000   1.0000   1.0000   1.0000   1.0000   1.0000   1.0000   1.0000
     1.0000   1.0000   1.0000   1.0000   1.0000   1.0000   1.0000   1.0000
     1.0000   1.0000   1.0000   1.0000   1.0000   1.0000   1.0000   1.0000
     1.0000   1.0000   1.0000   1.0000   1.0000   1.0000   1.0000   1.0000
     1.0000   1.0000   1.0000   1.0000   1.0000   1.0000   1.0000   1.0000
     1.0000   1.0000   1.0000   1.0000   1.0000   1.0000   1.0000   1.0000
     1.0000   1.0000   1.0000   1.0000   1.0000   1.0000   1.0000   1.0000
     1.0000   1.0000   1.0000   1.0000   1.0000   1.0000   1.0000   1.0000
     1.0000   1.0000   1.0000   1.0000   1.0000   1.0000   1.0000   1.0000
     1.0000   1.0000   1.0000   1.0000   1.0000   1.0000   1.0000   1.0000
     1.0000   1.0000   1.0000   1.0000   1.0000   1.0000   1.0000   1.0000
     1.0000   1.0000   1.0000   1.0000   1.0000   1.0000   1.0000   1.0000
     1.0000   1.0000   1.0000   1.0000   1.0000   1.0000   1.0000   1.0000
     1.0000   1.0000   1.0000   1.0000   1.0000   1.0000   1.0000   1.0000
     1.0000   1.0000   1.0000   1.0000   1.0000   1.0000   1.0000   1.0000
     1.0000   1.0000   1.0000   1.0000   1.0000   1.0000   1.0000   1.0000
     1.0000   1.0000   1.0000   1.0000   1.0000   1.0000   1.0000   1.0000
     1.0000   1.0000   1.0000   1.0000   1.0000   1.0000   1.0000   1.0000
     1.0000   1.0000   1.0000   1.0000   1.0000   1.0000   1.0000   1.0000
     1.0000   1.0000   1.0000   1.0000   1.0000   1.0000   1.0000   1.0000
     1.0000   1.0000   1.0000   1.0000   1.0000   1.0000   1.0000   1.0000
     1.0000   1.0000   1.0000   1.0000   1.0000   1.0000   1.0000   1.0000
     1.0000   1.0000   1.0000   1.0000   1.0000   1.0000   1.0000   1.0000
     1.0000   1.0000   1.0000   1.0000   1.0000   1.0000   1.0000   1.0000
     1.0000   1.0000   1.0000   1.0000   1.0000   1.0000   1.0000   1.0000
     1.0000   1.0000   1.0000   1.0000   1.0000   1.0000   1.0000   1.0000
     1.0000   1.0000   1.0000   1.0000   1.0000   1.0000   1.0000   1.0000
     1.0000   1.0000   1.0000   1.0000   1.0000   1.0000   1.0000   1.0000
     1.0000   1.0000   1.0000   1.0000   1.0000   1.0000   1.0000   1.0000
     1.0000   1.0000   1.0000   1.0000   1.0000   1.0000   1.0000   1.0000
     1.0000   1.0000   1.0000   1.0000   1.0000   1.0000   1.0000   1.0000
     1.0000   1.0000   1.0000   1.0000   1.0000   1.0000   1.0000   1.0000
     1.0000   1.0000   1.0000   1.0000   1.0000   1.0000   1.0000   1.0000
     1.0000   1.0000   1.0000   1.0000   1.0000   1.0000   1.0000   1.0000
     1.0000   1.0000   1.0000   1.0000   1.0000   1.0000   1.0000   1.0000
     1.0000   1.0000   1.0000   1.0000   1.0000   1.0000   0.9999   0.9997
     0.9995   0.9988   0.9971   0.9970   0.9963   0.9957   0.9675   0.9524
     0.9457   0.8631   0.8435   0.7528   0.7143   0.6311   0.5057   0.3226
     0.0898   0.0369   0.0341   0.0234   0.0208   0.0155   0.0152   0.0080
     0.0005   0.0004   0.0002   0.0000   0.0000   0.0000   0.0000   0.0000
     0.0000   0.0000   0.0000   0.0000   0.0000   0.0000   0.0000   0.0000
     0.0000   0.0000   0.0000   0.0000   0.0000   0.0000   0.0000   0.0000
     0.0000   0.0000   0.0000   0.0000   0.0000   0.0000   0.0000   0.0000
     0.0000   0.0000   0.0000   0.0000   0.0000   0.0000   0.0000   0.0000
     0.0000   0.0000   0.0000   0.0000   0.0000   0.0000   0.0000   0.0000
     0.0000   0.0000   0.0000   0.0000   0.0000   0.0000   0.0000   0.0000

          k = 0.3333 0.0000 0.0000 ( 88188 PWs)   bands (ev):

   -95.3639 -95.3577 -95.3528 -95.3520 -95.3519 -95.3472 -95.3460 -95.3448
   -95.3326 -95.3277 -95.3275 -95.3253 -95.3231 -95.3226 -95.3195 -95.3191
   -95.3165 -95.2187 -94.9650 -94.9588 -94.9580 -94.9252 -94.9181 -94.9162
   -94.9132 -94.9069 -94.9047 -94.9013 -94.9003 -94.8993 -94.8955 -94.8915
   -94.8912 -94.7180 -94.7155 -94.7137 -49.6573 -49.6512 -49.6402 -49.6309
   -49.6269 -49.6190 -49.6111 -49.6080 -49.6029 -49.5948 -49.5924 -49.5878
   -49.5843 -49.5756 -49.5655 -49.5368 -49.5305 -49.5251 -49.5115 -49.5075
   -49.5036 -49.4991 -49.4966 -49.4905 -49.4814 -49.4710 -49.4656 -49.4539
   -49.4491 -49.4442 -49.4416 -49.4386 -49.4366 -49.4302 -49.4264 -49.4223
   -49.4179 -49.4148 -49.4107 -49.4076 -49.4035 -49.3994 -49.3979 -49.3921
   -49.3905 -49.3855 -49.3795 -49.3699 -49.3637 -49.3582 -49.3513 -49.3179
   -49.3067 -49.2970 -49.2926 -49.2847 -49.2793 -49.2646 -49.2625 -49.2498
   -49.2463 -49.2425 -49.2341 -49.2173 -49.2165 -49.2140 -49.1890 -49.1548
   -49.1497 -49.1483 -49.1467 -49.1298 -49.1235 -49.1031 -49.0841 -49.0759
   -49.0751 -49.0747 -49.0736 -49.0712 -49.0416 -49.0408 -49.0264 -49.0075
   -48.9919 -48.9571 -48.9452 -48.9269 -48.9113 -48.9008 -48.8742 -48.8645
   -48.8626 -48.8457 -48.8439 -48.8346 -48.8339 -48.8325 -48.8308 -48.8256
   -48.8240 -48.8223 -48.8182 -48.8125 -48.8121 -48.6321 -48.6266 -48.6244
   -11.9346  -5.7173  -4.4234  -4.2034  -4.1589  -3.3309  -3.2781  -3.2544
    -3.2400  -3.2373  -3.2234  -3.1631  -3.0886  -2.9920  -2.9772  -2.7022
    -2.6847  -2.5519  -2.5405  -2.4061  -2.3931  -2.3705  -2.3609  -2.3541
    -2.3307  -2.2772  -2.2617  -2.2294  -2.1811  -2.1702  -2.1360  -2.0776
    -2.0599  -2.0377  -2.0002  -1.9256  -1.8519  -1.7167  -1.6724  -1.6141
    -1.5935  -1.5423  -1.4929  -1.4625  -1.4467  -1.4053  -1.3648  -1.2770
    -1.2434  -1.1527  -1.1379  -1.1278  -1.0612  -1.0509  -1.0160  -0.9415
    -0.8950  -0.7310  -0.6965  -0.6682  -0.6567  -0.6462  -0.5906  -0.5663
    -0.5505  -0.5394  -0.4671  -0.4572  -0.3796  -0.3657  -0.3548  -0.3387
    -0.3317  -0.2145  -0.1915  -0.1621  -0.1487  -0.1276  -0.0807  -0.0369
    -0.0272  -0.0066   0.0032   0.0082   0.0189   0.0517   0.0567   0.0721
     0.1341   0.1379   0.2047   0.2220   0.2527   0.2727   0.2996   0.3051
     0.3473   0.3643   0.3696   0.3826   0.4048   0.4257   0.4400   0.4505
     0.5116   0.5231   0.5374   0.5678   0.6584   0.6870   0.7003   0.7164
     0.7710   0.7790   0.9375   1.0196   1.0344   1.0484   1.0940   1.1172
     1.1592   1.1862   1.2013   1.2164   1.2273   1.2436   1.3420   1.3536
     1.4457   1.5187   1.5789   1.5845   1.6220   1.6452   1.6845   1.7094
     1.7253   1.7344   1.8614   1.8993   1.9031   1.9208   1.9476   1.9574
     2.0071   2.0120   2.0420   2.0503   2.0809   2.0911   2.1115   2.1501
     2.1601   2.1736   2.1900   2.1992   2.2366   2.2820   2.3096   2.3409
     2.5003   2.5460   2.5651   2.6405   2.6654   2.6885   2.7021   2.7701
     2.7889   2.7928   2.8035   2.8219   2.8535   2.8590   2.8928   2.9055
     2.9078   3.0179   3.0287   3.0394   3.0538   3.0786   3.0846   3.0956
     3.1069   3.1550   3.2598   3.2654   3.2813   3.2870   3.3349   3.3493
     3.3634   3.3802   3.4112   3.4985   3.5162   3.7425   3.7475   3.8191
     4.1626   4.1727   4.4600   4.4838   5.0959   5.1694   5.1836   5.5180
     5.5235   5.9668   6.6335   6.6531   6.7683   6.9578   7.1291   7.3927
     7.4217   7.8342   7.9368   7.9478   8.0049   8.1453   8.9777   8.9895
     9.0101   9.0894   9.1360   9.3641   9.4139   9.5390   9.6198   9.7783
     9.8010   9.8252   9.9712  10.1319  10.1677  10.4687  10.5810  10.6042
    10.6717  10.6845  10.7323  10.8818  11.0828  11.1161  11.1881  11.2253

     occupation numbers 
     1.0000   1.0000   1.0000   1.0000   1.0000   1.0000   1.0000   1.0000
     1.0000   1.0000   1.0000   1.0000   1.0000   1.0000   1.0000   1.0000
     1.0000   1.0000   1.0000   1.0000   1.0000   1.0000   1.0000   1.0000
     1.0000   1.0000   1.0000   1.0000   1.0000   1.0000   1.0000   1.0000
     1.0000   1.0000   1.0000   1.0000   1.0000   1.0000   1.0000   1.0000
     1.0000   1.0000   1.0000   1.0000   1.0000   1.0000   1.0000   1.0000
     1.0000   1.0000   1.0000   1.0000   1.0000   1.0000   1.0000   1.0000
     1.0000   1.0000   1.0000   1.0000   1.0000   1.0000   1.0000   1.0000
     1.0000   1.0000   1.0000   1.0000   1.0000   1.0000   1.0000   1.0000
     1.0000   1.0000   1.0000   1.0000   1.0000   1.0000   1.0000   1.0000
     1.0000   1.0000   1.0000   1.0000   1.0000   1.0000   1.0000   1.0000
     1.0000   1.0000   1.0000   1.0000   1.0000   1.0000   1.0000   1.0000
     1.0000   1.0000   1.0000   1.0000   1.0000   1.0000   1.0000   1.0000
     1.0000   1.0000   1.0000   1.0000   1.0000   1.0000   1.0000   1.0000
     1.0000   1.0000   1.0000   1.0000   1.0000   1.0000   1.0000   1.0000
     1.0000   1.0000   1.0000   1.0000   1.0000   1.0000   1.0000   1.0000
     1.0000   1.0000   1.0000   1.0000   1.0000   1.0000   1.0000   1.0000
     1.0000   1.0000   1.0000   1.0000   1.0000   1.0000   1.0000   1.0000
     1.0000   1.0000   1.0000   1.0000   1.0000   1.0000   1.0000   1.0000
     1.0000   1.0000   1.0000   1.0000   1.0000   1.0000   1.0000   1.0000
     1.0000   1.0000   1.0000   1.0000   1.0000   1.0000   1.0000   1.0000
     1.0000   1.0000   1.0000   1.0000   1.0000   1.0000   1.0000   1.0000
     1.0000   1.0000   1.0000   1.0000   1.0000   1.0000   1.0000   1.0000
     1.0000   1.0000   1.0000   1.0000   1.0000   1.0000   1.0000   1.0000
     1.0000   1.0000   1.0000   1.0000   1.0000   1.0000   1.0000   1.0000
     1.0000   1.0000   1.0000   1.0000   1.0000   1.0000   1.0000   1.0000
     1.0000   1.0000   1.0000   1.0000   1.0000   1.0000   1.0000   1.0000
     1.0000   1.0000   1.0000   1.0000   1.0000   1.0000   1.0000   1.0000
     1.0000   1.0000   1.0000   1.0000   1.0000   1.0000   1.0000   1.0000
     1.0000   1.0000   1.0000   1.0000   1.0000   1.0000   1.0000   1.0000
     1.0000   1.0000   1.0000   1.0000   1.0000   1.0000   1.0000   1.0000
     1.0000   1.0000   1.0000   1.0000   1.0000   1.0000   1.0000   1.0000
     1.0000   1.0000   1.0000   1.0000   1.0000   1.0000   1.0000   1.0000
     1.0000   1.0000   1.0000   1.0000   1.0000   1.0000   1.0000   1.0000
     1.0000   1.0000   1.0000   1.0000   1.0000   1.0000   1.0000   1.0000
     1.0000   1.0000   1.0000   1.0000   1.0000   1.0000   1.0000   1.0000
     1.0000   1.0000   1.0000   1.0000   1.0000   1.0000   1.0000   1.0000
     1.0000   1.0000   1.0000   1.0000   1.0000   1.0000   1.0000   1.0000
     1.0000   1.0000   1.0000   0.9999   0.9998   0.9997   0.9996   0.9986
     0.9980   0.9978   0.9973   0.9961   0.9928   0.9919   0.9843   0.9798
     0.9789   0.8370   0.8055   0.7698   0.7149   0.6038   0.5752   0.5206
     0.4641   0.2487   0.0391   0.0351   0.0258   0.0231   0.0090   0.0068
     0.0051   0.0036   0.0020   0.0003   0.0002   0.0000   0.0000   0.0000
     0.0000   0.0000   0.0000   0.0000   0.0000   0.0000   0.0000   0.0000
     0.0000   0.0000   0.0000   0.0000   0.0000   0.0000   0.0000   0.0000
     0.0000   0.0000   0.0000   0.0000   0.0000   0.0000   0.0000   0.0000
     0.0000   0.0000   0.0000   0.0000   0.0000   0.0000   0.0000   0.0000
     0.0000   0.0000   0.0000   0.0000   0.0000   0.0000   0.0000   0.0000
     0.0000   0.0000   0.0000   0.0000   0.0000   0.0000   0.0000   0.0000

          k = 0.3333 0.1925 0.0000 ( 88170 PWs)   bands (ev):

   -95.3636 -95.3581 -95.3526 -95.3522 -95.3519 -95.3473 -95.3458 -95.3447
   -95.3326 -95.3277 -95.3276 -95.3252 -95.3231 -95.3227 -95.3194 -95.3188
   -95.3167 -95.2187 -94.9650 -94.9588 -94.9581 -94.9252 -94.9181 -94.9162
   -94.9128 -94.9078 -94.9042 -94.9021 -94.8998 -94.8992 -94.8954 -94.8915
   -94.8912 -94.7180 -94.7155 -94.7136 -49.6663 -49.6468 -49.6417 -49.6367
   -49.6230 -49.6203 -49.6176 -49.6162 -49.6067 -49.5983 -49.5976 -49.5913
   -49.5772 -49.5657 -49.5495 -49.5484 -49.5233 -49.5208 -49.5045 -49.5020
   -49.4964 -49.4936 -49.4933 -49.4913 -49.4789 -49.4785 -49.4596 -49.4548
   -49.4513 -49.4460 -49.4381 -49.4373 -49.4365 -49.4295 -49.4236 -49.4229
   -49.4166 -49.4153 -49.4139 -49.4107 -49.4038 -49.4031 -49.3958 -49.3950
   -49.3914 -49.3847 -49.3804 -49.3730 -49.3708 -49.3612 -49.3472 -49.3236
   -49.3066 -49.3017 -49.2905 -49.2903 -49.2753 -49.2722 -49.2525 -49.2513
   -49.2474 -49.2467 -49.2433 -49.2430 -49.2036 -49.1845 -49.1765 -49.1762
   -49.1427 -49.1423 -49.1278 -49.1262 -49.1215 -49.1054 -49.0853 -49.0850
   -49.0831 -49.0753 -49.0721 -49.0583 -49.0577 -49.0350 -49.0313 -49.0093
   -48.9891 -48.9566 -48.9439 -48.9275 -48.9173 -48.9007 -48.8740 -48.8647
   -48.8626 -48.8454 -48.8433 -48.8355 -48.8345 -48.8325 -48.8297 -48.8273
   -48.8229 -48.8221 -48.8179 -48.8126 -48.8122 -48.6321 -48.6266 -48.6243
   -11.9346  -5.6177  -4.5573  -4.3233  -3.6988  -3.6980  -3.4062  -3.2939
    -3.2294  -3.1596  -3.0941  -3.0569  -3.0549  -2.8313  -2.7992  -2.7469
    -2.7400  -2.6392  -2.5036  -2.4478  -2.4093  -2.4073  -2.3719  -2.3659
    -2.3460  -2.3372  -2.2939  -2.2634  -2.1827  -2.1594  -2.1439  -2.1297
    -1.9274  -1.9235  -1.8827  -1.8686  -1.8423  -1.8390  -1.6447  -1.6388
    -1.5630  -1.5441  -1.5121  -1.4421  -1.3962  -1.3955  -1.3707  -1.3417
    -1.2066  -1.2019  -1.1448  -1.1191  -1.1027  -1.0982  -1.0106  -0.9806
    -0.9530  -0.8446  -0.7616  -0.7584  -0.7379  -0.6255  -0.5916  -0.5634
    -0.5596  -0.5243  -0.5184  -0.4988  -0.4310  -0.3062  -0.2914  -0.2767
    -0.2677  -0.2362  -0.2126  -0.2037  -0.1683  -0.1359  -0.1343  -0.0707
    -0.0691  -0.0510  -0.0376  -0.0176  -0.0098  -0.0038   0.0018   0.0451
     0.0549   0.0878   0.1167   0.1415   0.1492   0.1795   0.2915   0.3113
     0.3148   0.3362   0.3433   0.3858   0.4493   0.4526   0.4693   0.4745
     0.5064   0.5728   0.6523   0.6588   0.7142   0.7228   0.7669   0.7814
     0.8617   0.8924   1.0387   1.0612   1.0630   1.0864   1.0882   1.1062
     1.1153   1.1363   1.1378   1.2185   1.2290   1.2585   1.2612   1.2936
     1.3443   1.4122   1.4452   1.4664   1.4986   1.6338   1.6460   1.6680
     1.6746   1.6884   1.6977   1.8511   1.9224   1.9306   1.9465   1.9484
     1.9829   1.9857   2.0272   2.0567   2.0809   2.1125   2.1413   2.1601
     2.2029   2.2671   2.2802   2.2836   2.2953   2.3042   2.3255   2.3476
     2.4991   2.5399   2.5588   2.5860   2.6017   2.6028   2.6298   2.7012
     2.7191   2.7651   2.8068   2.8101   2.8204   2.8277   2.9300   2.9499
     2.9568   3.0077   3.0155   3.0440   3.0539   3.0729   3.0986   3.1369
     3.2178   3.2596   3.2671   3.2854   3.2927   3.3067   3.3088   3.3422
     3.4784   3.4874   3.5264   3.8898   3.9028   3.9721   3.9748   3.9900
     4.2665   4.2961   4.4491   5.1669   5.2203   5.2998   5.3228   5.3839
     5.9651   5.9683   5.9927   5.9961   6.7126   6.7366   7.1886   7.3506
     7.4480   7.4549   7.9035   7.9285   8.3872   8.4026   8.7076   8.7185
     8.7453   9.0751   9.2590   9.3272   9.3458   9.6206   9.6265   9.7208
     9.7276   9.8472  10.0285  10.0870  10.3155  10.3627  10.4287  10.4434
    10.5123  10.5635  10.6133  10.7571  10.9685  11.2951  11.3476  11.3704

     occupation numbers 
     1.0000   1.0000   1.0000   1.0000   1.0000   1.0000   1.0000   1.0000
     1.0000   1.0000   1.0000   1.0000   1.0000   1.0000   1.0000   1.0000
     1.0000   1.0000   1.0000   1.0000   1.0000   1.0000   1.0000   1.0000
     1.0000   1.0000   1.0000   1.0000   1.0000   1.0000   1.0000   1.0000
     1.0000   1.0000   1.0000   1.0000   1.0000   1.0000   1.0000   1.0000
     1.0000   1.0000   1.0000   1.0000   1.0000   1.0000   1.0000   1.0000
     1.0000   1.0000   1.0000   1.0000   1.0000   1.0000   1.0000   1.0000
     1.0000   1.0000   1.0000   1.0000   1.0000   1.0000   1.0000   1.0000
     1.0000   1.0000   1.0000   1.0000   1.0000   1.0000   1.0000   1.0000
     1.0000   1.0000   1.0000   1.0000   1.0000   1.0000   1.0000   1.0000
     1.0000   1.0000   1.0000   1.0000   1.0000   1.0000   1.0000   1.0000
     1.0000   1.0000   1.0000   1.0000   1.0000   1.0000   1.0000   1.0000
     1.0000   1.0000   1.0000   1.0000   1.0000   1.0000   1.0000   1.0000
     1.0000   1.0000   1.0000   1.0000   1.0000   1.0000   1.0000   1.0000
     1.0000   1.0000   1.0000   1.0000   1.0000   1.0000   1.0000   1.0000
     1.0000   1.0000   1.0000   1.0000   1.0000   1.0000   1.0000   1.0000
     1.0000   1.0000   1.0000   1.0000   1.0000   1.0000   1.0000   1.0000
     1.0000   1.0000   1.0000   1.0000   1.0000   1.0000   1.0000   1.0000
     1.0000   1.0000   1.0000   1.0000   1.0000   1.0000   1.0000   1.0000
     1.0000   1.0000   1.0000   1.0000   1.0000   1.0000   1.0000   1.0000
     1.0000   1.0000   1.0000   1.0000   1.0000   1.0000   1.0000   1.0000
     1.0000   1.0000   1.0000   1.0000   1.0000   1.0000   1.0000   1.0000
     1.0000   1.0000   1.0000   1.0000   1.0000   1.0000   1.0000   1.0000
     1.0000   1.0000   1.0000   1.0000   1.0000   1.0000   1.0000   1.0000
     1.0000   1.0000   1.0000   1.0000   1.0000   1.0000   1.0000   1.0000
     1.0000   1.0000   1.0000   1.0000   1.0000   1.0000   1.0000   1.0000
     1.0000   1.0000   1.0000   1.0000   1.0000   1.0000   1.0000   1.0000
     1.0000   1.0000   1.0000   1.0000   1.0000   1.0000   1.0000   1.0000
     1.0000   1.0000   1.0000   1.0000   1.0000   1.0000   1.0000   1.0000
     1.0000   1.0000   1.0000   1.0000   1.0000   1.0000   1.0000   1.0000
     1.0000   1.0000   1.0000   1.0000   1.0000   1.0000   1.0000   1.0000
     1.0000   1.0000   1.0000   1.0000   1.0000   1.0000   1.0000   1.0000
     1.0000   1.0000   1.0000   1.0000   1.0000   1.0000   1.0000   1.0000
     1.0000   1.0000   1.0000   1.0000   1.0000   1.0000   1.0000   1.0000
     1.0000   1.0000   1.0000   1.0000   1.0000   1.0000   1.0000   1.0000
     1.0000   1.0000   1.0000   1.0000   1.0000   1.0000   1.0000   1.0000
     1.0000   1.0000   1.0000   1.0000   1.0000   1.0000   1.0000   1.0000
     1.0000   1.0000   1.0000   1.0000   1.0000   1.0000   1.0000   1.0000
     1.0000   1.0000   1.0000   1.0000   1.0000   1.0000   0.9999   0.9997
     0.9995   0.9988   0.9972   0.9970   0.9963   0.9957   0.9675   0.9524
     0.9458   0.8631   0.8436   0.7529   0.7142   0.6309   0.5055   0.3224
     0.0861   0.0392   0.0339   0.0238   0.0207   0.0157   0.0150   0.0078
     0.0005   0.0004   0.0002   0.0000   0.0000   0.0000   0.0000   0.0000
     0.0000   0.0000   0.0000   0.0000   0.0000   0.0000   0.0000   0.0000
     0.0000   0.0000   0.0000   0.0000   0.0000   0.0000   0.0000   0.0000
     0.0000   0.0000   0.0000   0.0000   0.0000   0.0000   0.0000   0.0000
     0.0000   0.0000   0.0000   0.0000   0.0000   0.0000   0.0000   0.0000
     0.0000   0.0000   0.0000   0.0000   0.0000   0.0000   0.0000   0.0000
     0.0000   0.0000   0.0000   0.0000   0.0000   0.0000   0.0000   0.0000

          k = 0.3333-0.7698 0.0000 ( 88140 PWs)   bands (ev):

   -95.3629 -95.3588 -95.3532 -95.3520 -95.3517 -95.3474 -95.3456 -95.3446
   -95.3326 -95.3278 -95.3276 -95.3251 -95.3234 -95.3228 -95.3189 -95.3183
   -95.3172 -95.2187 -94.9649 -94.9589 -94.9581 -94.9252 -94.9181 -94.9162
   -94.9116 -94.9089 -94.9054 -94.9011 -94.8996 -94.8991 -94.8952 -94.8917
   -94.8911 -94.7180 -94.7155 -94.7136 -49.6704 -49.6586 -49.6514 -49.6416
   -49.6315 -49.6252 -49.6183 -49.6100 -49.6035 -49.5978 -49.5957 -49.5918
   -49.5819 -49.5693 -49.5659 -49.5172 -49.5107 -49.5077 -49.5041 -49.4976
   -49.4947 -49.4886 -49.4830 -49.4757 -49.4700 -49.4668 -49.4608 -49.4558
   -49.4507 -49.4462 -49.4423 -49.4374 -49.4334 -49.4316 -49.4292 -49.4261
   -49.4223 -49.4161 -49.4124 -49.4108 -49.4062 -49.4019 -49.3971 -49.3946
   -49.3921 -49.3912 -49.3884 -49.3830 -49.3707 -49.3643 -49.3509 -49.3265
   -49.3108 -49.3050 -49.2964 -49.2887 -49.2826 -49.2781 -49.2668 -49.2604
   -49.2533 -49.2395 -49.2360 -49.2295 -49.2069 -49.2015 -49.1626 -49.1350
   -49.1340 -49.1265 -49.1216 -49.1189 -49.1066 -49.1009 -49.0982 -49.0929
   -49.0878 -49.0802 -49.0792 -49.0733 -49.0585 -49.0421 -49.0280 -49.0159
   -48.9809 -48.9574 -48.9422 -48.9321 -48.9216 -48.9048 -48.8735 -48.8650
   -48.8628 -48.8450 -48.8415 -48.8373 -48.8345 -48.8326 -48.8321 -48.8254
   -48.8227 -48.8219 -48.8176 -48.8131 -48.8121 -48.6321 -48.6266 -48.6243
   -11.9346  -5.3263  -4.7873  -4.2901  -4.0467  -3.5712  -3.2195  -3.1684
    -3.1574  -3.0516  -3.0126  -2.9540  -2.9014  -2.8389  -2.8263  -2.7099
    -2.6358  -2.6291  -2.5626  -2.5239  -2.4898  -2.4777  -2.4559  -2.4218
    -2.3661  -2.3298  -2.2686  -2.2540  -2.1935  -2.1517  -2.1002  -2.0367
    -2.0168  -1.9959  -1.9461  -1.9290  -1.8287  -1.7872  -1.7087  -1.6621
    -1.5268  -1.4698  -1.4515  -1.3845  -1.3663  -1.3565  -1.3408  -1.2618
    -1.2460  -1.2045  -1.1665  -1.1107  -1.0494  -1.0178  -0.9974  -0.9646
    -0.9454  -0.9176  -0.8692  -0.8425  -0.8015  -0.7560  -0.6975  -0.6738
    -0.6690  -0.6186  -0.5903  -0.4881  -0.4519  -0.4307  -0.3773  -0.3617
    -0.3548  -0.3272  -0.2944  -0.2788  -0.2434  -0.2165  -0.1829  -0.1676
    -0.0972  -0.0750  -0.0578  -0.0340  -0.0288   0.0076   0.0854   0.1094
     0.1304   0.1413   0.1600   0.2170   0.2261   0.2498   0.2714   0.2807
     0.2957   0.3103   0.3320   0.3681   0.3782   0.3950   0.4143   0.4433
     0.4816   0.5093   0.5330   0.5704   0.6261   0.6567   0.6810   0.7691
     0.7868   0.8216   0.9207   0.9919   1.0211   1.0522   1.0768   1.0976
     1.1347   1.1572   1.1634   1.2248   1.2520   1.2651   1.2860   1.3106
     1.3495   1.3862   1.3952   1.4520   1.4975   1.5349   1.6546   1.6785
     1.6932   1.7224   1.7729   1.8093   1.8186   1.8318   1.8580   1.8838
     1.8990   1.9343   2.0041   2.0337   2.0613   2.0709   2.0793   2.0954
     2.1264   2.1366   2.1472   2.2629   2.2941   2.3542   2.4194   2.4387
     2.5214   2.5520   2.5699   2.6285   2.6369   2.6641   2.7524   2.7941
     2.8263   2.8644   2.8796   2.8912   2.8939   2.9047   2.9798   3.0059
     3.0085   3.0479   3.0557   3.0800   3.1294   3.1409   3.2065   3.2131
     3.2601   3.2958   3.3067   3.3397   3.3419   3.3645   3.3853   3.3945
     3.4452   3.4698   3.5190   4.1183   4.3767   4.3992   4.4548   4.5216
     4.8103   4.9581   5.0317   5.3296   5.3804   5.4083   5.4511   5.5484
     5.8075   5.9370   6.0082   6.2514   6.5464   6.6177   6.6722   6.8130
     6.9751   7.2875   7.4626   7.7139   7.7672   7.7843   8.5253   8.7805
     8.8000   8.8618   9.0409   9.2788   9.2883   9.3749   9.5999   9.6534
     9.6686   9.9046  10.0134  10.0337  10.1954  10.2423  10.2653  10.5645
    10.6159  10.7626  10.9572  11.0038  11.0970  11.1206  11.1853  11.2261

     occupation numbers 
     1.0000   1.0000   1.0000   1.0000   1.0000   1.0000   1.0000   1.0000
     1.0000   1.0000   1.0000   1.0000   1.0000   1.0000   1.0000   1.0000
     1.0000   1.0000   1.0000   1.0000   1.0000   1.0000   1.0000   1.0000
     1.0000   1.0000   1.0000   1.0000   1.0000   1.0000   1.0000   1.0000
     1.0000   1.0000   1.0000   1.0000   1.0000   1.0000   1.0000   1.0000
     1.0000   1.0000   1.0000   1.0000   1.0000   1.0000   1.0000   1.0000
     1.0000   1.0000   1.0000   1.0000   1.0000   1.0000   1.0000   1.0000
     1.0000   1.0000   1.0000   1.0000   1.0000   1.0000   1.0000   1.0000
     1.0000   1.0000   1.0000   1.0000   1.0000   1.0000   1.0000   1.0000
     1.0000   1.0000   1.0000   1.0000   1.0000   1.0000   1.0000   1.0000
     1.0000   1.0000   1.0000   1.0000   1.0000   1.0000   1.0000   1.0000
     1.0000   1.0000   1.0000   1.0000   1.0000   1.0000   1.0000   1.0000
     1.0000   1.0000   1.0000   1.0000   1.0000   1.0000   1.0000   1.0000
     1.0000   1.0000   1.0000   1.0000   1.0000   1.0000   1.0000   1.0000
     1.0000   1.0000   1.0000   1.0000   1.0000   1.0000   1.0000   1.0000
     1.0000   1.0000   1.0000   1.0000   1.0000   1.0000   1.0000   1.0000
     1.0000   1.0000   1.0000   1.0000   1.0000   1.0000   1.0000   1.0000
     1.0000   1.0000   1.0000   1.0000   1.0000   1.0000   1.0000   1.0000
     1.0000   1.0000   1.0000   1.0000   1.0000   1.0000   1.0000   1.0000
     1.0000   1.0000   1.0000   1.0000   1.0000   1.0000   1.0000   1.0000
     1.0000   1.0000   1.0000   1.0000   1.0000   1.0000   1.0000   1.0000
     1.0000   1.0000   1.0000   1.0000   1.0000   1.0000   1.0000   1.0000
     1.0000   1.0000   1.0000   1.0000   1.0000   1.0000   1.0000   1.0000
     1.0000   1.0000   1.0000   1.0000   1.0000   1.0000   1.0000   1.0000
     1.0000   1.0000   1.0000   1.0000   1.0000   1.0000   1.0000   1.0000
     1.0000   1.0000   1.0000   1.0000   1.0000   1.0000   1.0000   1.0000
     1.0000   1.0000   1.0000   1.0000   1.0000   1.0000   1.0000   1.0000
     1.0000   1.0000   1.0000   1.0000   1.0000   1.0000   1.0000   1.0000
     1.0000   1.0000   1.0000   1.0000   1.0000   1.0000   1.0000   1.0000
     1.0000   1.0000   1.0000   1.0000   1.0000   1.0000   1.0000   1.0000
     1.0000   1.0000   1.0000   1.0000   1.0000   1.0000   1.0000   1.0000
     1.0000   1.0000   1.0000   1.0000   1.0000   1.0000   1.0000   1.0000
     1.0000   1.0000   1.0000   1.0000   1.0000   1.0000   1.0000   1.0000
     1.0000   1.0000   1.0000   1.0000   1.0000   1.0000   1.0000   1.0000
     1.0000   1.0000   1.0000   1.0000   1.0000   1.0000   1.0000   1.0000
     1.0000   1.0000   1.0000   1.0000   1.0000   1.0000   1.0000   1.0000
     1.0000   1.0000   1.0000   1.0000   1.0000   1.0000   1.0000   1.0000
     1.0000   1.0000   1.0000   1.0000   1.0000   1.0000   1.0000   1.0000
     1.0000   1.0000   1.0000   0.9999   0.9999   0.9998   0.9990   0.9978
     0.9958   0.9910   0.9879   0.9848   0.9840   0.9802   0.9167   0.8672
     0.8611   0.7382   0.7070   0.5971   0.3556   0.3051   0.1057   0.0939
     0.0389   0.0194   0.0157   0.0082   0.0078   0.0050   0.0033   0.0027
     0.0010   0.0006   0.0002   0.0000   0.0000   0.0000   0.0000   0.0000
     0.0000   0.0000   0.0000   0.0000   0.0000   0.0000   0.0000   0.0000
     0.0000   0.0000   0.0000   0.0000   0.0000   0.0000   0.0000   0.0000
     0.0000   0.0000   0.0000   0.0000   0.0000   0.0000   0.0000   0.0000
     0.0000   0.0000   0.0000   0.0000   0.0000   0.0000   0.0000   0.0000
     0.0000   0.0000   0.0000   0.0000   0.0000   0.0000   0.0000   0.0000
     0.0000   0.0000   0.0000   0.0000   0.0000   0.0000   0.0000   0.0000

          k = 0.3333-0.5774 0.0000 ( 88062 PWs)   bands (ev):

   -95.3625 -95.3592 -95.3536 -95.3519 -95.3514 -95.3474 -95.3455 -95.3445
   -95.3326 -95.3278 -95.3276 -95.3251 -95.3237 -95.3227 -95.3184 -95.3181
   -95.3177 -95.2187 -94.9648 -94.9589 -94.9581 -94.9251 -94.9181 -94.9162
   -94.9104 -94.9099 -94.9062 -94.8999 -94.8998 -94.8996 -94.8952 -94.8918
   -94.8910 -94.7180 -94.7155 -94.7136 -49.6693 -49.6628 -49.6610 -49.6393
   -49.6387 -49.6325 -49.6136 -49.6058 -49.5977 -49.5966 -49.5944 -49.5928
   -49.5825 -49.5769 -49.5709 -49.5127 -49.5112 -49.5103 -49.4942 -49.4889
   -49.4851 -49.4771 -49.4744 -49.4727 -49.4689 -49.4654 -49.4586 -49.4532
   -49.4526 -49.4469 -49.4416 -49.4409 -49.4386 -49.4322 -49.4261 -49.4257
   -49.4239 -49.4179 -49.4166 -49.4097 -49.4091 -49.4072 -49.3993 -49.3984
   -49.3967 -49.3904 -49.3855 -49.3833 -49.3702 -49.3681 -49.3560 -49.3209
   -49.3180 -49.3030 -49.3020 -49.2884 -49.2873 -49.2748 -49.2733 -49.2720
   -49.2543 -49.2237 -49.2217 -49.2211 -49.2209 -49.2194 -49.1490 -49.1419
   -49.1168 -49.1062 -49.1059 -49.1046 -49.1044 -49.0971 -49.0953 -49.0950
   -49.0942 -49.0935 -49.0915 -49.0912 -49.0721 -49.0290 -49.0270 -49.0268
   -48.9738 -48.9547 -48.9532 -48.9302 -48.9187 -48.9104 -48.8732 -48.8651
   -48.8630 -48.8449 -48.8393 -48.8389 -48.8345 -48.8340 -48.8326 -48.8233
   -48.8231 -48.8224 -48.8174 -48.8133 -48.8120 -48.6321 -48.6266 -48.6243
   -11.9346  -4.8953  -4.8819  -4.8187  -3.6697  -3.6552  -3.5553  -3.0279
    -3.0085  -3.0048  -2.8846  -2.8825  -2.8561  -2.7336  -2.7030  -2.6612
    -2.5847  -2.5630  -2.5538  -2.5443  -2.5434  -2.5248  -2.5140  -2.4962
    -2.4145  -2.3860  -2.3653  -2.3239  -2.1565  -2.1492  -2.1306  -2.0734
    -2.0665  -2.0445  -2.0149  -1.9746  -1.9693  -1.6008  -1.5951  -1.5603
    -1.5455  -1.4924  -1.4830  -1.4800  -1.4542  -1.4482  -1.1236  -1.1202
    -1.1086  -1.1064  -1.0918  -1.0761  -1.0284  -1.0199  -1.0108  -0.9821
    -0.9424  -0.9160  -0.8869  -0.8850  -0.8507  -0.8300  -0.8095  -0.8077
    -0.6351  -0.5966  -0.5725  -0.5487  -0.5320  -0.4998  -0.4034  -0.3950
    -0.3928  -0.3833  -0.3708  -0.2808  -0.1889  -0.1789  -0.1562  -0.1340
    -0.1210  -0.0660  -0.0634  -0.0561  -0.0340  -0.0308  -0.0208  -0.0110
     0.0099   0.0936   0.1061   0.1553   0.1680   0.1718   0.3105   0.3367
     0.3530   0.3568   0.3606   0.3764   0.3886   0.3925   0.3940   0.4275
     0.4373   0.4620   0.5341   0.5470   0.5774   0.5782   0.5927   0.6043
     0.9471   0.9720   0.9889   1.0025   1.0203   1.0219   1.0317   1.0456
     1.0811   1.0989   1.1028   1.1075   1.2509   1.2674   1.2798   1.3088
     1.3366   1.3383   1.3710   1.4634   1.4676   1.5803   1.5901   1.5980
     1.7701   1.7797   1.7842   1.8327   1.8491   1.8709   1.8790   1.8979
     1.9065   1.9303   1.9371   1.9380   2.0205   2.0472   2.0767   2.0976
     2.1844   2.2050   2.2469   2.2726   2.2756   2.2864   2.3052   2.3124
     2.3218   2.6949   2.7080   2.7130   2.7220   2.7373   2.7488   2.8330
     2.8429   2.8453   2.9087   2.9371   2.9396   3.0111   3.0145   3.0156
     3.0918   3.0944   3.1073   3.1103   3.1255   3.1301   3.2088   3.2208
     3.2249   3.2656   3.2913   3.2938   3.3059   3.3335   3.3398   3.3469
     3.3657   4.1573   4.1588   4.1709   4.4244   4.4364   4.4485   4.8687
     4.8750   4.9183   5.4350   5.4424   5.4527   5.4669   5.4829   5.5032
     6.2382   6.2443   6.2488   6.6333   6.6513   6.6600   6.7348   6.7551
     6.7858   6.8340   6.8519   6.8702   7.4491   7.4785   7.4809   8.8047
     8.8078   8.8364   8.9808   9.0326   9.0557   9.5981   9.6061   9.6084
     9.7368   9.7646   9.7941  10.4166  10.4250  10.5218  10.5487  10.5515
    10.5561  10.9811  11.0121  11.0359  11.1388  11.1396  11.1492  11.2745

     occupation numbers 
     1.0000   1.0000   1.0000   1.0000   1.0000   1.0000   1.0000   1.0000
     1.0000   1.0000   1.0000   1.0000   1.0000   1.0000   1.0000   1.0000
     1.0000   1.0000   1.0000   1.0000   1.0000   1.0000   1.0000   1.0000
     1.0000   1.0000   1.0000   1.0000   1.0000   1.0000   1.0000   1.0000
     1.0000   1.0000   1.0000   1.0000   1.0000   1.0000   1.0000   1.0000
     1.0000   1.0000   1.0000   1.0000   1.0000   1.0000   1.0000   1.0000
     1.0000   1.0000   1.0000   1.0000   1.0000   1.0000   1.0000   1.0000
     1.0000   1.0000   1.0000   1.0000   1.0000   1.0000   1.0000   1.0000
     1.0000   1.0000   1.0000   1.0000   1.0000   1.0000   1.0000   1.0000
     1.0000   1.0000   1.0000   1.0000   1.0000   1.0000   1.0000   1.0000
     1.0000   1.0000   1.0000   1.0000   1.0000   1.0000   1.0000   1.0000
     1.0000   1.0000   1.0000   1.0000   1.0000   1.0000   1.0000   1.0000
     1.0000   1.0000   1.0000   1.0000   1.0000   1.0000   1.0000   1.0000
     1.0000   1.0000   1.0000   1.0000   1.0000   1.0000   1.0000   1.0000
     1.0000   1.0000   1.0000   1.0000   1.0000   1.0000   1.0000   1.0000
     1.0000   1.0000   1.0000   1.0000   1.0000   1.0000   1.0000   1.0000
     1.0000   1.0000   1.0000   1.0000   1.0000   1.0000   1.0000   1.0000
     1.0000   1.0000   1.0000   1.0000   1.0000   1.0000   1.0000   1.0000
     1.0000   1.0000   1.0000   1.0000   1.0000   1.0000   1.0000   1.0000
     1.0000   1.0000   1.0000   1.0000   1.0000   1.0000   1.0000   1.0000
     1.0000   1.0000   1.0000   1.0000   1.0000   1.0000   1.0000   1.0000
     1.0000   1.0000   1.0000   1.0000   1.0000   1.0000   1.0000   1.0000
     1.0000   1.0000   1.0000   1.0000   1.0000   1.0000   1.0000   1.0000
     1.0000   1.0000   1.0000   1.0000   1.0000   1.0000   1.0000   1.0000
     1.0000   1.0000   1.0000   1.0000   1.0000   1.0000   1.0000   1.0000
     1.0000   1.0000   1.0000   1.0000   1.0000   1.0000   1.0000   1.0000
     1.0000   1.0000   1.0000   1.0000   1.0000   1.0000   1.0000   1.0000
     1.0000   1.0000   1.0000   1.0000   1.0000   1.0000   1.0000   1.0000
     1.0000   1.0000   1.0000   1.0000   1.0000   1.0000   1.0000   1.0000
     1.0000   1.0000   1.0000   1.0000   1.0000   1.0000   1.0000   1.0000
     1.0000   1.0000   1.0000   1.0000   1.0000   1.0000   1.0000   1.0000
     1.0000   1.0000   1.0000   1.0000   1.0000   1.0000   1.0000   1.0000
     1.0000   1.0000   1.0000   1.0000   1.0000   1.0000   1.0000   1.0000
     1.0000   1.0000   1.0000   1.0000   1.0000   1.0000   1.0000   1.0000
     1.0000   1.0000   1.0000   1.0000   1.0000   1.0000   1.0000   1.0000
     1.0000   1.0000   1.0000   1.0000   1.0000   1.0000   1.0000   1.0000
     1.0000   1.0000   1.0000   1.0000   1.0000   1.0000   1.0000   1.0000
     1.0000   1.0000   1.0000   1.0000   1.0000   1.0000   1.0000   1.0000
     1.0000   0.9997   0.9996   0.9996   0.9995   0.9993   0.9991   0.9952
     0.9942   0.9939   0.9786   0.9627   0.9609   0.8546   0.8461   0.8431
     0.5395   0.5264   0.4621   0.4475   0.3737   0.3527   0.1014   0.0815
     0.0756   0.0350   0.0212   0.0202   0.0159   0.0092   0.0081   0.0071
     0.0049   0.0000   0.0000   0.0000   0.0000   0.0000   0.0000   0.0000
     0.0000   0.0000   0.0000   0.0000   0.0000   0.0000   0.0000   0.0000
     0.0000   0.0000   0.0000   0.0000   0.0000   0.0000   0.0000   0.0000
     0.0000   0.0000   0.0000   0.0000   0.0000   0.0000   0.0000   0.0000
     0.0000   0.0000   0.0000   0.0000   0.0000   0.0000   0.0000   0.0000
     0.0000   0.0000   0.0000   0.0000   0.0000   0.0000   0.0000   0.0000
     0.0000   0.0000   0.0000   0.0000   0.0000   0.0000   0.0000   0.0000

          k = 0.3333-0.3849 0.0000 ( 88140 PWs)   bands (ev):

   -95.3629 -95.3588 -95.3532 -95.3520 -95.3516 -95.3474 -95.3456 -95.3446
   -95.3326 -95.3277 -95.3276 -95.3252 -95.3234 -95.3228 -95.3190 -95.3183
   -95.3172 -95.2187 -94.9649 -94.9588 -94.9581 -94.9252 -94.9181 -94.9162
   -94.9116 -94.9089 -94.9054 -94.9012 -94.8996 -94.8991 -94.8952 -94.8917
   -94.8911 -94.7180 -94.7155 -94.7136 -49.6704 -49.6586 -49.6514 -49.6415
   -49.6316 -49.6252 -49.6182 -49.6100 -49.6035 -49.5979 -49.5957 -49.5918
   -49.5819 -49.5693 -49.5659 -49.5171 -49.5107 -49.5076 -49.5041 -49.4976
   -49.4948 -49.4886 -49.4830 -49.4757 -49.4700 -49.4668 -49.4608 -49.4558
   -49.4507 -49.4462 -49.4423 -49.4374 -49.4334 -49.4316 -49.4292 -49.4261
   -49.4223 -49.4161 -49.4124 -49.4108 -49.4062 -49.4019 -49.3971 -49.3946
   -49.3921 -49.3912 -49.3884 -49.3830 -49.3707 -49.3643 -49.3509 -49.3265
   -49.3108 -49.3050 -49.2964 -49.2887 -49.2826 -49.2781 -49.2668 -49.2604
   -49.2533 -49.2395 -49.2360 -49.2295 -49.2069 -49.2015 -49.1626 -49.1349
   -49.1340 -49.1265 -49.1216 -49.1189 -49.1066 -49.1009 -49.0982 -49.0929
   -49.0877 -49.0802 -49.0792 -49.0733 -49.0585 -49.0421 -49.0280 -49.0159
   -48.9809 -48.9574 -48.9423 -48.9321 -48.9216 -48.9048 -48.8735 -48.8649
   -48.8628 -48.8450 -48.8415 -48.8373 -48.8345 -48.8326 -48.8321 -48.8254
   -48.8227 -48.8218 -48.8176 -48.8131 -48.8121 -48.6321 -48.6266 -48.6243
   -11.9346  -5.3263  -4.7873  -4.2901  -4.0467  -3.5712  -3.2195  -3.1684
    -3.1574  -3.0516  -3.0126  -2.9540  -2.9014  -2.8389  -2.8263  -2.7099
    -2.6358  -2.6291  -2.5626  -2.5239  -2.4898  -2.4777  -2.4559  -2.4218
    -2.3661  -2.3298  -2.2686  -2.2540  -2.1935  -2.1517  -2.1002  -2.0367
    -2.0168  -1.9959  -1.9461  -1.9290  -1.8287  -1.7872  -1.7087  -1.6621
    -1.5268  -1.4698  -1.4515  -1.3845  -1.3663  -1.3566  -1.3408  -1.2618
    -1.2460  -1.2045  -1.1665  -1.1107  -1.0494  -1.0178  -0.9974  -0.9646
    -0.9454  -0.9176  -0.8692  -0.8425  -0.8015  -0.7560  -0.6975  -0.6738
    -0.6689  -0.6186  -0.5903  -0.4881  -0.4519  -0.4307  -0.3772  -0.3617
    -0.3547  -0.3271  -0.2944  -0.2788  -0.2434  -0.2165  -0.1829  -0.1676
    -0.0972  -0.0751  -0.0578  -0.0339  -0.0289   0.0076   0.0855   0.1095
     0.1304   0.1413   0.1600   0.2169   0.2260   0.2498   0.2714   0.2808
     0.2957   0.3103   0.3320   0.3681   0.3782   0.3950   0.4143   0.4433
     0.4816   0.5093   0.5330   0.5704   0.6261   0.6567   0.6810   0.7692
     0.7868   0.8216   0.9206   0.9919   1.0211   1.0522   1.0769   1.0977
     1.1347   1.1573   1.1634   1.2248   1.2519   1.2651   1.2860   1.3106
     1.3495   1.3863   1.3953   1.4521   1.4976   1.5349   1.6547   1.6785
     1.6932   1.7224   1.7729   1.8093   1.8186   1.8318   1.8580   1.8838
     1.8990   1.9343   2.0041   2.0337   2.0615   2.0707   2.0792   2.0955
     2.1264   2.1365   2.1473   2.2629   2.2942   2.3542   2.4194   2.4387
     2.5215   2.5520   2.5699   2.6285   2.6369   2.6640   2.7524   2.7941
     2.8263   2.8644   2.8796   2.8912   2.8939   2.9047   2.9798   3.0059
     3.0085   3.0479   3.0556   3.0800   3.1295   3.1408   3.2064   3.2123
     3.2617   3.2955   3.3066   3.3389   3.3424   3.3646   3.3850   3.3944
     3.4452   3.4698   3.5192   4.1183   4.3767   4.3992   4.4548   4.5216
     4.8103   4.9581   5.0317   5.3296   5.3803   5.4084   5.4510   5.5484
     5.8074   5.9370   6.0082   6.2515   6.5464   6.6176   6.6722   6.8129
     6.9751   7.2875   7.4626   7.7139   7.7672   7.7843   8.5252   8.7804
     8.8001   8.8618   9.0409   9.2789   9.2883   9.3750   9.5999   9.6535
     9.6686   9.9045  10.0134  10.0335  10.1956  10.2423  10.2653  10.5632
    10.6158  10.7630  10.9574  11.0042  11.0975  11.1207  11.1849  11.2258

     occupation numbers 
     1.0000   1.0000   1.0000   1.0000   1.0000   1.0000   1.0000   1.0000
     1.0000   1.0000   1.0000   1.0000   1.0000   1.0000   1.0000   1.0000
     1.0000   1.0000   1.0000   1.0000   1.0000   1.0000   1.0000   1.0000
     1.0000   1.0000   1.0000   1.0000   1.0000   1.0000   1.0000   1.0000
     1.0000   1.0000   1.0000   1.0000   1.0000   1.0000   1.0000   1.0000
     1.0000   1.0000   1.0000   1.0000   1.0000   1.0000   1.0000   1.0000
     1.0000   1.0000   1.0000   1.0000   1.0000   1.0000   1.0000   1.0000
     1.0000   1.0000   1.0000   1.0000   1.0000   1.0000   1.0000   1.0000
     1.0000   1.0000   1.0000   1.0000   1.0000   1.0000   1.0000   1.0000
     1.0000   1.0000   1.0000   1.0000   1.0000   1.0000   1.0000   1.0000
     1.0000   1.0000   1.0000   1.0000   1.0000   1.0000   1.0000   1.0000
     1.0000   1.0000   1.0000   1.0000   1.0000   1.0000   1.0000   1.0000
     1.0000   1.0000   1.0000   1.0000   1.0000   1.0000   1.0000   1.0000
     1.0000   1.0000   1.0000   1.0000   1.0000   1.0000   1.0000   1.0000
     1.0000   1.0000   1.0000   1.0000   1.0000   1.0000   1.0000   1.0000
     1.0000   1.0000   1.0000   1.0000   1.0000   1.0000   1.0000   1.0000
     1.0000   1.0000   1.0000   1.0000   1.0000   1.0000   1.0000   1.0000
     1.0000   1.0000   1.0000   1.0000   1.0000   1.0000   1.0000   1.0000
     1.0000   1.0000   1.0000   1.0000   1.0000   1.0000   1.0000   1.0000
     1.0000   1.0000   1.0000   1.0000   1.0000   1.0000   1.0000   1.0000
     1.0000   1.0000   1.0000   1.0000   1.0000   1.0000   1.0000   1.0000
     1.0000   1.0000   1.0000   1.0000   1.0000   1.0000   1.0000   1.0000
     1.0000   1.0000   1.0000   1.0000   1.0000   1.0000   1.0000   1.0000
     1.0000   1.0000   1.0000   1.0000   1.0000   1.0000   1.0000   1.0000
     1.0000   1.0000   1.0000   1.0000   1.0000   1.0000   1.0000   1.0000
     1.0000   1.0000   1.0000   1.0000   1.0000   1.0000   1.0000   1.0000
     1.0000   1.0000   1.0000   1.0000   1.0000   1.0000   1.0000   1.0000
     1.0000   1.0000   1.0000   1.0000   1.0000   1.0000   1.0000   1.0000
     1.0000   1.0000   1.0000   1.0000   1.0000   1.0000   1.0000   1.0000
     1.0000   1.0000   1.0000   1.0000   1.0000   1.0000   1.0000   1.0000
     1.0000   1.0000   1.0000   1.0000   1.0000   1.0000   1.0000   1.0000
     1.0000   1.0000   1.0000   1.0000   1.0000   1.0000   1.0000   1.0000
     1.0000   1.0000   1.0000   1.0000   1.0000   1.0000   1.0000   1.0000
     1.0000   1.0000   1.0000   1.0000   1.0000   1.0000   1.0000   1.0000
     1.0000   1.0000   1.0000   1.0000   1.0000   1.0000   1.0000   1.0000
     1.0000   1.0000   1.0000   1.0000   1.0000   1.0000   1.0000   1.0000
     1.0000   1.0000   1.0000   1.0000   1.0000   1.0000   1.0000   1.0000
     1.0000   1.0000   1.0000   1.0000   1.0000   1.0000   1.0000   1.0000
     1.0000   1.0000   1.0000   0.9999   0.9999   0.9998   0.9990   0.9978
     0.9958   0.9910   0.9879   0.9848   0.9840   0.9802   0.9166   0.8672
     0.8612   0.7380   0.7072   0.5971   0.3554   0.3052   0.1059   0.0953
     0.0377   0.0195   0.0157   0.0083   0.0077   0.0050   0.0033   0.0027
     0.0010   0.0006   0.0002   0.0000   0.0000   0.0000   0.0000   0.0000
     0.0000   0.0000   0.0000   0.0000   0.0000   0.0000   0.0000   0.0000
     0.0000   0.0000   0.0000   0.0000   0.0000   0.0000   0.0000   0.0000
     0.0000   0.0000   0.0000   0.0000   0.0000   0.0000   0.0000   0.0000
     0.0000   0.0000   0.0000   0.0000   0.0000   0.0000   0.0000   0.0000
     0.0000   0.0000   0.0000   0.0000   0.0000   0.0000   0.0000   0.0000
     0.0000   0.0000   0.0000   0.0000   0.0000   0.0000   0.0000   0.0000

          k =-0.5000 0.2887 0.0000 ( 88178 PWs)   bands (ev):

   -95.3629 -95.3589 -95.3527 -95.3522 -95.3518 -95.3474 -95.3457 -95.3445
   -95.3326 -95.3277 -95.3276 -95.3252 -95.3233 -95.3229 -95.3192 -95.3179
   -95.3174 -95.2187 -94.9649 -94.9589 -94.9581 -94.9252 -94.9181 -94.9162
   -94.9114 -94.9094 -94.9044 -94.9023 -94.8994 -94.8989 -94.8952 -94.8916
   -94.8912 -94.7181 -94.7155 -94.7136 -49.6745 -49.6531 -49.6462 -49.6412
   -49.6279 -49.6236 -49.6217 -49.6203 -49.6040 -49.6018 -49.6005 -49.5976
   -49.5758 -49.5656 -49.5396 -49.5390 -49.5066 -49.5056 -49.4994 -49.4986
   -49.4954 -49.4886 -49.4871 -49.4817 -49.4772 -49.4676 -49.4634 -49.4535
   -49.4483 -49.4431 -49.4428 -49.4371 -49.4357 -49.4268 -49.4261 -49.4227
   -49.4178 -49.4165 -49.4128 -49.4099 -49.4050 -49.4022 -49.4003 -49.3980
   -49.3933 -49.3887 -49.3870 -49.3835 -49.3766 -49.3650 -49.3448 -49.3325
   -49.3084 -49.3074 -49.2937 -49.2912 -49.2826 -49.2732 -49.2541 -49.2538
   -49.2515 -49.2505 -49.2487 -49.2482 -49.1951 -49.1688 -49.1684 -49.1645
   -49.1337 -49.1267 -49.1131 -49.1129 -49.1103 -49.1098 -49.1088 -49.0821
   -49.0757 -49.0749 -49.0744 -49.0734 -49.0604 -49.0602 -49.0206 -49.0177
   -48.9833 -48.9531 -48.9392 -48.9317 -48.9296 -48.9022 -48.8735 -48.8651
   -48.8626 -48.8450 -48.8412 -48.8384 -48.8346 -48.8325 -48.8300 -48.8277
   -48.8222 -48.8215 -48.8175 -48.8129 -48.8124 -48.6321 -48.6266 -48.6243
   -11.9346  -5.1661  -5.1179  -3.9177  -3.8569  -3.7094  -3.6964  -3.2902
    -3.1283  -2.8537  -2.8235  -2.7885  -2.7769  -2.7598  -2.7474  -2.7386
    -2.7173  -2.6997  -2.6801  -2.6306  -2.5899  -2.5723  -2.5411  -2.5354
    -2.4366  -2.3491  -2.2125  -2.2101  -2.1743  -2.1718  -1.9495  -1.9452
    -1.9219  -1.8922  -1.8676  -1.8580  -1.7921  -1.7866  -1.6529  -1.6434
    -1.5708  -1.5590  -1.5546  -1.4772  -1.4711  -1.3436  -1.3425  -1.3078
    -1.2823  -1.2192  -1.1869  -1.0827  -1.0785  -1.0636  -1.0085  -0.9585
    -0.9491  -0.9223  -0.9180  -0.8142  -0.8003  -0.7414  -0.7006  -0.6769
    -0.6320  -0.6145  -0.4998  -0.4645  -0.4603  -0.4529  -0.4177  -0.4080
    -0.4030  -0.3938  -0.3551  -0.1836  -0.1625  -0.1409  -0.1392  -0.1352
    -0.1346  -0.1032  -0.0906  -0.0870  -0.0535  -0.0380   0.0342   0.0354
     0.0800   0.0849   0.0983   0.1294   0.1912   0.2502   0.3041   0.3254
     0.3358   0.3427   0.3529   0.3596   0.3755   0.4060   0.4464   0.4678
     0.5876   0.6040   0.6096   0.7008   0.7847   0.8366   0.8892   0.9083
     0.9293   0.9361   1.0051   1.0207   1.0327   1.0486   1.0534   1.0567
     1.0791   1.0928   1.1227   1.1375   1.1710   1.2196   1.2211   1.2455
     1.2498   1.3030   1.3567   1.3874   1.4047   1.4306   1.4664   1.6075
     1.6274   1.7628   1.8083   1.8299   1.8351   1.8366   1.8637   1.9637
     1.9921   2.0628   2.0753   2.0873   2.0923   2.0986   2.1119   2.1235
     2.1931   2.2053   2.2271   2.2276   2.2464   2.3299   2.3500   2.4001
     2.4367   2.4840   2.5670   2.6152   2.6157   2.6248   2.7146   2.7313
     2.8054   2.8066   2.8181   2.8243   2.8730   2.8785   2.8994   2.9119
     2.9221   2.9701   3.0926   3.1010   3.1039   3.1200   3.1262   3.1327
     3.1882   3.2608   3.3386   3.3555   3.3818   3.3871   3.3962   3.3994
     3.6028   3.6405   3.9022   3.9156   4.0983   4.5650   4.6124   4.9641
     4.9676   4.9702   4.9755   5.4395   5.4498   5.4620   5.4797   5.5009
     5.7891   5.9586   5.9624   6.0850   6.3373   6.3629   6.5141   6.5368
     6.5512   6.5942   8.4240   8.4249   8.4579   8.4820   8.6734   8.6999
     8.8125   8.9648   9.0039   9.0194   9.0481   9.0745   9.4048   9.4198
     9.5019   9.9365   9.9428  10.0071  10.0574  10.2738  10.3625  10.5062
    10.5112  10.7840  10.9108  10.9234  10.9641  11.0312  11.0619  11.0664

     occupation numbers 
     1.0000   1.0000   1.0000   1.0000   1.0000   1.0000   1.0000   1.0000
     1.0000   1.0000   1.0000   1.0000   1.0000   1.0000   1.0000   1.0000
     1.0000   1.0000   1.0000   1.0000   1.0000   1.0000   1.0000   1.0000
     1.0000   1.0000   1.0000   1.0000   1.0000   1.0000   1.0000   1.0000
     1.0000   1.0000   1.0000   1.0000   1.0000   1.0000   1.0000   1.0000
     1.0000   1.0000   1.0000   1.0000   1.0000   1.0000   1.0000   1.0000
     1.0000   1.0000   1.0000   1.0000   1.0000   1.0000   1.0000   1.0000
     1.0000   1.0000   1.0000   1.0000   1.0000   1.0000   1.0000   1.0000
     1.0000   1.0000   1.0000   1.0000   1.0000   1.0000   1.0000   1.0000
     1.0000   1.0000   1.0000   1.0000   1.0000   1.0000   1.0000   1.0000
     1.0000   1.0000   1.0000   1.0000   1.0000   1.0000   1.0000   1.0000
     1.0000   1.0000   1.0000   1.0000   1.0000   1.0000   1.0000   1.0000
     1.0000   1.0000   1.0000   1.0000   1.0000   1.0000   1.0000   1.0000
     1.0000   1.0000   1.0000   1.0000   1.0000   1.0000   1.0000   1.0000
     1.0000   1.0000   1.0000   1.0000   1.0000   1.0000   1.0000   1.0000
     1.0000   1.0000   1.0000   1.0000   1.0000   1.0000   1.0000   1.0000
     1.0000   1.0000   1.0000   1.0000   1.0000   1.0000   1.0000   1.0000
     1.0000   1.0000   1.0000   1.0000   1.0000   1.0000   1.0000   1.0000
     1.0000   1.0000   1.0000   1.0000   1.0000   1.0000   1.0000   1.0000
     1.0000   1.0000   1.0000   1.0000   1.0000   1.0000   1.0000   1.0000
     1.0000   1.0000   1.0000   1.0000   1.0000   1.0000   1.0000   1.0000
     1.0000   1.0000   1.0000   1.0000   1.0000   1.0000   1.0000   1.0000
     1.0000   1.0000   1.0000   1.0000   1.0000   1.0000   1.0000   1.0000
     1.0000   1.0000   1.0000   1.0000   1.0000   1.0000   1.0000   1.0000
     1.0000   1.0000   1.0000   1.0000   1.0000   1.0000   1.0000   1.0000
     1.0000   1.0000   1.0000   1.0000   1.0000   1.0000   1.0000   1.0000
     1.0000   1.0000   1.0000   1.0000   1.0000   1.0000   1.0000   1.0000
     1.0000   1.0000   1.0000   1.0000   1.0000   1.0000   1.0000   1.0000
     1.0000   1.0000   1.0000   1.0000   1.0000   1.0000   1.0000   1.0000
     1.0000   1.0000   1.0000   1.0000   1.0000   1.0000   1.0000   1.0000
     1.0000   1.0000   1.0000   1.0000   1.0000   1.0000   1.0000   1.0000
     1.0000   1.0000   1.0000   1.0000   1.0000   1.0000   1.0000   1.0000
     1.0000   1.0000   1.0000   1.0000   1.0000   1.0000   1.0000   1.0000
     1.0000   1.0000   1.0000   1.0000   1.0000   1.0000   1.0000   1.0000
     1.0000   1.0000   1.0000   1.0000   1.0000   1.0000   1.0000   1.0000
     1.0000   1.0000   1.0000   1.0000   1.0000   1.0000   1.0000   1.0000
     1.0000   1.0000   1.0000   1.0000   1.0000   1.0000   1.0000   1.0000
     1.0000   1.0000   1.0000   1.0000   1.0000   1.0000   1.0000   1.0000
     1.0000   1.0000   1.0000   0.9999   0.9999   0.9999   0.9995   0.9994
     0.9972   0.9972   0.9964   0.9960   0.9894   0.9881   0.9821   0.9771
     0.9721   0.9303   0.5354   0.4937   0.4790   0.3999   0.3705   0.3407
     0.1457   0.0384   0.0083   0.0060   0.0035   0.0032   0.0027   0.0025
     0.0000   0.0000   0.0000   0.0000   0.0000   0.0000   0.0000   0.0000
     0.0000   0.0000   0.0000   0.0000   0.0000   0.0000   0.0000   0.0000
     0.0000   0.0000   0.0000   0.0000   0.0000   0.0000   0.0000   0.0000
     0.0000   0.0000   0.0000   0.0000   0.0000   0.0000   0.0000   0.0000
     0.0000   0.0000   0.0000   0.0000   0.0000   0.0000   0.0000   0.0000
     0.0000   0.0000   0.0000   0.0000   0.0000   0.0000   0.0000   0.0000
     0.0000   0.0000   0.0000   0.0000   0.0000   0.0000   0.0000   0.0000

          k =-0.5000 0.4811 0.0000 ( 88140 PWs)   bands (ev):

   -95.3629 -95.3588 -95.3532 -95.3519 -95.3517 -95.3474 -95.3457 -95.3445
   -95.3326 -95.3278 -95.3276 -95.3251 -95.3235 -95.3228 -95.3190 -95.3182
   -95.3172 -95.2187 -94.9649 -94.9589 -94.9581 -94.9252 -94.9181 -94.9162
   -94.9116 -94.9089 -94.9054 -94.9011 -94.8997 -94.8991 -94.8952 -94.8917
   -94.8911 -94.7180 -94.7155 -94.7136 -49.6703 -49.6575 -49.6522 -49.6417
   -49.6315 -49.6252 -49.6181 -49.6100 -49.6036 -49.5979 -49.5956 -49.5918
   -49.5822 -49.5695 -49.5658 -49.5181 -49.5109 -49.5073 -49.5038 -49.4971
   -49.4944 -49.4887 -49.4831 -49.4758 -49.4703 -49.4671 -49.4608 -49.4559
   -49.4504 -49.4461 -49.4420 -49.4372 -49.4334 -49.4317 -49.4291 -49.4261
   -49.4222 -49.4165 -49.4121 -49.4107 -49.4064 -49.4014 -49.3974 -49.3949
   -49.3920 -49.3910 -49.3882 -49.3827 -49.3710 -49.3646 -49.3510 -49.3263
   -49.3111 -49.3048 -49.2965 -49.2888 -49.2826 -49.2781 -49.2665 -49.2606
   -49.2534 -49.2395 -49.2357 -49.2297 -49.2072 -49.2015 -49.1624 -49.1348
   -49.1339 -49.1268 -49.1213 -49.1187 -49.1067 -49.1010 -49.0979 -49.0931
   -49.0879 -49.0801 -49.0792 -49.0734 -49.0583 -49.0421 -49.0279 -49.0161
   -48.9808 -48.9570 -48.9426 -48.9325 -48.9213 -48.9047 -48.8735 -48.8651
   -48.8627 -48.8450 -48.8415 -48.8372 -48.8346 -48.8326 -48.8321 -48.8254
   -48.8228 -48.8218 -48.8175 -48.8130 -48.8122 -48.6321 -48.6266 -48.6243
   -11.9346  -5.3264  -4.7872  -4.2903  -4.0468  -3.5711  -3.2195  -3.1679
    -3.1572  -3.0517  -3.0138  -2.9542  -2.9017  -2.8383  -2.8255  -2.7092
    -2.6365  -2.6294  -2.5627  -2.5245  -2.4912  -2.4777  -2.4557  -2.4217
    -2.3658  -2.3280  -2.2686  -2.2538  -2.1939  -2.1519  -2.0995  -2.0375
    -2.0170  -1.9957  -1.9467  -1.9299  -1.8285  -1.7860  -1.7086  -1.6622
    -1.5268  -1.4696  -1.4516  -1.3840  -1.3660  -1.3561  -1.3406  -1.2612
    -1.2461  -1.2046  -1.1665  -1.1113  -1.0489  -1.0174  -0.9976  -0.9656
    -0.9450  -0.9176  -0.8694  -0.8419  -0.8011  -0.7545  -0.6969  -0.6735
    -0.6681  -0.6192  -0.5888  -0.4876  -0.4534  -0.4314  -0.3773  -0.3618
    -0.3549  -0.3278  -0.2958  -0.2786  -0.2426  -0.2171  -0.1844  -0.1679
    -0.0973  -0.0750  -0.0566  -0.0342  -0.0286   0.0077   0.0853   0.1081
     0.1291   0.1408   0.1600   0.2170   0.2261   0.2481   0.2718   0.2799
     0.2959   0.3102   0.3317   0.3691   0.3800   0.3964   0.4152   0.4442
     0.4808   0.5093   0.5323   0.5708   0.6256   0.6566   0.6810   0.7683
     0.7867   0.8214   0.9194   0.9917   1.0204   1.0529   1.0774   1.0978
     1.1337   1.1567   1.1633   1.2265   1.2529   1.2650   1.2863   1.3102
     1.3494   1.3860   1.3960   1.4519   1.4972   1.5346   1.6549   1.6774
     1.6932   1.7227   1.7718   1.8092   1.8182   1.8298   1.8594   1.8845
     1.8991   1.9336   2.0048   2.0343   2.0613   2.0715   2.0798   2.0959
     2.1272   2.1364   2.1478   2.2622   2.2941   2.3560   2.4186   2.4382
     2.5213   2.5511   2.5689   2.6291   2.6369   2.6646   2.7528   2.7935
     2.8262   2.8654   2.8790   2.8914   2.8941   2.9056   2.9777   3.0048
     3.0087   3.0478   3.0561   3.0811   3.1283   3.1396   3.2065   3.2135
     3.2627   3.2946   3.3049   3.3376   3.3412   3.3645   3.3880   3.3967
     3.4454   3.4711   3.5193   4.1182   4.3758   4.3986   4.4547   4.5215
     4.8097   4.9592   5.0320   5.3314   5.3809   5.4083   5.4516   5.5490
     5.8072   5.9374   6.0070   6.2525   6.5451   6.6180   6.6717   6.8125
     6.9759   7.2859   7.4643   7.7114   7.7679   7.7849   8.5244   8.7784
     8.7989   8.8634   9.0411   9.2791   9.2877   9.3742   9.6014   9.6537
     9.6683   9.9068  10.0185  10.0345  10.1959  10.2450  10.2604  10.5634
    10.6182  10.7630  10.9567  11.0019  11.0969  11.1205  11.1860  11.2257

     occupation numbers 
     1.0000   1.0000   1.0000   1.0000   1.0000   1.0000   1.0000   1.0000
     1.0000   1.0000   1.0000   1.0000   1.0000   1.0000   1.0000   1.0000
     1.0000   1.0000   1.0000   1.0000   1.0000   1.0000   1.0000   1.0000
     1.0000   1.0000   1.0000   1.0000   1.0000   1.0000   1.0000   1.0000
     1.0000   1.0000   1.0000   1.0000   1.0000   1.0000   1.0000   1.0000
     1.0000   1.0000   1.0000   1.0000   1.0000   1.0000   1.0000   1.0000
     1.0000   1.0000   1.0000   1.0000   1.0000   1.0000   1.0000   1.0000
     1.0000   1.0000   1.0000   1.0000   1.0000   1.0000   1.0000   1.0000
     1.0000   1.0000   1.0000   1.0000   1.0000   1.0000   1.0000   1.0000
     1.0000   1.0000   1.0000   1.0000   1.0000   1.0000   1.0000   1.0000
     1.0000   1.0000   1.0000   1.0000   1.0000   1.0000   1.0000   1.0000
     1.0000   1.0000   1.0000   1.0000   1.0000   1.0000   1.0000   1.0000
     1.0000   1.0000   1.0000   1.0000   1.0000   1.0000   1.0000   1.0000
     1.0000   1.0000   1.0000   1.0000   1.0000   1.0000   1.0000   1.0000
     1.0000   1.0000   1.0000   1.0000   1.0000   1.0000   1.0000   1.0000
     1.0000   1.0000   1.0000   1.0000   1.0000   1.0000   1.0000   1.0000
     1.0000   1.0000   1.0000   1.0000   1.0000   1.0000   1.0000   1.0000
     1.0000   1.0000   1.0000   1.0000   1.0000   1.0000   1.0000   1.0000
     1.0000   1.0000   1.0000   1.0000   1.0000   1.0000   1.0000   1.0000
     1.0000   1.0000   1.0000   1.0000   1.0000   1.0000   1.0000   1.0000
     1.0000   1.0000   1.0000   1.0000   1.0000   1.0000   1.0000   1.0000
     1.0000   1.0000   1.0000   1.0000   1.0000   1.0000   1.0000   1.0000
     1.0000   1.0000   1.0000   1.0000   1.0000   1.0000   1.0000   1.0000
     1.0000   1.0000   1.0000   1.0000   1.0000   1.0000   1.0000   1.0000
     1.0000   1.0000   1.0000   1.0000   1.0000   1.0000   1.0000   1.0000
     1.0000   1.0000   1.0000   1.0000   1.0000   1.0000   1.0000   1.0000
     1.0000   1.0000   1.0000   1.0000   1.0000   1.0000   1.0000   1.0000
     1.0000   1.0000   1.0000   1.0000   1.0000   1.0000   1.0000   1.0000
     1.0000   1.0000   1.0000   1.0000   1.0000   1.0000   1.0000   1.0000
     1.0000   1.0000   1.0000   1.0000   1.0000   1.0000   1.0000   1.0000
     1.0000   1.0000   1.0000   1.0000   1.0000   1.0000   1.0000   1.0000
     1.0000   1.0000   1.0000   1.0000   1.0000   1.0000   1.0000   1.0000
     1.0000   1.0000   1.0000   1.0000   1.0000   1.0000   1.0000   1.0000
     1.0000   1.0000   1.0000   1.0000   1.0000   1.0000   1.0000   1.0000
     1.0000   1.0000   1.0000   1.0000   1.0000   1.0000   1.0000   1.0000
     1.0000   1.0000   1.0000   1.0000   1.0000   1.0000   1.0000   1.0000
     1.0000   1.0000   1.0000   1.0000   1.0000   1.0000   1.0000   1.0000
     1.0000   1.0000   1.0000   1.0000   1.0000   1.0000   1.0000   1.0000
     1.0000   1.0000   1.0000   0.9999   0.9999   0.9998   0.9990   0.9978
     0.9958   0.9909   0.9880   0.9847   0.9839   0.9798   0.9199   0.8696
     0.8606   0.7384   0.7053   0.5921   0.3610   0.3106   0.1056   0.0932
     0.0370   0.0199   0.0162   0.0085   0.0079   0.0050   0.0031   0.0026
     0.0010   0.0006   0.0002   0.0000   0.0000   0.0000   0.0000   0.0000
     0.0000   0.0000   0.0000   0.0000   0.0000   0.0000   0.0000   0.0000
     0.0000   0.0000   0.0000   0.0000   0.0000   0.0000   0.0000   0.0000
     0.0000   0.0000   0.0000   0.0000   0.0000   0.0000   0.0000   0.0000
     0.0000   0.0000   0.0000   0.0000   0.0000   0.0000   0.0000   0.0000
     0.0000   0.0000   0.0000   0.0000   0.0000   0.0000   0.0000   0.0000
     0.0000   0.0000   0.0000   0.0000   0.0000   0.0000   0.0000   0.0000

          k =-0.5000 0.6736 0.0000 ( 88140 PWs)   bands (ev):

   -95.3629 -95.3587 -95.3532 -95.3519 -95.3517 -95.3474 -95.3457 -95.3445
   -95.3326 -95.3278 -95.3276 -95.3251 -95.3235 -95.3228 -95.3190 -95.3183
   -95.3172 -95.2187 -94.9649 -94.9589 -94.9581 -94.9252 -94.9181 -94.9162
   -94.9116 -94.9089 -94.9054 -94.9011 -94.8997 -94.8991 -94.8952 -94.8917
   -94.8911 -94.7180 -94.7155 -94.7136 -49.6703 -49.6576 -49.6522 -49.6417
   -49.6315 -49.6252 -49.6182 -49.6100 -49.6036 -49.5979 -49.5956 -49.5918
   -49.5822 -49.5695 -49.5658 -49.5181 -49.5109 -49.5073 -49.5038 -49.4971
   -49.4944 -49.4887 -49.4831 -49.4758 -49.4703 -49.4671 -49.4607 -49.4559
   -49.4504 -49.4461 -49.4420 -49.4371 -49.4335 -49.4316 -49.4291 -49.4261
   -49.4222 -49.4165 -49.4121 -49.4107 -49.4064 -49.4014 -49.3974 -49.3948
   -49.3920 -49.3910 -49.3883 -49.3827 -49.3710 -49.3646 -49.3510 -49.3263
   -49.3111 -49.3048 -49.2965 -49.2888 -49.2826 -49.2781 -49.2665 -49.2606
   -49.2534 -49.2395 -49.2357 -49.2297 -49.2072 -49.2015 -49.1624 -49.1348
   -49.1339 -49.1268 -49.1213 -49.1187 -49.1067 -49.1010 -49.0979 -49.0931
   -49.0879 -49.0801 -49.0792 -49.0735 -49.0583 -49.0421 -49.0279 -49.0161
   -48.9808 -48.9570 -48.9426 -48.9324 -48.9213 -48.9048 -48.8735 -48.8651
   -48.8627 -48.8450 -48.8415 -48.8372 -48.8346 -48.8326 -48.8321 -48.8253
   -48.8228 -48.8218 -48.8175 -48.8130 -48.8122 -48.6321 -48.6266 -48.6243
   -11.9346  -5.3264  -4.7872  -4.2903  -4.0468  -3.5711  -3.2195  -3.1680
    -3.1572  -3.0517  -3.0138  -2.9542  -2.9017  -2.8383  -2.8255  -2.7092
    -2.6365  -2.6294  -2.5627  -2.5245  -2.4912  -2.4777  -2.4557  -2.4217
    -2.3658  -2.3281  -2.2686  -2.2538  -2.1939  -2.1519  -2.0995  -2.0375
    -2.0170  -1.9957  -1.9467  -1.9299  -1.8285  -1.7860  -1.7086  -1.6621
    -1.5268  -1.4696  -1.4516  -1.3840  -1.3660  -1.3561  -1.3406  -1.2612
    -1.2461  -1.2046  -1.1665  -1.1113  -1.0489  -1.0174  -0.9976  -0.9656
    -0.9450  -0.9176  -0.8694  -0.8419  -0.8010  -0.7545  -0.6970  -0.6735
    -0.6682  -0.6192  -0.5888  -0.4876  -0.4533  -0.4314  -0.3774  -0.3619
    -0.3550  -0.3278  -0.2958  -0.2786  -0.2426  -0.2171  -0.1844  -0.1678
    -0.0973  -0.0749  -0.0566  -0.0342  -0.0286   0.0078   0.0853   0.1081
     0.1291   0.1408   0.1600   0.2170   0.2261   0.2481   0.2718   0.2798
     0.2958   0.3101   0.3317   0.3690   0.3800   0.3963   0.4153   0.4442
     0.4808   0.5093   0.5323   0.5708   0.6257   0.6565   0.6810   0.7683
     0.7867   0.8214   0.9194   0.9918   1.0204   1.0529   1.0774   1.0978
     1.1337   1.1567   1.1632   1.2264   1.2529   1.2650   1.2863   1.3102
     1.3494   1.3859   1.3960   1.4519   1.4972   1.5346   1.6549   1.6774
     1.6932   1.7227   1.7718   1.8092   1.8182   1.8298   1.8594   1.8845
     1.8991   1.9336   2.0049   2.0343   2.0612   2.0715   2.0799   2.0957
     2.1274   2.1361   2.1479   2.2622   2.2940   2.3560   2.4185   2.4383
     2.5213   2.5511   2.5690   2.6291   2.6370   2.6646   2.7528   2.7935
     2.8262   2.8654   2.8790   2.8913   2.8942   2.9056   2.9777   3.0049
     3.0087   3.0479   3.0561   3.0811   3.1283   3.1396   3.2066   3.2147
     3.2604   3.2937   3.3050   3.3396   3.3416   3.3644   3.3877   3.3967
     3.4454   3.4711   3.5190   4.1182   4.3758   4.3986   4.4547   4.5215
     4.8097   4.9592   5.0320   5.3314   5.3809   5.4082   5.4517   5.5490
     5.8073   5.9374   6.0070   6.2524   6.5451   6.6180   6.6717   6.8125
     6.9759   7.2859   7.4642   7.7114   7.7679   7.7849   8.5244   8.7784
     8.7989   8.8634   9.0411   9.2788   9.2878   9.3742   9.6014   9.6536
     9.6683   9.9068  10.0185  10.0346  10.1957  10.2449  10.2604  10.5643
    10.6182  10.7626  10.9572  11.0016  11.0964  11.1203  11.1854  11.2259

     occupation numbers 
     1.0000   1.0000   1.0000   1.0000   1.0000   1.0000   1.0000   1.0000
     1.0000   1.0000   1.0000   1.0000   1.0000   1.0000   1.0000   1.0000
     1.0000   1.0000   1.0000   1.0000   1.0000   1.0000   1.0000   1.0000
     1.0000   1.0000   1.0000   1.0000   1.0000   1.0000   1.0000   1.0000
     1.0000   1.0000   1.0000   1.0000   1.0000   1.0000   1.0000   1.0000
     1.0000   1.0000   1.0000   1.0000   1.0000   1.0000   1.0000   1.0000
     1.0000   1.0000   1.0000   1.0000   1.0000   1.0000   1.0000   1.0000
     1.0000   1.0000   1.0000   1.0000   1.0000   1.0000   1.0000   1.0000
     1.0000   1.0000   1.0000   1.0000   1.0000   1.0000   1.0000   1.0000
     1.0000   1.0000   1.0000   1.0000   1.0000   1.0000   1.0000   1.0000
     1.0000   1.0000   1.0000   1.0000   1.0000   1.0000   1.0000   1.0000
     1.0000   1.0000   1.0000   1.0000   1.0000   1.0000   1.0000   1.0000
     1.0000   1.0000   1.0000   1.0000   1.0000   1.0000   1.0000   1.0000
     1.0000   1.0000   1.0000   1.0000   1.0000   1.0000   1.0000   1.0000
     1.0000   1.0000   1.0000   1.0000   1.0000   1.0000   1.0000   1.0000
     1.0000   1.0000   1.0000   1.0000   1.0000   1.0000   1.0000   1.0000
     1.0000   1.0000   1.0000   1.0000   1.0000   1.0000   1.0000   1.0000
     1.0000   1.0000   1.0000   1.0000   1.0000   1.0000   1.0000   1.0000
     1.0000   1.0000   1.0000   1.0000   1.0000   1.0000   1.0000   1.0000
     1.0000   1.0000   1.0000   1.0000   1.0000   1.0000   1.0000   1.0000
     1.0000   1.0000   1.0000   1.0000   1.0000   1.0000   1.0000   1.0000
     1.0000   1.0000   1.0000   1.0000   1.0000   1.0000   1.0000   1.0000
     1.0000   1.0000   1.0000   1.0000   1.0000   1.0000   1.0000   1.0000
     1.0000   1.0000   1.0000   1.0000   1.0000   1.0000   1.0000   1.0000
     1.0000   1.0000   1.0000   1.0000   1.0000   1.0000   1.0000   1.0000
     1.0000   1.0000   1.0000   1.0000   1.0000   1.0000   1.0000   1.0000
     1.0000   1.0000   1.0000   1.0000   1.0000   1.0000   1.0000   1.0000
     1.0000   1.0000   1.0000   1.0000   1.0000   1.0000   1.0000   1.0000
     1.0000   1.0000   1.0000   1.0000   1.0000   1.0000   1.0000   1.0000
     1.0000   1.0000   1.0000   1.0000   1.0000   1.0000   1.0000   1.0000
     1.0000   1.0000   1.0000   1.0000   1.0000   1.0000   1.0000   1.0000
     1.0000   1.0000   1.0000   1.0000   1.0000   1.0000   1.0000   1.0000
     1.0000   1.0000   1.0000   1.0000   1.0000   1.0000   1.0000   1.0000
     1.0000   1.0000   1.0000   1.0000   1.0000   1.0000   1.0000   1.0000
     1.0000   1.0000   1.0000   1.0000   1.0000   1.0000   1.0000   1.0000
     1.0000   1.0000   1.0000   1.0000   1.0000   1.0000   1.0000   1.0000
     1.0000   1.0000   1.0000   1.0000   1.0000   1.0000   1.0000   1.0000
     1.0000   1.0000   1.0000   1.0000   1.0000   1.0000   1.0000   1.0000
     1.0000   1.0000   1.0000   0.9999   0.9999   0.9998   0.9990   0.9978
     0.9958   0.9909   0.9880   0.9847   0.9839   0.9798   0.9198   0.8695
     0.8606   0.7383   0.7054   0.5922   0.3609   0.3107   0.1056   0.0911
     0.0387   0.0202   0.0162   0.0082   0.0079   0.0050   0.0031   0.0026
     0.0010   0.0006   0.0002   0.0000   0.0000   0.0000   0.0000   0.0000
     0.0000   0.0000   0.0000   0.0000   0.0000   0.0000   0.0000   0.0000
     0.0000   0.0000   0.0000   0.0000   0.0000   0.0000   0.0000   0.0000
     0.0000   0.0000   0.0000   0.0000   0.0000   0.0000   0.0000   0.0000
     0.0000   0.0000   0.0000   0.0000   0.0000   0.0000   0.0000   0.0000
     0.0000   0.0000   0.0000   0.0000   0.0000   0.0000   0.0000   0.0000
     0.0000   0.0000   0.0000   0.0000   0.0000   0.0000   0.0000   0.0000

          k =-0.5000-0.2887 0.0000 ( 88178 PWs)   bands (ev):

   -95.3629 -95.3589 -95.3527 -95.3523 -95.3518 -95.3474 -95.3457 -95.3445
   -95.3326 -95.3277 -95.3276 -95.3251 -95.3233 -95.3229 -95.3192 -95.3179
   -95.3173 -95.2187 -94.9649 -94.9589 -94.9581 -94.9252 -94.9181 -94.9162
   -94.9114 -94.9095 -94.9044 -94.9022 -94.8994 -94.8989 -94.8952 -94.8916
   -94.8912 -94.7181 -94.7155 -94.7136 -49.6745 -49.6531 -49.6462 -49.6412
   -49.6279 -49.6236 -49.6217 -49.6202 -49.6040 -49.6018 -49.6006 -49.5975
   -49.5759 -49.5657 -49.5396 -49.5390 -49.5066 -49.5056 -49.4994 -49.4985
   -49.4954 -49.4886 -49.4871 -49.4816 -49.4772 -49.4676 -49.4634 -49.4535
   -49.4483 -49.4431 -49.4428 -49.4371 -49.4357 -49.4268 -49.4261 -49.4226
   -49.4178 -49.4165 -49.4128 -49.4099 -49.4049 -49.4021 -49.4003 -49.3980
   -49.3932 -49.3888 -49.3870 -49.3835 -49.3766 -49.3650 -49.3448 -49.3325
   -49.3084 -49.3074 -49.2938 -49.2912 -49.2826 -49.2732 -49.2542 -49.2538
   -49.2516 -49.2505 -49.2487 -49.2482 -49.1951 -49.1688 -49.1684 -49.1645
   -49.1337 -49.1266 -49.1131 -49.1129 -49.1103 -49.1098 -49.1088 -49.0821
   -49.0757 -49.0749 -49.0744 -49.0734 -49.0604 -49.0602 -49.0206 -49.0178
   -48.9834 -48.9531 -48.9392 -48.9317 -48.9295 -48.9023 -48.8735 -48.8652
   -48.8626 -48.8450 -48.8411 -48.8384 -48.8346 -48.8325 -48.8300 -48.8277
   -48.8222 -48.8215 -48.8175 -48.8128 -48.8124 -48.6321 -48.6266 -48.6243
   -11.9346  -5.1661  -5.1179  -3.9177  -3.8569  -3.7094  -3.6964  -3.2903
    -3.1283  -2.8537  -2.8235  -2.7885  -2.7769  -2.7598  -2.7474  -2.7385
    -2.7173  -2.6998  -2.6801  -2.6306  -2.5899  -2.5723  -2.5411  -2.5355
    -2.4366  -2.3492  -2.2125  -2.2101  -2.1743  -2.1719  -1.9495  -1.9452
    -1.9218  -1.8922  -1.8676  -1.8580  -1.7921  -1.7866  -1.6529  -1.6434
    -1.5708  -1.5590  -1.5546  -1.4773  -1.4711  -1.3436  -1.3425  -1.3078
    -1.2823  -1.2193  -1.1869  -1.0827  -1.0784  -1.0635  -1.0084  -0.9585
    -0.9491  -0.9223  -0.9180  -0.8142  -0.8003  -0.7414  -0.7006  -0.6769
    -0.6320  -0.6145  -0.4998  -0.4646  -0.4603  -0.4529  -0.4178  -0.4080
    -0.4030  -0.3938  -0.3551  -0.1836  -0.1625  -0.1409  -0.1393  -0.1351
    -0.1346  -0.1032  -0.0907  -0.0869  -0.0535  -0.0381   0.0341   0.0355
     0.0800   0.0850   0.0983   0.1294   0.1912   0.2502   0.3041   0.3254
     0.3358   0.3426   0.3528   0.3596   0.3755   0.4059   0.4464   0.4679
     0.5876   0.6039   0.6095   0.7008   0.7847   0.8366   0.8892   0.9083
     0.9293   0.9361   1.0051   1.0207   1.0328   1.0486   1.0534   1.0566
     1.0792   1.0929   1.1227   1.1375   1.1711   1.2196   1.2210   1.2455
     1.2498   1.3031   1.3566   1.3874   1.4047   1.4306   1.4664   1.6075
     1.6274   1.7628   1.8084   1.8298   1.8351   1.8366   1.8637   1.9637
     1.9920   2.0629   2.0753   2.0873   2.0922   2.0987   2.1118   2.1235
     2.1931   2.2053   2.2271   2.2277   2.2464   2.3299   2.3500   2.4000
     2.4366   2.4840   2.5670   2.6152   2.6157   2.6248   2.7146   2.7313
     2.8054   2.8066   2.8181   2.8243   2.8733   2.8783   2.8993   2.9118
     2.9222   2.9701   3.0926   3.1010   3.1039   3.1201   3.1262   3.1327
     3.1882   3.2609   3.3384   3.3554   3.3822   3.3870   3.3963   3.3993
     3.6028   3.6404   3.9021   3.9157   4.0982   4.5650   4.6124   4.9641
     4.9676   4.9702   4.9755   5.4395   5.4498   5.4619   5.4798   5.5010
     5.7892   5.9585   5.9624   6.0850   6.3372   6.3629   6.5141   6.5368
     6.5512   6.5942   8.4240   8.4247   8.4579   8.4821   8.6733   8.7002
     8.8124   8.9648   9.0039   9.0194   9.0481   9.0745   9.4000   9.4246
     9.5018   9.9367   9.9427  10.0071  10.0573  10.2721  10.3650  10.5034
    10.5135  10.7840  10.9111  10.9230  10.9639  11.0314  11.0619  11.0665

     occupation numbers 
     1.0000   1.0000   1.0000   1.0000   1.0000   1.0000   1.0000   1.0000
     1.0000   1.0000   1.0000   1.0000   1.0000   1.0000   1.0000   1.0000
     1.0000   1.0000   1.0000   1.0000   1.0000   1.0000   1.0000   1.0000
     1.0000   1.0000   1.0000   1.0000   1.0000   1.0000   1.0000   1.0000
     1.0000   1.0000   1.0000   1.0000   1.0000   1.0000   1.0000   1.0000
     1.0000   1.0000   1.0000   1.0000   1.0000   1.0000   1.0000   1.0000
     1.0000   1.0000   1.0000   1.0000   1.0000   1.0000   1.0000   1.0000
     1.0000   1.0000   1.0000   1.0000   1.0000   1.0000   1.0000   1.0000
     1.0000   1.0000   1.0000   1.0000   1.0000   1.0000   1.0000   1.0000
     1.0000   1.0000   1.0000   1.0000   1.0000   1.0000   1.0000   1.0000
     1.0000   1.0000   1.0000   1.0000   1.0000   1.0000   1.0000   1.0000
     1.0000   1.0000   1.0000   1.0000   1.0000   1.0000   1.0000   1.0000
     1.0000   1.0000   1.0000   1.0000   1.0000   1.0000   1.0000   1.0000
     1.0000   1.0000   1.0000   1.0000   1.0000   1.0000   1.0000   1.0000
     1.0000   1.0000   1.0000   1.0000   1.0000   1.0000   1.0000   1.0000
     1.0000   1.0000   1.0000   1.0000   1.0000   1.0000   1.0000   1.0000
     1.0000   1.0000   1.0000   1.0000   1.0000   1.0000   1.0000   1.0000
     1.0000   1.0000   1.0000   1.0000   1.0000   1.0000   1.0000   1.0000
     1.0000   1.0000   1.0000   1.0000   1.0000   1.0000   1.0000   1.0000
     1.0000   1.0000   1.0000   1.0000   1.0000   1.0000   1.0000   1.0000
     1.0000   1.0000   1.0000   1.0000   1.0000   1.0000   1.0000   1.0000
     1.0000   1.0000   1.0000   1.0000   1.0000   1.0000   1.0000   1.0000
     1.0000   1.0000   1.0000   1.0000   1.0000   1.0000   1.0000   1.0000
     1.0000   1.0000   1.0000   1.0000   1.0000   1.0000   1.0000   1.0000
     1.0000   1.0000   1.0000   1.0000   1.0000   1.0000   1.0000   1.0000
     1.0000   1.0000   1.0000   1.0000   1.0000   1.0000   1.0000   1.0000
     1.0000   1.0000   1.0000   1.0000   1.0000   1.0000   1.0000   1.0000
     1.0000   1.0000   1.0000   1.0000   1.0000   1.0000   1.0000   1.0000
     1.0000   1.0000   1.0000   1.0000   1.0000   1.0000   1.0000   1.0000
     1.0000   1.0000   1.0000   1.0000   1.0000   1.0000   1.0000   1.0000
     1.0000   1.0000   1.0000   1.0000   1.0000   1.0000   1.0000   1.0000
     1.0000   1.0000   1.0000   1.0000   1.0000   1.0000   1.0000   1.0000
     1.0000   1.0000   1.0000   1.0000   1.0000   1.0000   1.0000   1.0000
     1.0000   1.0000   1.0000   1.0000   1.0000   1.0000   1.0000   1.0000
     1.0000   1.0000   1.0000   1.0000   1.0000   1.0000   1.0000   1.0000
     1.0000   1.0000   1.0000   1.0000   1.0000   1.0000   1.0000   1.0000
     1.0000   1.0000   1.0000   1.0000   1.0000   1.0000   1.0000   1.0000
     1.0000   1.0000   1.0000   1.0000   1.0000   1.0000   1.0000   1.0000
     1.0000   1.0000   1.0000   0.9999   0.9999   0.9999   0.9995   0.9994
     0.9972   0.9972   0.9964   0.9960   0.9893   0.9882   0.9821   0.9772
     0.9721   0.9303   0.5354   0.4938   0.4792   0.3996   0.3705   0.3407
     0.1456   0.0383   0.0084   0.0060   0.0035   0.0032   0.0026   0.0025
     0.0000   0.0000   0.0000   0.0000   0.0000   0.0000   0.0000   0.0000
     0.0000   0.0000   0.0000   0.0000   0.0000   0.0000   0.0000   0.0000
     0.0000   0.0000   0.0000   0.0000   0.0000   0.0000   0.0000   0.0000
     0.0000   0.0000   0.0000   0.0000   0.0000   0.0000   0.0000   0.0000
     0.0000   0.0000   0.0000   0.0000   0.0000   0.0000   0.0000   0.0000
     0.0000   0.0000   0.0000   0.0000   0.0000   0.0000   0.0000   0.0000
     0.0000   0.0000   0.0000   0.0000   0.0000   0.0000   0.0000   0.0000

     the Fermi energy is     3.0997 ev

!    total energy              =  -33081.83482657 Ry
     total all-electron energy =  -1325975.520477 Ry
     estimated scf accuracy    <       0.00000053 Ry
     smearing contrib. (-TS)   =      -0.04626832 Ry
     internal energy E=F+TS    =  -33081.78855825 Ry

     The total energy is F=E-TS. E is the sum of the following terms:
     one-electron contribution =  -90508.68465673 Ry
     hartree contribution      =   45325.65305708 Ry
     xc contribution           =   -1381.10320376 Ry
     ewald contribution        =   37634.15316427 Ry
     electric field correction =       0.00476796 Ry
     one-center paw contrib.   =  -24151.81168707 Ry
      -> PAW hartree energy AE =     350.74625935 Ry
      -> PAW hartree energy PS =    -349.06250471 Ry
      -> PAW xc energy AE      =   -1416.47563788 Ry
      -> PAW xc energy PS      =      73.56603399 Ry
      -> total E_H with PAW    =   45327.33681172 Ry
      -> total E_XC with PAW   =   -2724.01280765 Ry

     total magnetization       =     1.95 Bohr mag/cell
     absolute magnetization    =     1.98 Bohr mag/cell

     convergence has been achieved in 135 iterations

     negative rho (up, down):  6.000E-04 5.893E-04

     Forces acting on atoms (cartesian axes, Ry/au):

     atom    1 type  1   force =     0.00034457   -0.00027091   -0.00459668
     atom    2 type  1   force =    -0.00032901   -0.00030210   -0.00459046
     atom    3 type  1   force =    -0.00001829   -0.00016689   -0.00381521
     atom    4 type  1   force =    -0.00001795   -0.00073930   -0.00374557
     atom    5 type  1   force =    -0.00005031   -0.00002062   -0.00387700
     atom    6 type  1   force =     0.00006447    0.00000835   -0.00386227
     atom    7 type  1   force =     0.00058042    0.00030309   -0.00375604
     atom    8 type  1   force =     0.00003427    0.00035359   -0.00468504
     atom    9 type  1   force =    -0.00061707    0.00030395   -0.00373747
     atom   10 type  1   force =     0.00000065    0.00260590    0.00212480
     atom   11 type  1   force =     0.00082017    0.00044842    0.00722962
     atom   12 type  1   force =    -0.00081818    0.00049346    0.00723258
     atom   13 type  1   force =     0.00121381   -0.00056839    0.00336766
     atom   14 type  1   force =     0.00003915   -0.00089489    0.00697205
     atom   15 type  1   force =    -0.00124629   -0.00054910    0.00336313
     atom   16 type  1   force =    -0.00224344   -0.00102244    0.00224177
     atom   17 type  1   force =     0.00228483   -0.00104396    0.00223602
     atom   18 type  1   force =    -0.00003515    0.00174988    0.00359339
     atom   19 type  1   force =    -0.00263065   -0.00325082    0.00024533
     atom   20 type  1   force =     0.00261000   -0.00328684    0.00023194
     atom   21 type  1   force =     0.00002552    0.00010959    0.02044786
     atom   22 type  1   force =    -0.00003454   -0.00021604    0.00216427
     atom   23 type  1   force =     0.00381400   -0.00064978    0.00048586
     atom   24 type  1   force =    -0.00378431   -0.00066242    0.00048259
     atom   25 type  1   force =     0.00158936    0.00374259   -0.00032298
     atom   26 type  1   force =     0.00001219   -0.00005161    0.00351440
     atom   27 type  1   force =    -0.00160620    0.00372235   -0.00034064
     atom   28 type  1   force =    -0.01134460    0.00672930    0.00424337
     atom   29 type  1   force =     0.01134866    0.00671971    0.00426402
     atom   30 type  1   force =    -0.00000126    0.02642179   -0.01935227
     atom   31 type  1   force =    -0.00001863   -0.00064832    0.00582924
     atom   32 type  1   force =     0.02298221   -0.01307856   -0.01913513
     atom   33 type  1   force =    -0.02296956   -0.01307305   -0.01918383
     atom   34 type  1   force =     0.00060160    0.00021360    0.00613423
     atom   35 type  1   force =     0.00000979   -0.01362733    0.00389928
     atom   36 type  1   force =    -0.00061057    0.00020101    0.00611151
     atom   37 type  2   force =     0.00000035   -0.00000319   -0.00141433
     The non-local contrib.  to forces
     atom    1 type  1   force =    -0.00043816    0.00027485   -0.08740333
     atom    2 type  1   force =     0.00045775    0.00024496   -0.08738941
     atom    3 type  1   force =    -0.00001925   -0.00002287   -0.08724941
     atom    4 type  1   force =    -0.00001865    0.00094963   -0.08657413
     atom    5 type  1   force =    -0.00001904   -0.00001952   -0.08721677
     atom    6 type  1   force =     0.00003765    0.00001332   -0.08719938
     atom    7 type  1   force =    -0.00085392   -0.00042128   -0.08655119
     atom    8 type  1   force =     0.00003532   -0.00046354   -0.08739088
     atom    9 type  1   force =     0.00081979   -0.00042299   -0.08652685
     atom   10 type  1   force =     0.00000459    0.00299742   -0.00479426
     atom   11 type  1   force =     0.00063884    0.00046619   -0.00188595
     atom   12 type  1   force =    -0.00063630    0.00051833   -0.00187259
     atom   13 type  1   force =    -0.00025304    0.00027457   -0.00562824
     atom   14 type  1   force =     0.00004548   -0.00071507   -0.00205266
     atom   15 type  1   force =     0.00021598    0.00029785   -0.00562928
     atom   16 type  1   force =    -0.00250321   -0.00116911   -0.00459602
     atom   17 type  1   force =     0.00255162   -0.00119024   -0.00461662
     atom   18 type  1   force =    -0.00004069    0.00000968   -0.00543445
     atom   19 type  1   force =     0.00519958   -0.00369839    0.00681602
     atom   20 type  1   force =    -0.00521423   -0.00373594    0.00681794
     atom   21 type  1   force =     0.00002472    0.00016910    0.02459908
     atom   22 type  1   force =    -0.00003528   -0.00022093    0.01441268
     atom   23 type  1   force =     0.00023638    0.00637914    0.00705988
     atom   24 type  1   force =    -0.00020527    0.00637253    0.00704328
     atom   25 type  1   force =     0.00597018   -0.00281003    0.00615845
     atom   26 type  1   force =     0.00001396    0.00008371    0.01676400
     atom   27 type  1   force =    -0.00598940   -0.00282876    0.00614305
     atom   28 type  1   force =    -0.00748894    0.00447400    0.08217286
     atom   29 type  1   force =     0.00748247    0.00445650    0.08211089
     atom   30 type  1   force =     0.00001617    0.04254465    0.09555218
     atom   31 type  1   force =    -0.00002963    0.00422670    0.07923372
     atom   32 type  1   force =     0.03727860   -0.02123921    0.09520354
     atom   33 type  1   force =    -0.03727233   -0.02125775    0.09534605
     atom   34 type  1   force =    -0.00385520   -0.00240859    0.07932127
     atom   35 type  1   force =     0.00001062   -0.00963023    0.08227410
     atom   36 type  1   force =     0.00384060   -0.00242968    0.07929849
     atom   37 type  2   force =     0.00225174   -0.00102645   -0.05621806
     The ionic contribution  to forces
     atom    1 type  1   force =    -0.05458080    0.02955012 -326.80694230
     atom    2 type  1   force =     0.05457876    0.02962182 -326.80693354
     atom    3 type  1   force =     0.00000320    0.07749913 -326.71169648
     atom    4 type  1   force =     0.00005618   -0.03200439 -326.84977920
     atom    5 type  1   force =     0.06857891   -0.04081659 -326.71621553
     atom    6 type  1   force =    -0.06863496   -0.04085318 -326.71631197
     atom    7 type  1   force =     0.02689558    0.01846015 -326.84677356
     atom    8 type  1   force =    -0.00006366   -0.05981085 -326.80951365
     atom    9 type  1   force =    -0.02683111    0.01848858 -326.84689366
     atom   10 type  1   force =     0.00047072    0.32853419 -111.06320866
     atom   11 type  1   force =     0.39697335    0.21656846 -110.34962306
     atom   12 type  1   force =    -0.39728087    0.21637880 -110.34974029
     atom   13 type  1   force =     0.46039522   -0.25656352 -111.26645366
     atom   14 type  1   force =    -0.00032745   -0.46403266 -110.36761482
     atom   15 type  1   force =    -0.45976670   -0.25667389 -111.26697187
     atom   16 type  1   force =    -0.30410295   -0.14537211 -111.04270507
     atom   17 type  1   force =     0.30399261   -0.14474448 -111.04353866
     atom   18 type  1   force =     0.00038844    0.55533940 -111.24796594
     atom   19 type  1   force =    -1.55588012   -0.59609097  107.01223268
     atom   20 type  1   force =     1.55510751   -0.59724405  107.01379785
     atom   21 type  1   force =     0.00120333    0.02740136  112.39733066
     atom   22 type  1   force =    -0.00039037   -0.01522289  104.04783930
     atom   23 type  1   force =     1.28496743   -1.04441180  107.01750457
     atom   24 type  1   force =    -1.28468350   -1.04595101  107.01521192
     atom   25 type  1   force =    -0.23426853    1.63455825  107.12053057
     atom   26 type  1   force =    -0.00036292   -0.00428272  102.72166560
     atom   27 type  1   force =     0.23437754    1.63493744  107.12005204
     atom   28 type  1   force =    -1.54951344    0.91958619  318.49176191
     atom   29 type  1   force =     1.54900534    0.91786515  318.49112312
     atom   30 type  1   force =     0.00059772    5.24114265  325.05384141
     atom   31 type  1   force =    -0.00313977   -0.47947759  319.05861634
     atom   32 type  1   force =     4.56892589   -2.57601701  324.84966037
     atom   33 type  1   force =    -4.56660993   -2.57552893  324.84601923
     atom   34 type  1   force =     0.43422020    0.20029800  319.00570425
     atom   35 type  1   force =     0.00113940   -1.89059421  318.54265125
     atom   36 type  1   force =    -0.43547413    0.19761197  319.00679561
     atom   37 type  2   force =     0.00003390    0.00185118   90.29654323
     The local contribution  to forces
     atom    1 type  1   force =     0.05522033   -0.03003773  326.79935114
     atom    2 type  1   force =    -0.05512039   -0.03028513  326.79937048
     atom    3 type  1   force =    -0.00010464   -0.07771532  326.70506420
     atom    4 type  1   force =    -0.00015606    0.03035360  326.84245904
     atom    5 type  1   force =    -0.06850260    0.04066266  326.70932521
     atom    6 type  1   force =     0.06865465    0.04087062  326.70950722
     atom    7 type  1   force =    -0.02562216   -0.01763225  326.83940538
     atom    8 type  1   force =     0.00026332    0.06054673  326.80175868
     atom    9 type  1   force =     0.02535397   -0.01765739  326.83964180
     atom   10 type  1   force =    -0.00048329   -0.32896636  110.98894677
     atom   11 type  1   force =    -0.39678803   -0.21697045  110.27759118
     atom   12 type  1   force =     0.39710361   -0.21651725  110.27776281
     atom   13 type  1   force =    -0.45901053    0.25564375  111.19429292
     atom   14 type  1   force =     0.00055303    0.46386736  110.29539250
     atom   15 type  1   force =     0.45815436    0.25587420  111.19482861
     atom   16 type  1   force =     0.30430127    0.14568862  110.96826170
     atom   17 type  1   force =    -0.30396730    0.14492499  110.96906387
     atom   18 type  1   force =    -0.00061351   -0.55334772  111.17585170
     atom   19 type  1   force =     1.54785935    0.59635673 -107.10323470
     atom   20 type  1   force =    -1.54718303    0.59736172 -107.10473769
     atom   21 type  1   force =    -0.00111004   -0.02769287 -112.48479422
     atom   22 type  1   force =     0.00020714    0.01528511 -104.14484039
     atom   23 type  1   force =    -1.28119886    1.03732562 -107.10842079
     atom   24 type  1   force =     1.28109485    1.03885701 -107.10628423
     atom   25 type  1   force =     0.22979653   -1.62759480 -107.21151560
     atom   26 type  1   force =     0.00044739    0.00433698 -102.81910890
     atom   27 type  1   force =    -0.22998658   -1.62813503 -107.21113069
     atom   28 type  1   force =     1.54546945   -0.91707557 -318.64630911
     atom   29 type  1   force =    -1.54491838   -0.91537414 -318.64552958
     atom   30 type  1   force =    -0.00065141   -5.25711661 -325.24524260
     atom   31 type  1   force =     0.00313775    0.47439138 -319.20848888
     atom   32 type  1   force =    -4.58319457    2.58401560 -325.04031875
     atom   33 type  1   force =     4.58090066    2.58359600 -325.03704034
     atom   34 type  1   force =    -0.42970835   -0.19757481 -319.15532137
     atom   35 type  1   force =    -0.00110581    1.88644284 -318.69750919
     atom   36 type  1   force =     0.43093544   -0.19487004 -319.15649244
     atom   37 type  2   force =    -0.00224601   -0.00085222  -90.26941317
     The core correction contribution to forces
     atom    1 type  1   force =     0.00003247   -0.00000787    0.00752443
     atom    2 type  1   force =    -0.00003204   -0.00000771    0.00752346
     atom    3 type  1   force =     0.00000044    0.00006745    0.00728170
     atom    4 type  1   force =     0.00000026    0.00001632    0.00728760
     atom    5 type  1   force =     0.00004820   -0.00001895    0.00728305
     atom    6 type  1   force =    -0.00004821   -0.00001947    0.00728316
     atom    7 type  1   force =    -0.00000352    0.00000932    0.00728961
     atom    8 type  1   force =     0.00000009    0.00004809    0.00753444
     atom    9 type  1   force =     0.00000415    0.00000929    0.00729006
     atom   10 type  1   force =     0.00000051   -0.00003176   -0.00155359
     atom   11 type  1   force =     0.00013240    0.00009660   -0.00178590
     atom   12 type  1   force =    -0.00013227    0.00009701   -0.00178501
     atom   13 type  1   force =    -0.00011236    0.00008111   -0.00175233
     atom   14 type  1   force =     0.00000045   -0.00014513   -0.00176870
     atom   15 type  1   force =     0.00011245    0.00008104   -0.00175140
     atom   16 type  1   force =     0.00004202    0.00002688   -0.00155312
     atom   17 type  1   force =    -0.00004190    0.00002742   -0.00155323
     atom   18 type  1   force =     0.00000009   -0.00013399   -0.00176501
     atom   19 type  1   force =     0.00020864    0.00004580    0.00173709
     atom   20 type  1   force =    -0.00021029    0.00004556    0.00173700
     atom   21 type  1   force =     0.00000071   -0.00000288    0.00057900
     atom   22 type  1   force =     0.00000018   -0.00000346    0.00189599
     atom   23 type  1   force =    -0.00015493    0.00015426    0.00172411
     atom   24 type  1   force =     0.00015460    0.00015237    0.00172564
     atom   25 type  1   force =     0.00006347   -0.00021765    0.00174608
     atom   26 type  1   force =    -0.00000076   -0.00001119    0.00164118
     atom   27 type  1   force =    -0.00006309   -0.00021768    0.00174736
     atom   28 type  1   force =     0.00038301   -0.00024094   -0.00627494
     atom   29 type  1   force =    -0.00038388   -0.00024082   -0.00628098
     atom   30 type  1   force =     0.00000141   -0.00007067   -0.00642535
     atom   31 type  1   force =    -0.00000029   -0.00004265   -0.00635937
     atom   32 type  1   force =    -0.00004758    0.00001085   -0.00642321
     atom   33 type  1   force =     0.00004471    0.00000757   -0.00640028
     atom   34 type  1   force =     0.00001830   -0.00000566   -0.00634976
     atom   35 type  1   force =    -0.00000048    0.00041458   -0.00627666
     atom   36 type  1   force =    -0.00001871   -0.00000566   -0.00635088
     atom   37 type  2   force =    -0.00003660    0.00001592    0.00055698
     The Hubbard contrib.    to forces
     atom    1 type  1   force =     0.00000000    0.00000000    0.00000000
     atom    2 type  1   force =     0.00000000    0.00000000    0.00000000
     atom    3 type  1   force =     0.00000000    0.00000000    0.00000000
     atom    4 type  1   force =     0.00000000    0.00000000    0.00000000
     atom    5 type  1   force =     0.00000000    0.00000000    0.00000000
     atom    6 type  1   force =     0.00000000    0.00000000    0.00000000
     atom    7 type  1   force =     0.00000000    0.00000000    0.00000000
     atom    8 type  1   force =     0.00000000    0.00000000    0.00000000
     atom    9 type  1   force =     0.00000000    0.00000000    0.00000000
     atom   10 type  1   force =     0.00000000    0.00000000    0.00000000
     atom   11 type  1   force =     0.00000000    0.00000000    0.00000000
     atom   12 type  1   force =     0.00000000    0.00000000    0.00000000
     atom   13 type  1   force =     0.00000000    0.00000000    0.00000000
     atom   14 type  1   force =     0.00000000    0.00000000    0.00000000
     atom   15 type  1   force =     0.00000000    0.00000000    0.00000000
     atom   16 type  1   force =     0.00000000    0.00000000    0.00000000
     atom   17 type  1   force =     0.00000000    0.00000000    0.00000000
     atom   18 type  1   force =     0.00000000    0.00000000    0.00000000
     atom   19 type  1   force =     0.00000000    0.00000000    0.00000000
     atom   20 type  1   force =     0.00000000    0.00000000    0.00000000
     atom   21 type  1   force =     0.00000000    0.00000000    0.00000000
     atom   22 type  1   force =     0.00000000    0.00000000    0.00000000
     atom   23 type  1   force =     0.00000000    0.00000000    0.00000000
     atom   24 type  1   force =     0.00000000    0.00000000    0.00000000
     atom   25 type  1   force =     0.00000000    0.00000000    0.00000000
     atom   26 type  1   force =     0.00000000    0.00000000    0.00000000
     atom   27 type  1   force =     0.00000000    0.00000000    0.00000000
     atom   28 type  1   force =     0.00000000    0.00000000    0.00000000
     atom   29 type  1   force =     0.00000000    0.00000000    0.00000000
     atom   30 type  1   force =     0.00000000    0.00000000    0.00000000
     atom   31 type  1   force =     0.00000000    0.00000000    0.00000000
     atom   32 type  1   force =     0.00000000    0.00000000    0.00000000
     atom   33 type  1   force =     0.00000000    0.00000000    0.00000000
     atom   34 type  1   force =     0.00000000    0.00000000    0.00000000
     atom   35 type  1   force =     0.00000000    0.00000000    0.00000000
     atom   36 type  1   force =     0.00000000    0.00000000    0.00000000
     atom   37 type  2   force =     0.00000000    0.00000000    0.00000000
     The SCF correction term to forces
     atom    1 type  1   force =     0.00000000   -0.00000000    0.00000000
     atom    2 type  1   force =    -0.00000000    0.00000000    0.00000000
     atom    3 type  1   force =     0.00000000    0.00000000    0.00000000
     atom    4 type  1   force =     0.00000000   -0.00000000    0.00000000
     atom    5 type  1   force =    -0.00000000    0.00000000    0.00000000
     atom    6 type  1   force =     0.00000000   -0.00000000    0.00000000
     atom    7 type  1   force =     0.00000000   -0.00000000    0.00000000
     atom    8 type  1   force =    -0.00000000    0.00000000    0.00000000
     atom    9 type  1   force =     0.00000000   -0.00000000    0.00000000
     atom   10 type  1   force =     0.00000000    0.00000000    0.00000000
     atom   11 type  1   force =    -0.00000000    0.00000000    0.00000000
     atom   12 type  1   force =     0.00000000    0.00000000    0.00000000
     atom   13 type  1   force =     0.00000000   -0.00000000    0.00000000
     atom   14 type  1   force =    -0.00000000    0.00000000    0.00000000
     atom   15 type  1   force =     0.00000000   -0.00000000    0.00000000
     atom   16 type  1   force =     0.00000000   -0.00000000    0.00000000
     atom   17 type  1   force =    -0.00000000   -0.00000000    0.00000000
     atom   18 type  1   force =     0.00000000   -0.00000000    0.00000000
     atom   19 type  1   force =    -0.00001798    0.00013610    0.00006964
     atom   20 type  1   force =     0.00011016    0.00028596   -0.00000776
     atom   21 type  1   force =    -0.00009308    0.00023497    0.00010875
     atom   22 type  1   force =     0.00018392   -0.00005379    0.00023210
     atom   23 type  1   force =    -0.00003590   -0.00009690   -0.00000650
     atom   24 type  1   force =    -0.00014488   -0.00009322    0.00016139
     atom   25 type  1   force =     0.00002782   -0.00019309    0.00013292
     atom   26 type  1   force =    -0.00008536   -0.00017829   -0.00007207
     atom   27 type  1   force =     0.00005546   -0.00003353    0.00022300
     atom   28 type  1   force =    -0.00019457   -0.00001430    0.00026805
     atom   29 type  1   force =     0.00016324    0.00001311    0.00021598
     atom   30 type  1   force =     0.00003497   -0.00007814    0.00029750
     atom   31 type  1   force =     0.00001343    0.00025393    0.00020284
     atom   32 type  1   force =     0.00001998    0.00015130    0.00011832
     atom   33 type  1   force =    -0.00003256    0.00011015    0.00026691
     atom   34 type  1   force =    -0.00007323   -0.00009525    0.00015524
     atom   35 type  1   force =    -0.00003381   -0.00026023    0.00013518
     atom   36 type  1   force =     0.00010635   -0.00010549    0.00023615
     atom   37 type  2   force =    -0.00000257    0.00000848   -0.00008160

     Total force =     0.066600     Total SCF correction =     0.001105

     Writing all to output data dir ./output/pt-o-4p4.save/ :
     XML data file, charge density, pseudopotentials, collected wavefunctions

     init_run     :    351.10s CPU    354.45s WALL (       1 calls)
     electrons    : 146212.74s CPU 147173.97s WALL (       1 calls)
     forces       :    198.78s CPU    199.79s WALL (       1 calls)

     Called by init_run:
     wfcinit      :    341.05s CPU    343.81s WALL (       1 calls)
     wfcinit:atom :      1.05s CPU      1.59s WALL (      40 calls)
     wfcinit:wfcr :    335.74s CPU    337.37s WALL (      40 calls)
     potinit      :      5.04s CPU      5.28s WALL (       1 calls)
     hinit0       :      0.81s CPU      0.85s WALL (       1 calls)

     Called by electrons:
     c_bands      : 132704.39s CPU 133544.81s WALL (     135 calls)
     sum_band     :  12117.16s CPU  12204.24s WALL (     135 calls)
     v_of_rho     :    295.31s CPU    297.03s WALL (     136 calls)
     v_h          :      9.48s CPU      9.52s WALL (     136 calls)
     v_xc         :    278.44s CPU    279.88s WALL (     137 calls)
     newd         :    377.94s CPU    407.16s WALL (     136 calls)
     PAW_pot      :    442.38s CPU    443.49s WALL (     136 calls)
     mix_rho      :    261.94s CPU    263.23s WALL (     135 calls)

     Called by c_bands:
     init_us_2    :    765.37s CPU    769.89s WALL (   10880 calls)
     cegterg      : 130983.08s CPU 131813.69s WALL (    5400 calls)

     Called by sum_band:
     sum_band:wei :      3.25s CPU      3.25s WALL (     135 calls)
     sum_band:loo :  11406.42s CPU  11451.95s WALL (     135 calls)
     sum_band:buf :    154.78s CPU    156.20s WALL (    5400 calls)
     sum_band:ini :    379.10s CPU    381.17s WALL (    5400 calls)
     sum_band:cal :   5389.14s CPU   5399.74s WALL (    5400 calls)
     sum_band:bec :     28.43s CPU     28.55s WALL (    5400 calls)
     addusdens    :    684.36s CPU    725.82s WALL (     135 calls)
                                        0.00s GPU  (     135 calls)
     addusd:skk   :      7.28s CPU     11.50s WALL (     270 calls)
                                        0.00s GPU  (     270 calls)

     Called by *egterg:
     cdiaghg      :   8462.71s CPU   8477.14s WALL (   27238 calls)
     cegterg:over :  12890.00s CPU  12919.57s WALL (   21838 calls)
     cegterg:upda :   8666.65s CPU   8763.65s WALL (   21838 calls)
     cegterg:last :  22609.62s CPU  22662.86s WALL (   10205 calls)
     cdiaghg:chol :    433.89s CPU    435.19s WALL (   27238 calls)
     cdiaghg:inve :    126.39s CPU    126.74s WALL (   27238 calls)
     cdiaghg:para :   1381.05s CPU   1383.96s WALL (   54476 calls)
     h_psi        :  61947.97s CPU  62360.90s WALL (   27278 calls)
     s_psi        :  11203.91s CPU  11227.77s WALL (   27278 calls)
     g_psi        :    178.37s CPU    179.02s WALL (   21838 calls)

     Called by h_psi:
     h_psi:calbec :  11664.99s CPU  11692.24s WALL (   27278 calls)
     vloc_psi     :  38788.19s CPU  39035.98s WALL (   27278 calls)
     add_vuspsi   :  11264.36s CPU  11287.88s WALL (   27278 calls)

     General routines
     calbec       :  17231.49s CPU  17269.99s WALL (   32838 calls)
     fft          :    168.24s CPU    169.20s WALL (    3413 calls)
     ffts         :    103.74s CPU    104.29s WALL (   17024 calls)
     fftw         :  28782.60s CPU  28946.76s WALL (10843596 calls)
     interpolate  :     15.33s CPU     15.45s WALL (     272 calls)

     Parallel routines

     PAW routines
     PAW_pot      :    442.38s CPU    443.49s WALL (     136 calls)

     PWSCF        :   1d16h46m CPU   1d17h 3m WALL


   This run was terminated on:   2:10:35  11Jun2026            

=------------------------------------------------------------------------------=
   JOB DONE.
=------------------------------------------------------------------------------=
